Hybrid,Env,Win_YN,moisture,test_weight,root_lodging,stalk_lodging,plant_height,ear_height,silk,pollen,Rain_1,Rain_2,Rain_3,Rain_5,Rain_6,Rain_7,Rain_8,Rain_10,Rain_11,AccPrecip_1,AccPrecip_2,AccPrecip_3,AccPrecip_5,AccPrecip_6,AccPrecip_7,AccPrecip_8,AccPrecip_10,AccPrecip_11,Radn_1,Radn_2,Radn_3,Radn_5,Radn_6,Radn_7,Radn_8,Radn_10,Radn_11,MaxT_1,MaxT_2,MaxT_3,MaxT_5,MaxT_6,MaxT_7,MaxT_8,MaxT_10,MaxT_11,MinT_1,MinT_2,MinT_3,MinT_5,MinT_6,MinT_7,MinT_8,MinT_10,MinT_11,ThermalTime_1,ThermalTime_2,ThermalTime_3,ThermalTime_5,ThermalTime_6,ThermalTime_7,ThermalTime_8,ThermalTime_10,ThermalTime_11,TempStress_1,TempStress_2,TempStress_3,TempStress_5,TempStress_7,TempStress_8,TempStress_10,TempStress_11,latitude,longitude,year,field_location
PB80/PHZ51,GAH2_2017,N,15.15,912.6143308,3,2,235,130.5,58.5,56,5.215806507,2.59000005,0.877047008,6.976424555,36.66571527,11.68990473,2.766634194,6.717714339,5.237281131,161.6900017,18.13000035,10.98809533,219.4985743,69.630002,116.6428568,77.55666748,33.5885717,162.3557151,18.59375843,20.97986943,21.98193589,18.54567619,14.33990901,17.7663424,19.78523868,18.86354985,17.57616326,25.93516134,24.17571449,30.47339418,29.31252372,29.52904774,29.72980419,32.72601502,32.10511542,30.76784952,12.17225799,9.938571385,16.15324828,18.06353156,20.43476164,19.51114297,21.20992787,20.86352373,19.95543778,11.90954616,10.38538115,15.45655397,15.75249851,16.98190469,16.63412837,18.90169131,18.47155665,17.41241638,0.999631335,0.985714285,1,1,1,1,1,1,33.727145,-83.29821525,2017,GAH2
WF9/H95,ARH2_2017,Y,17.7,731.1212129,0,2,229,110,65,64,2.789999995,15.83285686,4.776016413,2.853949028,1.142500003,5.651818152,3.905948255,2.4430325,4.688621725,89.27999985,110.829998,61.6427269,88.95863769,3.003181826,52.42863608,105.2449988,13.33772746,145.3472735,17.14489296,19.09436907,20.93439511,19.65670258,19.84409681,19.1211903,18.81176407,19.65259997,17.546866,23.65656266,24.55142866,25.38541455,28.9612549,32.40098458,30.84565692,31.84241473,32.83627249,30.20087953,12.07343751,12.16142872,12.7110645,18.0477898,21.78734854,20.24410098,21.87781566,22.25639174,20.26112908,10.83878158,11.22094165,11.88579938,15.62584547,19.09416656,17.54487895,18.8103181,19.27693671,17.25265116,0.991674107,1,0.97315368,1,1,1,1,1,35.67418125,-90.0752695,2017,ARH2
LH212HT/LH195,IAH3_2017,Y,19,762.6572511,0,2,229,110,65,64,4.153750014,4.476666673,3.404720357,2.207347727,0.783636364,2.628276904,1.892687593,2.328876272,1.794257086,132.9200004,67.1500001,54.03954627,78.33863542,1.567272728,28.02681865,71.85545488,19.05045461,54.69545453,16.14493189,17.75127989,18.89303832,22.07985964,20.54923199,20.99384486,19.81852315,17.22919489,15.64326955,15.84312499,15.5066665,21.42652578,27.714982,28.45522753,29.90074383,27.6545798,25.64720852,25.13760955,4.41906251,4.141333344,9.782295063,13.56526933,16.05901469,16.6123348,14.8096002,12.74600627,11.28191352,5.818880471,5.62230391,9.387130072,13.2881535,14.4256186,15.3843105,13.65871261,11.89796048,11.29223634,0.568604913,0.570380948,0.879734313,1,1,1,1,0.979205627,41.9758706,-92.24318881,2017,IAH3
B73/PHM49,SCH1_2019,N,16.695,731.1212129,0,1.5,209.55,80.01,56,57,3.522580645,3.026666641,1.832071666,3.15534991,1.497023807,2.439880971,1.838213127,1.715047598,2.162465429,109.2,18.15999985,19.94999987,97.87357193,2.846428582,21.92714303,50.9164284,9.481428444,67.0364283,18.2238054,19.24788825,19.83816148,19.9388592,17.79349522,20.88775084,19.93011295,20.19525604,17.6553152,24.08129043,27.55666669,26.86360264,30.30302253,30.15095266,31.81823454,32.87501498,31.84457125,32.33357145,10.7222581,15.88833332,14.78977791,18.33498627,20.49666657,19.48954379,21.18366564,19.1694286,20.16504603,10.62715993,13.88239503,13.27455789,16.3672742,17.32380961,17.64580353,19.00989067,17.48787314,18.15917061,0.967315668,1,1,1,1,1,1,1,34.62248225,-82.73756775,2019,SCH1
B73/PHN82,WIH3_2020,N,24.38,666.6332326,0,0.4,256.3,135.2,67.7,66.1,2.733870995,5.446666638,6.112394342,4.74655674,3.655208389,1.04360979,2.527373572,3.69928986,2.61452892,84.75000083,32.67999983,82.9068754,167.6149986,8.003125131,12.58312517,113.8450009,40.74312496,78.93437568,20.41919384,18.2775027,21.33639865,20.40337995,19.49413761,18.99324058,17.80850823,14.15156863,10.1168501,15.48354838,26.52499994,25.39100386,27.30541678,28.00124967,27.24401428,25.77617537,21.78088819,14.67245705,3.106129019,15.18500026,12.31273591,15.12317531,16.14624966,16.31340126,13.17330579,9.92591724,4.431311843,5.287102842,13.2823578,11.70416503,13.61992535,14.28505882,13.97808988,12.29059579,9.657643491,5.630137727,0.571854837,1,1,1,1,0.965668942,0.879609054,0.560799012,44.115703,-89.54491325,2020,WIH3
B37/MO17,IAH4_2019,Y,34.75,630.3989683,32.5,1.75,264.75,131.25,64.5,62.5,7.44874995,0,6.508814674,5.652572602,2.433809479,0.731547632,2.455795253,7.856419535,5.758725846,238.3599984,0,89.12928634,169.456428,4.779285618,8.60571444,106.5300014,62.81714391,173.1250012,18.61457558,24.25652275,18.80062453,19.64217675,17.01762246,21.29967345,16.82875041,12.82062273,10.73648339,20.72718754,29.98400002,24.57226332,29.58102216,28.11761892,27.58625519,26.21902431,25.70162766,18.66579105,8.655312385,16.39199963,13.30590142,18.52555793,18.42333308,15.4118289,14.78252205,14.57801647,7.354403302,8.719182336,15.28713381,11.55896644,16.12377034,15.4195504,13.79277779,12.9189296,12.78184671,8.051480754,0.866629464,1,1,1,1,0.996735112,0.969646609,0.721601517,42.03193798,-93.79333213,2019,IAH4
F42/OH43,ONH1_2015,Y,35.15,702.1595451,0,1.5,225,110,86.5,86.5,1.605625002,2.296315821,1.411426091,1.973297954,0.512941169,3.436769168,2.641035405,1.799953816,2.360571209,51.38000005,43.63000059,20.30117703,73.50294104,0.81882352,40.73352947,103.9364728,19.58470627,71.14882509,18.02169462,20.4737019,23.34007091,22.64543997,20.24065375,18.07254412,18.60447299,14.22755231,12.21920895,9.771562532,12.63473691,23.7578119,26.83441686,29.90941261,27.46928249,26.11972075,22.82201755,18.35250846,-0.327500018,2.045263152,11.01347606,13.31919887,17.43313718,16.50329302,14.06775752,11.69572195,7.013714688,2.851211725,4.201400589,10.67713105,12.77399982,15.76589753,14.15032606,12.63577386,10.48249806,7.379159901,0.167098218,0.403345874,0.957007131,0.991950294,1,0.994472794,0.939113043,0.772366561,43.49741975,-80.44806025,2015,ONH1
W10001_0022/PHB47,MOH1_2016,N,15.9,731.1212129,12.5,2.5,250,112.5,55,53,2.465483877,8.058000231,0.264259377,6.282521268,1.94553035,9.25680559,4.358907121,3.354664451,5.453130527,76.43000019,40.29000115,2.879999995,172.8372758,4.262727369,83.20363667,125.2090916,21.13363606,168.2240918,20.2309363,16.93509369,22.49829557,20.20959989,18.68177986,19.21408964,18.0090922,17.17714413,15.87534947,21.83193548,27.56600037,27.88644765,31.21215235,30.25795442,31.2505745,30.57423065,29.80077912,28.25339236,10.073871,16.74400005,16.26474463,19.86215984,19.98371223,20.49117413,20.76153791,19.91431794,17.56318368,9.497798547,14.24343349,14.21296425,17.47336946,17.12232598,17.8699151,17.65104862,16.90998551,15.09561117,0.937315665,1,1,1,1,1,1,0.999442641,38.8955475,-92.2072025,2016,MOH1
B14A/OH43,DEH1_2018,N,18.85,695.0800263,0,5.5,195,97,68,67.5,3.413225795,4.724545566,2.007753279,2.760624154,0.287142856,8.862777665,3.915865231,4.933581623,5.971971652,105.8099996,51.97000122,28.2621423,90.35856978,0.861428567,79.76499898,101.102142,26.37928568,184.7400021,18.24738333,20.30334785,18.96061465,21.19242313,20.3949075,18.85770366,17.73482038,14.47844699,15.08372737,17.38161278,18.28454564,22.01469092,28.14795471,32.28714262,31.68230149,32.09286912,30.42106803,28.79790015,6.703871004,7.41363637,12.85857977,17.97497576,22.0019049,21.31992057,22.76420594,22.26141136,20.21526036,6.825711165,7.366383816,10.38385741,15.21158117,19.10753111,18.47850441,19.35879976,18.34204267,16.58274325,0.781601378,0.839058448,0.989425295,1,1,1,1,1,38.65164475,-75.44913625,2018,DEH1
W10004_0216/PHZ51,GAH2_2017,Y,17.2,763.9444363,11.5,2,249.5,127,56.5,56,5.215806507,2.59000005,0.877047008,6.976424555,36.66571527,11.68990473,2.766634194,6.717714339,5.237281131,161.6900017,18.13000035,10.98809533,219.4985743,69.630002,116.6428568,77.55666748,33.5885717,162.3557151,18.59375843,20.97986943,21.98193589,18.54567619,14.33990901,17.7663424,19.78523868,18.86354985,17.57616326,25.93516134,24.17571449,30.47339418,29.31252372,29.52904774,29.72980419,32.72601502,32.10511542,30.76784952,12.17225799,9.938571385,16.15324828,18.06353156,20.43476164,19.51114297,21.20992787,20.86352373,19.95543778,11.90954616,10.38538115,15.45655397,15.75249851,16.98190469,16.63412837,18.90169131,18.47155665,17.41241638,0.999631335,0.985714285,1,1,1,1,1,1,33.727145,-83.29821525,2017,GAH2
F42/MO17,IAH2_2017,N,15.4,733.6955833,9,7,232,122,65,64,2.991935476,4.003749907,5.594154361,1.824159742,2.965909053,1.138616173,3.544395797,5.525860929,3.224964342,92.74999976,32.02999926,86.83999968,64.74363607,5.880909015,11.03545466,133.6850016,39.36636487,98.02272796,18.91811151,22.03083944,18.39067038,21.91300981,21.59707026,21.00058551,18.76246256,16.50136756,14.56336975,16.70258062,25.25375009,21.16444029,28.78792803,31.34295403,31.03890899,27.79230679,26.54138994,25.01808603,3.836129038,9.060000002,9.836484062,14.72352594,17.1804546,18.00485339,15.61890002,13.9478747,12.25710857,5.884356407,10.52058178,9.325556586,14.19611432,16.29393371,16.57150033,14.05801276,12.73803514,11.57992501,0.659274195,1,0.882113053,1,1,1,1,0.976890029,42.06582876,-94.72050129,2017,IAH2
B73/MO17,IAH2_2017,Y,16.1,710.5262491,8,5,230,125.5,65,64,2.991935476,4.003749907,5.594154361,1.824159742,2.965909053,1.138616173,3.544395797,5.525860929,3.224964342,92.74999976,32.02999926,86.83999968,64.74363607,5.880909015,11.03545466,133.6850016,39.36636487,98.02272796,18.91811151,22.03083944,18.39067038,21.91300981,21.59707026,21.00058551,18.76246256,16.50136756,14.56336975,16.70258062,25.25375009,21.16444029,28.78792803,31.34295403,31.03890899,27.79230679,26.54138994,25.01808603,3.836129038,9.060000002,9.836484062,14.72352594,17.1804546,18.00485339,15.61890002,13.9478747,12.25710857,5.884356407,10.52058178,9.325556586,14.19611432,16.29393371,16.57150033,14.05801276,12.73803514,11.57992501,0.659274195,1,0.882113053,1,1,1,1,0.976890029,42.06582876,-94.72050129,2017,IAH2
B73/MO17,MOH1_2016,N,17.5,731.1212129,0.5,2,265,132.5,58,57,2.465483877,8.058000231,0.264259377,6.282521268,1.94553035,9.25680559,4.358907121,3.354664451,5.453130527,76.43000019,40.29000115,2.879999995,172.8372758,4.262727369,83.20363667,125.2090916,21.13363606,168.2240918,20.2309363,16.93509369,22.49829557,20.20959989,18.68177986,19.21408964,18.0090922,17.17714413,15.87534947,21.83193548,27.56600037,27.88644765,31.21215235,30.25795442,31.2505745,30.57423065,29.80077912,28.25339236,10.073871,16.74400005,16.26474463,19.86215984,19.98371223,20.49117413,20.76153791,19.91431794,17.56318368,9.497798547,14.24343349,14.21296425,17.47336946,17.12232598,17.8699151,17.65104862,16.90998551,15.09561117,0.937315665,1,1,1,1,1,1,0.999442641,38.8955475,-92.2072025,2016,MOH1
B73/MO17,WIH2_2020,N,25.36,679.8912406,58.4,0.1,274.8,150.2,74.1,72,1.142258063,7.375000167,3.772605813,4.528143625,15.91411821,3.015240613,2.848395651,6.559665308,3.073983535,35.40999997,73.75000167,42.96999988,163.850588,31.01764819,33.16764674,117.7699986,59.84176376,94.45823468,20.73953056,16.04352899,21.23354675,21.58093245,19.01370295,17.88573252,19.32013515,13.57540027,12.27254504,13.56999995,18.91099977,26.0938683,28.2322475,29.46647072,27.75422455,27.09322103,24.80509675,19.00189054,0.762580661,9.396999884,13.99892158,14.99589118,17.7452939,17.49807463,14.22893102,13.29211059,7.459399134,4.176897214,8.107987139,12.68677404,14.02444379,15.66411489,14.70790633,13.20588953,12.26960615,7.833960257,0.443168195,0.881928567,1,1,1,0.990384734,0.880973437,0.780679991,43.294786,-89.383968,2020,WIH2
F42/OH43,DEH1_2020,N,20.4625,681.0818869,0.125,8,256.625,133.125,64,63,3.884838689,2.918749928,0.484801506,3.712682555,3.963928495,10.54878945,3.680508849,4.08975176,5.319973187,120.4299994,23.34999943,5.74999997,113.1935704,6.565714155,94.92928366,102.5935729,23.16642891,164.6128593,19.34389959,17.33862388,21.23126246,20.37262205,20.84469896,18.13380163,16.82964191,15.50064315,15.14081803,17.43483888,21.1624999,25.02143811,29.01024665,32.25440507,31.30417669,31.95048154,29.3682824,28.21514964,6.792903194,12.85250008,15.40184434,18.86790491,21.28607132,21.93053571,22.84339264,21.06525136,19.30786859,6.86665098,10.04482466,12.64072343,16.02028347,18.72161765,18.60397455,19.32804006,17.22313801,15.91003144,0.79362904,0.982098209,1,1,1,1,1,1,38.628981,-75.46566025,2020,DEH1
W10004_0216/PHZ51,WIH1_2016,Y,18.7,808.3523269,0,2,275,142.5,75,75,2.076129018,1.94750002,4.430291291,4.068377178,0.606590927,8.204471101,6.520888551,7.285801826,4.413191112,64.35999957,23.37000024,50.66818307,153.9786358,1.017727305,87.41727302,222.4604529,58.95590957,134.9268184,19.92805462,20.9108026,19.53546339,20.65690042,18.97296773,19.76360502,17.50876714,15.21370917,12.23883056,16.70258062,17.57583312,27.08182728,26.49130857,27.22159082,28.35833875,27.6700069,25.1458901,22.98674642,3.327419363,4.990833327,14.04723809,14.47423798,17.58636334,16.7186736,17.17399145,14.32051147,12.5735533,5.875866612,6.419508974,12.98865398,12.92924289,14.50224274,14.72651534,14.55658067,12.23924581,10.7486024,0.621198161,0.7653869,1,1,1,0.999967803,0.998306277,0.970976554,43.05632525,-89.53194975,2016,WIH1
B73/DK3IIH6,NYH1_2017,N,16.68,731.1212129,2.4,3.6,234.8,112.2,68.2,68,4.758709581,4.139999986,2.953024942,5.715506232,4.320872878,2.701732063,2.616328443,1.022630585,3.614268439,147.519997,37.25999987,45.12618999,219.9223815,11.26857107,35.6957141,128.4247627,13.30476207,110.8900009,18.97444351,17.81005277,22.0763727,19.38397475,18.56141379,19.22534974,16.71382568,13.43506643,9.037548332,17.06967752,20.23333359,22.7745171,25.66488699,26.70396817,25.32691524,23.26007272,23.96840526,17.61119819,5.964193534,10.19,10.93717632,15.20362294,16.36293638,14.60656728,11.31793404,11.56685323,6.669544781,6.641127344,8.727253675,10.15270493,12.79474615,13.71935226,12.37567782,10.45035179,10.9124923,7.239151369,0.685760371,1,1,1,1,0.982493678,0.953634339,0.701363064,42.72880835,-76.6515625,2017,NYH1
W10004_0216/PHZ51,ARH1_2017,Y,17.7,731.1212129,0,2,229,110,65,64,3.058125025,3.532857077,9.871688678,6.405160528,0.516363615,5.988171668,5.119232493,3.102318153,5.34158356,97.86000079,24.72999954,132.0327285,211.6218184,0.569545432,54.36818138,136.8913653,16.08272713,165.5890903,17.13974981,16.55343887,20.38424011,18.76225527,22.81364793,19.06964508,19.53553475,19.77193111,17.12972935,24.60906261,23.96000045,24.77057006,28.06605652,30.35469691,31.5146664,31.30577636,32.78459133,30.91587993,11.9175,14.17857156,11.8445801,17.60850246,18.97249995,21.30615642,21.39979275,22.50533316,21.62237538,11.1639709,11.77578055,11.22655186,14.97537354,16.74359516,18.41041141,18.33049426,19.54768126,18.22457608,1,1,1,1,1,1,1,1,34.7272515,-90.76032575,2017,ARH1
B14A/MO17,IAH1_2017,Y,17.95,705.3775082,2.5,4,211.5,107.5,65,64,3.40562493,4.965384584,4.756276119,1.833606587,3.814090996,2.221484887,3.670808328,1.81325484,2.347473118,108.9799978,64.54999959,71.28272616,63.78727258,4.177727374,22.83863677,118.9068186,13.7622725,72.03681816,16.19865167,17.41178014,18.84198651,22.07722619,19.57094626,20.6423577,19.65334879,19.12382584,16.87809105,17.11343735,15.37846162,22.95951679,28.09807267,26.50742381,30.27960591,29.79948923,26.92834941,26.37674051,5.413125027,4.923076978,11.46549016,14.16962528,11.61757578,16.65775237,16.66504091,13.38757222,12.41510662,6.530778339,5.768563812,10.45370215,13.71965113,11.94783378,15.64262598,15.39964617,12.71239892,12.1737806,0.629988832,0.555054952,0.946458762,1,1,1,1,0.998130952,41.19924609,-91.49402296,2017,IAH1
B37/H95,DEH1_2016,Y,20.8,742.0622874,4,2,261,118.5,79,76.5,2.701875035,7.431818214,3.891344367,3.01543569,5.358105985,2.453055546,7.028031294,2.624318106,3.1968602,86.46000111,81.75000036,66.39499953,101.6163622,13.33454524,24.02227264,188.3231781,15.05272682,98.58045408,18.33047433,10.1000462,19.40971708,21.02938559,18.25055452,17.64652011,18.94468483,17.7865103,16.44449792,18.09,16.60090897,19.90208421,27.67646738,27.79681775,28.9030859,31.91379825,31.21812112,30.57169607,5.529687506,9.93090907,10.11289786,16.8589893,18.02106052,19.78800518,21.90881045,21.62957593,20.16127331,6.825577378,7.645605865,8.606637786,14.43603228,14.98401645,16.37610101,18.85541374,18.37748956,17.3477875,0.726328134,0.729318176,0.990929859,1,1,1,1,1,38.6482025,-75.44606,2016,DEH1
F42/OH43,NCH1_2019,Y,13.5,763.62264,0,0.75,215.6875,100.9375,58.5,56.25,2.191129027,0,0.107342031,4.775073233,0.466011907,4.533660718,6.24100048,2.370892844,2.941295675,67.92499983,0,1.347142833,143.4146411,0.94178571,36.26928575,165.0100003,13.54249993,91.02821354,18.69452832,25.30126673,21.77382428,19.07893176,22.56876209,20.7892765,19.22903807,18.96679552,16.71087377,25.69580629,28.76666609,32.29891346,30.08294473,33.3002377,33.83080339,32.75741781,32.04927549,30.79691829,13.34274195,12.19133326,19.06280588,18.61089734,20.56851188,21.23558053,21.08131414,19.9046464,19.77832645,12.18436683,13.33597385,17.64216348,16.39126772,18.88342746,19.44075481,18.8247811,17.98080212,17.31161093,1,1,1,1,1,1,1,1,35.67010175,-78.510504,2019,NCH1
B14A/MO17,NYH1_2017,Y,21.75,731.1212129,0.5,14.5,236,125,81,79.5,4.758709581,4.139999986,2.953024942,5.715506232,4.320872878,2.701732063,2.616328443,1.022630585,3.614268439,147.519997,37.25999987,45.12618999,219.9223815,11.26857107,35.6957141,128.4247627,13.30476207,110.8900009,18.97444351,17.81005277,22.0763727,19.38397475,18.56141379,19.22534974,16.71382568,13.43506643,9.037548332,17.06967752,20.23333359,22.7745171,25.66488699,26.70396817,25.32691524,23.26007272,23.96840526,17.61119819,5.964193534,10.19,10.93717632,15.20362294,16.36293638,14.60656728,11.31793404,11.56685323,6.669544781,6.641127344,8.727253675,10.15270493,12.79474615,13.71935226,12.37567782,10.45035179,10.9124923,7.239151369,0.685760371,1,1,1,1,0.982493678,0.953634339,0.701363064,42.72880835,-76.6515625,2017,NYH1
W10004_0216/PHZ51,NEH4_2015,N,14.6,795.4804746,0,2,290,140,65,57,2.821875036,0,3.668207424,2.0125769,1.951249957,2.654893884,1.684158262,0.190010425,1.166079967,90.30000114,0,33.89000034,59.04687595,1.951249957,28.04999942,59.1787506,1.401875056,35.09749981,18.84220009,27.31064491,20.41342533,20.52862815,19.03072298,18.81303122,18.33826559,17.15407273,12.68489203,24.01437524,30.79399948,29.66091772,30.90712841,30.81250072,28.65153035,29.50292414,26.73776808,20.93262179,13.35843744,15.59799976,18.4981335,19.26878801,20.26031268,17.34358901,16.24316685,11.04417556,7.09840123,11.80342709,15.44887437,16.14310254,17.09436255,17.53736601,15.18702607,15.25106182,11.88303257,8.618375536,0.931774556,1,1,1,1,0.97284651,0.984144349,0.784438609,41.16732275,-96.41663225,2015,NEH4
LH74/PHN82,ILH1_2019,Y,16.05,780.0342518,0,0,207,94.5,61.5,59.5,3.922903261,5.481666605,1.00366755,4.244691953,0.864761892,1.289377346,1.227411081,2.864647074,2.116070648,121.6100011,32.88999963,10.01785682,147.0385723,1.34571428,11.77428573,45.42428628,20.70571404,64.49999962,18.80145381,19.65322081,22.67392072,19.84274881,20.61125065,20.0231267,19.28032854,15.59344345,14.97056188,19.78774188,27.49499989,27.66771062,28.39175175,31.90428638,30.86753304,28.53869606,27.75133519,26.64299619,8.822580737,16.11666648,15.73801632,17.44140675,20.6435711,19.81749468,16.71837596,16.74759351,14.38373492,8.392897398,14.01107102,13.933587,15.08804109,18.28423173,17.40393302,14.78980986,14.45116262,13.1086535,0.871382484,1,1,1,1,1,1,0.979387755,40.0587105,-88.2298385,2019,ILH1
TX714/TX779,TXH1-Early_2018,Y,11,767.805992,0,2,235,85,74.5,74.5,2.442333295,0.87833333,4.91741256,2.91095925,1.112321411,5.987347663,3.094033648,2.445309502,2.573656677,73.26999886,5.269999981,55.2178573,113.3721426,4.449285643,64.36357035,86.72785865,13.67714274,77.357857,13.4988633,14.49154552,13.92485348,19.6618496,19.390827,19.64184359,19.38410293,21.21373351,18.01258323,19.68933331,26.95833333,25.66614373,26.56996845,30.24238085,29.14372996,31.91805433,33.2644762,34.51160554,6.357666679,15.03999996,15.13755815,13.69055459,18.24071415,16.44843436,20.63070323,20.50154739,23.97494014,7.613570572,13.40715604,12.87528071,12.79536137,16.34410207,15.0664779,18.21233438,18.75919739,20.40606275,0.821476194,1,0.991620595,0.99408643,1,1,1,0.999013392,30.546318,-96.4329965,2018,TXH1-Early
B37/OH43,WIH2_2019,N,34.85,614.9527455,0,0,257.0833333,117.0833333,68.5,67.5,5.084687524,1.186666648,3.682690384,5.868440751,0.695238091,4.73009737,4.315774648,4.395502279,4.547947068,162.7100008,7.119999886,58.08928529,183.8007161,1.222857135,55.05428533,207.5435701,59.53000056,136.8792876,20.51840827,23.10255337,19.84622659,19.54978709,22.13574316,19.04821964,14.90817086,12.98397937,9.337872891,18.93468753,26.85500018,22.80729416,28.92841129,27.86750015,27.53142967,23.33864799,22.30785619,12.19546616,7.173437506,12.79833317,11.75963315,17.3057567,14.67845241,15.42498763,12.56161555,11.34993986,2.687473085,7.568173943,12.44054354,10.32084191,15.24419851,13.63574066,13.78240318,10.8770868,10.55092288,4.713570865,0.808549105,1,0.995612408,1,1,0.966295589,0.875965566,0.450550638,43.320768,-89.33189475,2019,WIH2
B73/MO17,TXH2_2019,N,10.48,772.2274733,0,0,214.5,66.5,70.5,69.5,1.71448275,0.072857141,3.656594302,9.095434564,0.409285716,1.207678571,5.355850783,1.246142852,1.574419343,49.71999974,0.50999999,52.00785631,328.2121388,0.592857139,9.661428571,146.4478573,6.531428533,47.51499965,15.42805705,20.52131135,18.76898834,18.57032559,21.42349659,18.85281525,20.14881361,21.03072751,19.84089234,18.45000007,25.76428577,24.43254944,27.27586732,31.09000002,32.37866099,32.72435205,34.04471448,34.98200776,6.826206914,10.35000004,10.67963154,14.78766739,18.65857179,21.85071427,21.02442735,21.79614282,22.6049739,7.457816468,11.1589152,10.85119479,13.46630403,16.91193677,19.11412105,18.84765314,19.77807102,20.01419559,0.749667494,1,0.945308164,1,1,1,1,0.999698925,30.546318,-96.4329965,2019,TXH2
CG119/CG108,NYH1_2017,Y,17.7,731.1212129,0,2,229,110,65,64,4.758709581,4.139999986,2.953024942,5.715506232,4.320872878,2.701732063,2.616328443,1.022630585,3.614268439,147.519997,37.25999987,45.12618999,219.9223815,11.26857107,35.6957141,128.4247627,13.30476207,110.8900009,18.97444351,17.81005277,22.0763727,19.38397475,18.56141379,19.22534974,16.71382568,13.43506643,9.037548332,17.06967752,20.23333359,22.7745171,25.66488699,26.70396817,25.32691524,23.26007272,23.96840526,17.61119819,5.964193534,10.19,10.93717632,15.20362294,16.36293638,14.60656728,11.31793404,11.56685323,6.669544781,6.641127344,8.727253675,10.15270493,12.79474615,13.71935226,12.37567782,10.45035179,10.9124923,7.239151369,0.685760371,1,1,1,1,0.982493678,0.953634339,0.701363064,42.72880835,-76.6515625,2017,NYH1
LH195/PHZ51,OHH1_2016,N,18.05,744.6366578,0,46,274,137,65,64,4.328064465,1.776000023,3.915145208,2.580740659,3.890757626,4.17049496,5.079069289,3.957741935,3.614594814,134.1699984,8.880000114,44.70363614,85.9177286,9.330454675,39.94818193,160.1854537,27.69772666,110.1186362,18.3437644,22.24283047,20.73146956,20.35982518,19.15233416,18.82824642,16.72048491,17.98730955,14.71797893,19.63580645,29.63200035,26.56953589,28.59263588,29.59106055,30.69283836,29.21689182,28.27188687,26.30588322,8.120967747,16.89599972,14.9739129,16.70528562,18.30318191,19.74443426,18.9160149,15.44500838,13.40262461,8.117657052,15.32722009,13.17028057,14.81678154,15.96857054,17.23303236,16.11713161,14.21502474,12.5845871,0.859331788,1,1,1,1,1,0.999172078,0.989049277,39.860924,-83.6755995,2016,OHH1
LH82/PHB47,IAH2_2017,N,14.6,744.3148615,0.25,17.75,180.75,81.5,65,64,2.991935476,4.003749907,5.594154361,1.824159742,2.965909053,1.138616173,3.544395797,5.525860929,3.224964342,92.74999976,32.02999926,86.83999968,64.74363607,5.880909015,11.03545466,133.6850016,39.36636487,98.02272796,18.91811151,22.03083944,18.39067038,21.91300981,21.59707026,21.00058551,18.76246256,16.50136756,14.56336975,16.70258062,25.25375009,21.16444029,28.78792803,31.34295403,31.03890899,27.79230679,26.54138994,25.01808603,3.836129038,9.060000002,9.836484062,14.72352594,17.1804546,18.00485339,15.61890002,13.9478747,12.25710857,5.884356407,10.52058178,9.325556586,14.19611432,16.29393371,16.57150033,14.05801276,12.73803514,11.57992501,0.659274195,1,0.882113053,1,1,1,1,0.976890029,42.06582876,-94.72050129,2017,IAH2
PHW52/PHM49,NEH2_2015,N,14.55,759.439288,0,1.5,229,110,95.5,94,1.358750008,3.755999994,3.031264216,1.286090902,0.286666671,1.657187527,3.751759362,0.157499999,0.616713691,43.48000026,37.55999994,66.29000026,43.49999976,0.860000014,16.57187527,117.6431233,0.944999993,18.99062441,19.53783247,19.98656282,18.8528682,23.65152674,23.21232343,22.7312118,19.62767813,21.61948185,18.20728239,15.03874992,23.15200024,18.66927583,30.14561768,32.37510385,32.60862507,30.36489819,32.31320816,28.31448706,-2.426562488,5.230999994,5.264051067,13.5723423,16.5714581,16.13087479,15.9646131,15.56819047,11.19634675,4.192485347,8.478296732,6.894904354,14.37610508,16.560328,16.47008009,15.3434088,16.05261291,12.83173005,0.519497764,0.97653572,0.809891265,1,1,1,1,0.922021698,41.0514495,-100.7471915,2015,NEH2
PHG80/PHZ51,IAH4_2015,Y,16.95,730.4776202,3,5,277,135.5,65,64,1.42451612,4.854615514,2.513668144,6.351127419,5.46999979,2.154687441,1.85099418,0.335758934,4.064770202,44.15999973,63.11000168,35.58999979,218.2399999,10.93999958,20.30812445,58.48687407,2.377500039,125.1143763,19.83997888,19.28772805,16.02270398,20.69822917,17.27718186,21.35831173,20.17303565,19.59360772,15.6142427,15.83032262,16.78769229,22.26164163,27.88725423,29.37999988,31.52784708,28.69895342,30.18404469,25.46833276,2.473548389,5.024615425,13.48280789,16.59868734,20.37374985,19.78628468,17.37298211,16.89515858,12.68514048,5.318693913,6.228847238,10.78291245,14.47529064,16.87687486,17.66054739,15.18141656,15.71210426,12.05907357,0.585391697,0.659230777,0.98994413,1,1,1,1,0.952600636,41.19970961,-91.49362406,2015,IAH4
B37/OH43,GAH1_2017,Y,17.7,731.1212129,0,2,229,110,65,64,1.929687474,5.730000019,0.343252103,3.449286585,2.107618968,4.586772466,5.884115127,3.462793619,5.790337869,61.74999917,45.84000015,4.185237975,115.4628578,3.161428452,44.24761888,164.3961923,18.00285697,179.500474,16.80249013,20.13732326,20.17342047,19.27076224,21.20480144,16.6798163,18.15858085,19.37517402,17.73704587,23.5584375,24.76124978,28.73884546,29.02932191,29.79031757,30.11825943,30.88468736,33.04158726,32.39466959,8.654999979,9.073749959,13.81601286,15.94569083,16.85142871,20.07059283,21.0580027,22.24365102,22.03411694,9.935165979,10.3201674,13.6844889,14.81363998,15.5596332,17.10789698,17.95959829,19.61349988,19.1980032,0.8834375,1,1,1,1,1,1,1,31.50794425,-83.55854475,2017,GAH1
B73/MO17,NEH3_2017,N,27.4,726.6160645,18,2,176.5,82.5,65,64,6.03471326,3.955444498,0.18882913,3.842009577,1.316296295,1.435570981,2.764433094,3.912023778,4.15136979,187.076111,38.21611161,1.987222274,117.8244439,3.948888885,12.8655555,93.99333183,27.38611089,126.3194449,18.53150537,21.70326166,24.15860034,20.80931081,18.66603313,19.02487726,18.75887595,17.51813417,15.15718003,20.20137986,23.21257118,30.13389904,30.13339279,32.06462927,32.76776237,28.39622898,27.87449379,27.0242909,7.908297486,10.26215086,15.17879712,16.87891665,20.62425956,20.98993062,16.95054818,15.08081369,13.75654417,8.47748899,10.0955543,14.95078719,15.67969265,18.3413362,18.75248222,14.77642402,13.79312874,13.00111339,0.783510626,0.953819441,1,1,1,1,1,0.993105158,41.162,-96.409,2017,NEH3
PHP02/PHB47,MNH1_2016,N,21.8,731.1212129,0,2,229,110,73.5,71.5,2.893225764,0.170000008,5.030425272,6.121705224,6.438583227,6.210954471,8.179238718,7.617170889,9.394742846,89.68999869,1.190000057,67.79499967,212.8530004,13.67999972,65.11499918,295.599999,62.20750045,287.315495,17.89673604,26.28611401,18.122652,20.29948324,15.80941307,17.87578139,16.93568638,15.29315111,12.15008877,17.5148386,25.45428576,24.53269911,27.63337014,28.14450006,28.70269129,27.15887183,24.8505404,22.53032632,6.338387108,9.824285678,13.68155402,15.81410535,17.82425013,18.42635015,16.92976579,13.57123889,11.50456607,6.871134867,10.90204251,11.6566452,13.98369248,15.05511886,15.68076391,14.22086787,11.86153057,10.26982602,0.734527645,1,1,1,1,0.999952477,0.98729881,0.936092645,44.06646925,-93.533648,2016,MNH1
PHG39/TX205,COH1_2017,N,40,561.8563546,0,11.25,250.25,98,81.25,77.5,3.393124943,0,0.001708684,0.360843908,0.891428554,3.560382097,1.42287895,1.565670675,1.770870451,108.5799982,0,0.02904762,12.29476177,1.600476163,43.78523833,56.48285717,21.02523811,53.20285701,22.26802993,25.65694836,25.9931063,24.2875628,21.26982858,19.37652668,19.65631787,15.92591012,11.99136935,20.38624986,26.27857154,29.00990249,30.95750085,32.84396765,29.24597739,27.87075516,24.49812031,17.64004964,4.676250031,9.955714362,11.44166305,13.33492254,15.64190474,14.2894836,11.55992968,8.650869984,2.505724526,7.387813889,11.22152513,12.97827389,14.53136664,16.23032426,14.11586508,12.58015619,10.40568176,6.007000116,0.859799101,1,1,1,1,0.978368119,0.882220332,0.653649732,40.64850025,-104.9997825,2017,COH1
B37/MO17,IAH1_2017,Y,17.7,731.1212129,0,2,229,110,65,64,3.40562493,4.965384584,4.756276119,1.833606587,3.814090996,2.221484887,3.670808328,1.81325484,2.347473118,108.9799978,64.54999959,71.28272616,63.78727258,4.177727374,22.83863677,118.9068186,13.7622725,72.03681816,16.19865167,17.41178014,18.84198651,22.07722619,19.57094626,20.6423577,19.65334879,19.12382584,16.87809105,17.11343735,15.37846162,22.95951679,28.09807267,26.50742381,30.27960591,29.79948923,26.92834941,26.37674051,5.413125027,4.923076978,11.46549016,14.16962528,11.61757578,16.65775237,16.66504091,13.38757222,12.41510662,6.530778339,5.768563812,10.45370215,13.71965113,11.94783378,15.64262598,15.39964617,12.71239892,12.1737806,0.629988832,0.555054952,0.946458762,1,1,1,1,0.998130952,41.19924609,-91.49402296,2017,IAH1
B14A/MO17,IAH2_2017,N,16.7,686.7133223,3,11.5,223.5,112,65,64,2.991935476,4.003749907,5.594154361,1.824159742,2.965909053,1.138616173,3.544395797,5.525860929,3.224964342,92.74999976,32.02999926,86.83999968,64.74363607,5.880909015,11.03545466,133.6850016,39.36636487,98.02272796,18.91811151,22.03083944,18.39067038,21.91300981,21.59707026,21.00058551,18.76246256,16.50136756,14.56336975,16.70258062,25.25375009,21.16444029,28.78792803,31.34295403,31.03890899,27.79230679,26.54138994,25.01808603,3.836129038,9.060000002,9.836484062,14.72352594,17.1804546,18.00485339,15.61890002,13.9478747,12.25710857,5.884356407,10.52058178,9.325556586,14.19611432,16.29393371,16.57150033,14.05801276,12.73803514,11.57992501,0.659274195,1,0.882113053,1,1,1,1,0.976890029,42.06582876,-94.72050129,2017,IAH2
LH74/PHN82,GAH2_2020,N,14.45,728.5468424,0,10.75,213.75,108,57.75,57.75,4.57387094,0.441111114,8.353941854,2.596292498,5.733571683,2.103095203,2.179001438,2.485142878,3.918548365,141.7899991,3.970000029,91.39071568,80.77428585,11.41500051,18.92785683,57.71499962,12.42571439,121.4749993,20.66171874,23.27184486,17.58943298,19.5164109,18.75300796,20.35385684,20.26001561,17.11426864,16.01109332,24.32935487,22.81222216,27.25049476,29.76903398,31.23452386,32.73428517,34.13891635,33.4245718,31.64458511,9.683548431,7.437777784,15.07002369,18.41195949,20.46821458,20.95039675,21.2406723,21.91714281,20.83905522,10.34437265,8.95024402,13.55540875,16.15181668,17.85136922,18.84234096,19.40061188,19.58004094,18.23728962,0.993479262,1,1,1,1,1,1,1,33.72355555,-83.30265185,2020,GAH2
B14A/H95,IAH1_2015,Y,19.3,709.2390639,0,45,270,150,65,64,1.566451638,2.213076954,8.402418557,1.323463692,0.084411761,2.297359398,2.93999255,2.37101191,2.732793763,48.56000078,28.7700004,122.1399999,43.52999979,0.168823523,22.82352863,100.1182349,16.67000003,83.81294001,20.43214903,18.85811498,14.63317728,22.31276759,19.14227258,22.20806523,19.83862588,18.33763158,15.0581957,16.08774191,16.64538457,21.84697853,28.7334183,30.26852911,31.30747052,29.05105531,29.39636272,24.66946357,1.839032284,4.865384661,13.12892854,16.86768962,20.05941139,18.05705196,16.3929614,15.43749916,11.17229855,5.447129731,6.098188577,10.48240964,14.99632473,17.16639266,16.72884186,14.96924927,14.77137221,11.30644361,0.593087559,0.682994502,0.988452545,1,1,0.997626801,1,0.896934674,41.9980952,-93.69336973,2015,IAH1
B97/PHB47,INH1_2015,N,14.05,715.6749901,1,5,203,86.5,67.5,67,2.968064535,5.608750075,2.401797478,2.620596579,1.049062505,3.048312443,3.454130844,1.332533481,1.484370975,92.01000059,44.8700006,26.44312483,85.12437463,1.715625018,30.48312443,116.5724995,9.316249996,45.68062523,19.44608656,13.59046638,21.88315593,21.65689439,20.60130358,19.73326552,18.77560381,17.99738388,15.64927463,15.67580632,21.0562501,27.44396829,29.52449332,32.66781175,30.16981242,28.17317586,28.46934151,25.5406298,3.004516139,13.05249977,15.22068343,16.62214482,19.56843758,18.02818774,16.71489706,16.46563638,12.56847521,5.360930658,9.9438759,13.725819,15.26696414,18.11812466,16.1828721,14.63810214,14.67667849,11.95902497,0.609504607,1,1,1,1,1,1,0.986081101,40.477075,-87.000205,2015,INH1
B73/PHM49,IAH2_2019,Y,22.1,722.7545088,1,0.5,255,131.5,65,64,1.624999978,4.994666719,7.633826981,4.023414549,10.53523836,1.22350002,2.763567443,7.261517829,4.773321835,51.99999928,74.92000079,126.7292866,144.3807149,31.60571507,12.2350002,103.2057142,58.23357121,145.3535721,19.40078695,15.59915857,17.73377221,20.37141966,18.69170743,21.11460887,19.04896103,16.46108124,13.94542613,15.78031255,14.78666655,21.30773964,26.90560141,30.4667857,29.3667858,27.70213024,26.0789087,24.69893011,1.823749996,4.276000045,9.222208134,15.06467224,19.71440506,18.17542877,16.74212177,15.32632928,13.45358666,5.188982368,5.371381143,9.150668224,13.41851256,17.10626668,15.79657396,14.44283917,13.04517908,11.92357614,0.546495539,0.532857125,0.866155154,0.998157434,1,1,1,0.956872449,42.06583499,-94.72067796,2019,IAH2
B14A/OH43,IAH2_2019,Y,25.05,664.8311733,1,2.5,232,109,65,64,1.624999978,4.994666719,7.633826981,4.023414549,10.53523836,1.22350002,2.763567443,7.261517829,4.773321835,51.99999928,74.92000079,126.7292866,144.3807149,31.60571507,12.2350002,103.2057142,58.23357121,145.3535721,19.40078695,15.59915857,17.73377221,20.37141966,18.69170743,21.11460887,19.04896103,16.46108124,13.94542613,15.78031255,14.78666655,21.30773964,26.90560141,30.4667857,29.3667858,27.70213024,26.0789087,24.69893011,1.823749996,4.276000045,9.222208134,15.06467224,19.71440506,18.17542877,16.74212177,15.32632928,13.45358666,5.188982368,5.371381143,9.150668224,13.41851256,17.10626668,15.79657396,14.44283917,13.04517908,11.92357614,0.546495539,0.532857125,0.866155154,0.998157434,1,1,1,0.956872449,42.06583499,-94.72067796,2019,IAH2
PHW52/PHM49,WIH1_2018,Y,22.116,795.7121679,0,2,246.6,111.4,68.6,67.4,1.609999989,7.097692302,4.543300024,5.384655594,12.90857152,6.684415526,1.835393967,1.490247701,3.282350194,49.90999967,92.26999992,56.1414287,188.537143,17.774286,73.52857079,76.14071582,18.50214262,100.642856,20.21844376,17.61529163,19.67186989,21.74517717,19.19342093,18.08513378,19.62003162,16.98075827,12.74863056,13.31193533,16.25923072,24.73561688,28.00164855,31.39095186,28.11097395,26.99453296,26.15077082,19.9357303,1.183225821,5.521538512,13.28283365,14.89542408,18.89249983,17.62870117,14.61713968,12.9208708,8.385953947,4.208379921,6.163069931,11.75441076,13.86262536,17.16453014,14.91796624,13.29691021,12.54059059,8.511099252,0.430714275,0.66777473,1,1,1,0.987929958,0.939058758,0.805939432,43.0544,-89.5317,2018,WIH1
PHG29/PHG47,MIH1_2020,N,16.125,729.190435,0,3.5,231,127,58,58,4.984838709,2.447142908,2.78018427,2.64718347,5.506875038,1.476884461,2.688717092,6.006552647,2.65185957,154.53,17.13000035,30.43499947,89.07562375,6.053750038,16.17374991,112.2143753,49.72375022,79.8756258,20.40588462,19.28742858,24.32683064,21.06964646,18.47526628,19.40802789,18.05267967,13.18055513,11.8632568,17.75483874,24.12857165,28.18736501,29.25734834,30.47187495,29.12451894,27.19720882,23.65947149,18.53645566,5.91032262,13.18571418,13.36449351,15.87753885,17.57625037,17.40439215,14.2199518,12.09430501,6.603961046,6.886871568,11.64218502,13.33305563,14.86544572,16.04104967,15.33737973,13.2580117,11.17810785,7.349100415,0.70564517,0.993469382,1,1,1,0.990981538,0.929873564,0.775463757,42.7085775,-84.4705825,2020,MIH1
B73/PHM49,GAH1_2018,Y,14.75,709.8182972,0,2.5,232.5,110,61,60,4.231249915,1.934999943,5.575464231,3.801027214,1.067857163,3.256190501,3.932246866,3.816857059,2.685023025,135.3999973,11.60999966,76.79571342,135.0185695,1.516428607,29.30571451,107.1921429,19.08428529,83.23571379,16.89130574,18.83037901,19.9789379,20.32622599,17.16636637,17.47509449,19.98058203,18.77657547,18.35496912,25.6268748,28.56500022,25.46428012,27.96417186,30.5753573,30.54857133,31.9994497,33.07128549,33.68336431,12.70062498,14.46999963,11.35988473,14.27301998,20.47928579,20.42444427,20.68398901,21.82542842,22.30905548,11.99291119,13.91639365,11.33534042,13.63652225,17.52732154,17.4865078,18.33967815,19.36985553,19.8838857,0.988973219,1,1,1,1,1,1,1,31.50582525,-83.55515025,2018,GAH1
F42/MO17,GAH1_2020,N,18.685,700.9367191,2,4,200,87.5,68,64,4.279687563,0,6.08243138,3.811420537,2.267976227,2.530000055,3.98378478,1.741833346,2.910207357,136.950002,0,84.37571335,135.9278565,4.833571502,22.77000049,107.9378566,9.115000069,90.21642806,16.61263859,21.5972875,19.10636237,20.72286693,14.54687945,18.15584731,20.08605453,19.68634889,18.27781732,25.37343752,26.77166684,25.94144379,27.77824619,29.55357116,30.6518255,31.78195276,33.48178532,33.56322575,12.43875006,10.55666669,12.19035929,13.80720781,20.58059497,20.26111097,20.57386992,21.96838095,22.25456222,11.80508215,11.69113274,11.88989525,13.35432975,17.06708306,17.45646823,18.17996521,19.67032327,19.80166763,0.988537947,1,1,1,1,1,1,1,31.5079775,-83.558517,2020,GAH1
PHB47/PHZ51,INH1_2020,Y,19.16,738.0076539,0,2,242,109.25,65,64,2.63064515,6.092222161,2.380905542,2.638028789,0.629411796,2.977235278,3.349803369,1.095052516,1.575144189,81.54999965,54.82999945,26.35000017,86.90176377,0.755294155,29.77235278,114.9176474,7.60117643,48.41470517,19.12040675,14.46862051,21.68340347,21.75389977,20.24839053,19.66959435,18.78188958,18.00828299,15.45076636,15.20677414,20.6899999,27.1104927,29.42650107,32.0752936,30.36388222,28.15834081,28.66782236,25.41333794,2.934193564,11.51555562,15.17811918,16.46944194,19.37588254,18.23752946,16.66734055,16.5683672,12.52337519,5.193705795,9.337664252,13.54219901,15.16026165,17.73146127,16.3694037,14.61167179,14.83949529,11.90095499,0.576025338,0.994801587,1,1,1,1,1,0.975702381,40.4787965,-86.9895995,2020,INH1
B37/MO17,MNH1_2016,N,23.4,731.1212129,0,2,229,110,68.5,66.5,2.893225764,0.170000008,5.030425272,6.121705224,6.438583227,6.210954471,8.179238718,7.617170889,9.394742846,89.68999869,1.190000057,67.79499967,212.8530004,13.67999972,65.11499918,295.599999,62.20750045,287.315495,17.89673604,26.28611401,18.122652,20.29948324,15.80941307,17.87578139,16.93568638,15.29315111,12.15008877,17.5148386,25.45428576,24.53269911,27.63337014,28.14450006,28.70269129,27.15887183,24.8505404,22.53032632,6.338387108,9.824285678,13.68155402,15.81410535,17.82425013,18.42635015,16.92976579,13.57123889,11.50456607,6.871134867,10.90204251,11.6566452,13.98369248,15.05511886,15.68076391,14.22086787,11.86153057,10.26982602,0.734527645,1,1,1,1,0.999952477,0.98729881,0.936092645,44.06646925,-93.533648,2016,MNH1
F42/OH43,NYH3_2015,N,23.2,731.1212129,3,9.5,244,131,79,78.5,4.268387075,0,1.234803629,3.315485905,3.744705864,3.708743319,2.034738589,2.091907533,2.160160663,132.3199993,0,17.66999944,111.4647067,9.843529393,38.42352946,75.35117763,21.49235322,65.37235311,20.95885717,21.76160183,22.01003167,20.47654391,19.37507164,18.84800849,18.09954582,14.25866518,12.17165493,15.21516129,28.41399994,23.9726608,27.94852153,28.22411762,29.00645443,26.88612691,22.65429039,19.02039094,3.206451565,16.00799999,11.62235867,15.61032629,16.7502941,17.72633694,14.88804443,11.60832066,7.356588233,5.349626667,14.38734971,10.95773449,14.17183136,14.61937489,15.41213998,13.31670354,10.34569698,7.707711279,0.504331792,1,0.97267375,0.996219796,1,0.995345527,0.95775528,0.812032548,42.7233625,-76.6555945,2015,NYH3
B37/H95,INH1_2020,Y,24.8975,739.4235576,1.25,2,231.5,114.05,70.75,66.5,2.63064515,6.092222161,2.380905542,2.638028789,0.629411796,2.977235278,3.349803369,1.095052516,1.575144189,81.54999965,54.82999945,26.35000017,86.90176377,0.755294155,29.77235278,114.9176474,7.60117643,48.41470517,19.12040675,14.46862051,21.68340347,21.75389977,20.24839053,19.66959435,18.78188958,18.00828299,15.45076636,15.20677414,20.6899999,27.1104927,29.42650107,32.0752936,30.36388222,28.15834081,28.66782236,25.41333794,2.934193564,11.51555562,15.17811918,16.46944194,19.37588254,18.23752946,16.66734055,16.5683672,12.52337519,5.193705795,9.337664252,13.54219901,15.16026165,17.73146127,16.3694037,14.61167179,14.83949529,11.90095499,0.576025338,0.994801587,1,1,1,1,1,0.975702381,40.4787965,-86.9895995,2020,INH1
2369/LH123HT,ILH1_2019,Y,17.65,784.5394001,0,0,274.5,141,63,61.5,3.922903261,5.481666605,1.00366755,4.244691953,0.864761892,1.289377346,1.227411081,2.864647074,2.116070648,121.6100011,32.88999963,10.01785682,147.0385723,1.34571428,11.77428573,45.42428628,20.70571404,64.49999962,18.80145381,19.65322081,22.67392072,19.84274881,20.61125065,20.0231267,19.28032854,15.59344345,14.97056188,19.78774188,27.49499989,27.66771062,28.39175175,31.90428638,30.86753304,28.53869606,27.75133519,26.64299619,8.822580737,16.11666648,15.73801632,17.44140675,20.6435711,19.81749468,16.71837596,16.74759351,14.38373492,8.392897398,14.01107102,13.933587,15.08804109,18.28423173,17.40393302,14.78980986,14.45116262,13.1086535,0.871382484,1,1,1,1,1,1,0.979387755,40.0587105,-88.2298385,2019,ILH1
WF9/H95,MNH1_2016,N,23.85,731.1212129,0,2,229,110,70,68,2.893225764,0.170000008,5.030425272,6.121705224,6.438583227,6.210954471,8.179238718,7.617170889,9.394742846,89.68999869,1.190000057,67.79499967,212.8530004,13.67999972,65.11499918,295.599999,62.20750045,287.315495,17.89673604,26.28611401,18.122652,20.29948324,15.80941307,17.87578139,16.93568638,15.29315111,12.15008877,17.5148386,25.45428576,24.53269911,27.63337014,28.14450006,28.70269129,27.15887183,24.8505404,22.53032632,6.338387108,9.824285678,13.68155402,15.81410535,17.82425013,18.42635015,16.92976579,13.57123889,11.50456607,6.871134867,10.90204251,11.6566452,13.98369248,15.05511886,15.68076391,14.22086787,11.86153057,10.26982602,0.734527645,1,1,1,1,0.999952477,0.98729881,0.936092645,44.06646925,-93.533648,2016,MNH1
2369/LH123HT,WIH2_2018,N,25.47777778,756.5788764,8.111111111,2,266,142.7777778,67,65,3.144193572,1.768571428,3.785071194,5.164846227,1.715952385,3.402224049,3.044948822,9.615599338,3.371772616,97.47000074,12.38,46.28142902,179.8699983,4.560714279,37.70642883,131.4821453,73.47714479,101.7171416,19.25733411,21.12108299,21.47525877,21.2745393,18.31717262,18.53021556,18.66070884,13.62580315,11.37185475,15.52870961,24.66571426,26.09170284,28.23486864,27.86595249,27.65838755,26.70641136,24.92152362,17.96867439,3.195161297,12.95000008,13.88902894,15.13385395,17.40500012,17.0648215,13.77097062,13.5657747,6.887165117,5.289841082,11.57195132,12.6458491,14.08946858,14.71699087,14.50107081,12.89356629,12.23397282,7.279203781,0.580092163,1,1,1,1,0.981419113,0.932006969,0.73866365,43.38075,-89.38645,2018,WIH2
WF9/H95,WIH1_2016,N,20.35,747.8546209,1.5,7.5,255,136.5,75,74.5,2.076129018,1.94750002,4.430291291,4.068377178,0.606590927,8.204471101,6.520888551,7.285801826,4.413191112,64.35999957,23.37000024,50.66818307,153.9786358,1.017727305,87.41727302,222.4604529,58.95590957,134.9268184,19.92805462,20.9108026,19.53546339,20.65690042,18.97296773,19.76360502,17.50876714,15.21370917,12.23883056,16.70258062,17.57583312,27.08182728,26.49130857,27.22159082,28.35833875,27.6700069,25.1458901,22.98674642,3.327419363,4.990833327,14.04723809,14.47423798,17.58636334,16.7186736,17.17399145,14.32051147,12.5735533,5.875866612,6.419508974,12.98865398,12.92924289,14.50224274,14.72651534,14.55658067,12.23924581,10.7486024,0.621198161,0.7653869,1,1,1,0.999967803,0.998306277,0.970976554,43.05632525,-89.53194975,2016,WIH1
LH195/LH82,MOH1_2015,N,14.5,731.1212129,0,5,182.5,85,75,74,3.914838722,3.002727248,2.7038834,5.646226268,2.268750012,1.183333344,4.736744086,1.740401796,3.666491943,121.3600004,33.02999973,34.41999933,178.8712478,5.868750036,10.6500001,140.2618746,11.88312507,113.6612502,18.81846694,18.88703156,16.92919735,21.70591481,15.72154266,19.94530069,18.47422179,20.12873028,17.02653892,18.28451609,18.00181831,23.77805456,28.93028285,29.85593748,31.76118019,30.42140763,28.58050013,28.43143147,5.857096827,7.500000065,15.21487777,17.6487962,21.67281234,21.45979159,20.28182538,17.09899995,17.28669369,7.068544315,7.302193139,11.97142579,15.39796361,17.76437491,18.61048589,17.380694,14.99182695,15.05317439,0.723283405,0.814935086,1,1,1,1,1,1,38.8965375,-92.20800417,2015,MOH1
PHG80/PHZ51,NCH1_2017,N,15.7,731.1212129,0,2,218.5,88,65,64,5.929354779,4.097142833,0.297958702,3.860588722,6.673809642,5.437090039,2.513672686,1.67758051,4.140460835,183.8099982,28.67999983,4.023333254,115.8195228,10.90952401,51.84571517,65.15761944,9.68857149,128.3542859,16.84796118,19.66078799,22.20077414,19.20396089,15.77249108,20.54839894,18.7994723,19.26606379,16.40835168,26.07000006,23.57857159,28.17011276,29.72614366,31.01404729,30.48814813,32.54721675,31.95695904,30.43138246,13.64064524,11.25142826,15.69757802,18.87536398,22.57674573,19.84793622,22.28039625,21.2748593,20.81350234,12.56442422,10.48784987,14.26665949,16.36044911,18.79940835,17.21144066,19.38557496,18.57336573,17.65269876,0.998329492,1,1,1,1,1,1,1,35.29663725,-77.5668065,2017,NCH1
B73/TX779,NCH1_2019,Y,16.6,748.4982135,0,1.5,227.0625,107.8125,63,62.25,2.191129027,0,0.107342031,4.775073233,0.466011907,4.533660718,6.24100048,2.370892844,2.941295675,67.92499983,0,1.347142833,143.4146411,0.94178571,36.26928575,165.0100003,13.54249993,91.02821354,18.69452832,25.30126673,21.77382428,19.07893176,22.56876209,20.7892765,19.22903807,18.96679552,16.71087377,25.69580629,28.76666609,32.29891346,30.08294473,33.3002377,33.83080339,32.75741781,32.04927549,30.79691829,13.34274195,12.19133326,19.06280588,18.61089734,20.56851188,21.23558053,21.08131414,19.9046464,19.77832645,12.18436683,13.33597385,17.64216348,16.39126772,18.88342746,19.44075481,18.8247811,17.98080212,17.31161093,1,1,1,1,1,1,1,1,35.67010175,-78.510504,2019,NCH1
CG44/CGR01,TXH3_2019,N,14.11,761.7304777,0,0,169,51,64,63.5,1.71448275,0.072857141,3.656594302,9.095434564,0.409285716,1.207678571,5.355850783,1.246142852,1.574419343,49.71999974,0.50999999,52.00785631,328.2121388,0.592857139,9.661428571,146.4478573,6.531428533,47.51499965,15.42805705,20.52131135,18.76898834,18.57032559,21.42349659,18.85281525,20.14881361,21.03072751,19.84089234,18.45000007,25.76428577,24.43254944,27.27586732,31.09000002,32.37866099,32.72435205,34.04471448,34.98200776,6.826206914,10.35000004,10.67963154,14.78766739,18.65857179,21.85071427,21.02442735,21.79614282,22.6049739,7.457816468,11.1589152,10.85119479,13.46630403,16.91193677,19.11412105,18.84765314,19.77807102,20.01419559,0.749667494,1,0.945308164,1,1,1,1,0.999698925,30.546318,-96.4329965,2019,TXH3
2369/LH123HT,OHH1_2019,Y,30.4,673.84147,0,0,260,118,60,60.5,4.521875016,5.601428505,9.492184188,3.677677905,1.565714342,0.385974026,1.865305095,1.659047621,1.751738837,144.7000005,39.20999953,109.352857,105.4928564,2.907142963,4.24571429,67.73714224,11.40714287,52.9257135,18.88405965,17.49267101,16.84002865,20.33907461,18.24357363,21.92391064,17.3234713,16.43535432,12.68824739,23.69781238,23.04428564,25.93387695,30.64626114,27.23428535,29.13649368,27.63471609,28.40205787,24.22775882,12.37312506,13.01428563,16.54052476,19.15377674,17.29857152,16.61116873,15.68739982,14.41860554,10.15227039,11.09781511,10.85645158,13.41085782,16.95249079,14.39118839,15.00214972,13.92115805,13.81574558,10.76649669,0.952522323,1,1,1,1,1,1,0.923664697,39.85685125,-83.67122475,2019,OHH1
PHG80/PHZ51,IAH1_2017,Y,16.05,738.8443243,0,8.5,219,92.5,65,64,3.40562493,4.965384584,4.756276119,1.833606587,3.814090996,2.221484887,3.670808328,1.81325484,2.347473118,108.9799978,64.54999959,71.28272616,63.78727258,4.177727374,22.83863677,118.9068186,13.7622725,72.03681816,16.19865167,17.41178014,18.84198651,22.07722619,19.57094626,20.6423577,19.65334879,19.12382584,16.87809105,17.11343735,15.37846162,22.95951679,28.09807267,26.50742381,30.27960591,29.79948923,26.92834941,26.37674051,5.413125027,4.923076978,11.46549016,14.16962528,11.61757578,16.65775237,16.66504091,13.38757222,12.41510662,6.530778339,5.768563812,10.45370215,13.71965113,11.94783378,15.64262598,15.39964617,12.71239892,12.1737806,0.629988832,0.555054952,0.946458762,1,1,1,1,0.998130952,41.19924609,-91.49402296,2017,IAH1
F42/H95,ILH1_2016,N,16.45,736.9135464,0,2,269.5,137.5,75.5,73.5,2.976905237,4.388409027,2.266536067,5.61207631,2.384848472,3.596551307,3.312350719,4.357499975,4.793790319,93.71999985,46.35499933,33.46068128,180.4177266,4.628863606,41.73386359,104.1413657,28.32431801,148.2020453,18.82488241,16.77241452,21.32061235,20.18653607,20.74234538,18.07981042,18.8666989,17.85818253,16.07680721,18.05081144,19.20204525,23.0422997,29.42292662,27.90308728,26.97317812,29.60218573,29.15938829,28.17592877,4.960040295,8.531272602,10.4507586,17.10049505,15.99717794,16.84881478,19.41054858,18.84383108,17.09740687,6.781235125,7.969267807,10.17119166,15.41614171,14.29579798,14.15384892,16.51995977,16.04951253,14.84458937,0.666766271,0.897956159,0.946860721,1,1,1,1,0.999883117,40.0607245,-88.2338815,2016,ILH1
CG119/CG108,INH1_2019,Y,18.24,912.9361272,0,2,214.75,118.5,56,56,4.638124973,1.291666667,4.254883356,1.873002707,7.542143106,0.579848493,2.745608418,1.194209184,2.037834084,148.4199991,7.75,53.11714339,53.83785783,14.64785763,6.669285808,98.22214476,12.45785718,61.58714233,19.82387961,19.183822,19.33565513,20.5079362,16.64856858,22.30931036,17.46113557,15.79330395,12.43542766,23.34687504,26.15000025,24.44131608,31.06458042,27.9682139,28.43625549,27.60941131,25.59340811,22.91422815,11.29093746,15.88166634,14.27159151,19.40569109,18.2715475,15.1189393,15.69895629,13.38685715,10.33005226,10.62626718,13.2428989,11.86638398,17.27971266,15.26406297,14.09359416,13.93027737,12.23653025,10.46761426,0.918526784,1,1,1,1,0.999060374,0.966691327,0.86252861,40.477063,-87.00020175,2019,INH1
TX714/PHZ51,ARH2_2016,N,13.6,731.1212129,0,2,208.5,132,65.5,64,5.780937422,12.26500018,3.712120208,7.0222886,1.105000019,0.295568184,1.931287914,1.454696927,6.280835692,184.9899975,73.59000111,50.67409075,233.2059098,2.210000038,2.364545475,51.29727264,7.656817956,194.7059064,17.76457119,17.22719622,20.14058537,19.80644481,18.88262117,19.79738723,18.69440654,19.88854878,15.60714355,21.02781257,25.69833342,24.88224707,27.55747889,33.1628785,33.38017045,32.40728063,33.71248445,31.37684753,8.517187547,14.13833332,13.26693003,16.75834882,22.79151535,23.21522755,22.56353312,22.95024234,22.3752492,8.626308124,12.37618007,11.75818796,14.46644855,19.89189903,20.24263088,19.43024202,20.23735303,18.81126952,0.958649555,1,1,1,1,1,1,1,35.838614,-90.66530155,2016,ARH2
PHB47/PHZ51,ONH2_2015,Y,19.55,765.8752142,0,0,280,138.5,77,78,1.876451608,4.282666683,1.928005431,1.58261263,10.80264742,1.923208582,3.114388399,4.294901914,2.356388962,58.16999984,64.24000025,23.61999965,57.22470651,21.60529484,21.1552944,115.5017658,31.56294079,72.1164696,18.95380112,18.76709785,21.17743809,22.45418875,20.04103015,18.4543581,18.45373918,15.80078253,13.34539525,11.17387095,14.38466663,23.91200153,26.61279381,30.15176526,27.65053462,26.77986929,25.87464046,20.7920557,2.006774224,5.636000033,13.64950245,15.64688346,19.32647026,18.51812829,16.74694623,15.4972221,11.03054456,3.742938436,5.617129505,11.53065914,13.52353119,16.78542678,15.13421866,13.95153495,13.1846932,9.37660249,0.276970043,0.589690475,0.985132406,1,1,1,0.993019959,0.931831119,42.45408625,-81.8816065,2015,ONH2
2369/LH123HT,GAH1_2019,N,16.16,732.0222425,0,3.5,212.5,105,64,62,4.224827643,1.980000006,1.908236784,2.106472486,0,0.090714284,5.691865924,1.473428559,3.045620547,122.5200016,17.82000005,22.37999977,72.04999958,0,0.725714275,156.5528547,7.367142797,92.8692846,16.4500471,17.48633936,17.40259385,20.9384506,22.51147406,21.84430948,17.66714436,19.76491442,19.71139218,21.20655165,22.58666695,26.81574745,29.5228407,35.04273814,35.70196446,32.62270198,33.62814315,33.36893722,7.214827602,8.595555623,14.04498416,14.47543411,19.21654783,20.58464301,20.89661115,21.78014287,21.253149,8.370628681,9.274220075,12.91642218,14.40044999,18.67726543,19.28313207,18.63395398,19.63555568,19.18049021,0.90216748,0.984365085,1,1,1,1,1,1,31.50582525,-83.55515025,2019,GAH1
B97/PHB47,DEH1_2017,Y,17.7,731.1212129,0,2,229,110,65,64,2.917187458,6.201428686,3.00780289,3.517983876,1.211428521,1.632751291,5.214259368,11.31934688,4.882730708,93.34999865,43.4100008,45.34571489,126.7790489,1.268571377,15.48333303,157.8533328,69.24809492,151.3147631,17.05647962,17.73228645,20.71096481,19.57386043,19.15556694,20.88592809,18.21237176,18.15756056,16.58607394,20.26624998,24.66142872,21.72245043,26.82298965,30.35071437,30.31148162,30.69555299,28.43090921,27.29702356,9.32593758,14.19571427,10.68752201,16.75855213,19.906349,19.88150788,21.21690322,18.72144455,17.91444491,8.690479953,12.08402314,9.787934269,14.12431868,17.15482568,17.14050735,17.94790556,15.63546309,14.74613823,0.907287956,1,0.959736116,1,1,1,1,1,38.67025825,-75.4333645,2017,DEH1
TX779/LH195,NCH1_2018,Y,21.95,731.1212129,0,2,184.5,97.5,56.5,57,4.157741868,0,6.852651043,4.101575565,0.281428576,2.753968325,7.265916583,9.606714405,8.963617552,128.8899979,0,78.76714403,125.545715,0.410714286,22.4842863,196.6735732,49.18571489,277.8721441,19.15814344,24.86455965,15.13897653,19.38558293,23.18458939,19.6068393,18.38664919,15.55735787,15.52161696,22.42709686,23.6650002,25.05504787,28.99162569,32.21999972,32.77589287,33.41271207,32.57228504,30.53730396,9.272903273,8.262500107,16.63082339,19.21430847,20.43714251,21.48106165,22.41052549,22.8214047,21.52269578,9.383610038,9.710722454,13.07063738,16.1524193,18.32857112,19.12847726,19.83450897,19.67052049,18.05632483,0.990449307,1,1,1,1,1,1,1,35.6667825,-78.492372,2018,NCH1
PHP02/PHB47,MOH1_2017,N,16.3,731.1212129,0.5,1.5,231.5,118,60.5,59,8.937741737,9.40166688,2.512230721,3.318030003,5.035714369,1.794490762,1.996986524,1.220079397,1.67255761,277.0699939,56.41000128,33.26619119,103.9014299,11.93095259,15.87761924,65.30142803,7.334762096,51.25476209,18.72482054,18.08832916,22.62422694,21.00800173,18.77514496,19.93438148,19.70533138,19.36646121,17.34329115,21.92032254,25.32999992,25.47495036,29.30087203,30.46650729,32.25412016,29.92026774,28.22145964,28.04827898,10.06000005,15.27666648,12.99827088,17.39768618,19.78222205,21.21359122,18.70404881,16.33857143,14.9717184,9.612847321,12.76903024,11.94928206,15.49761919,17.12130987,18.67277384,16.20463701,14.48208578,13.92850008,0.915472353,1,1,1,1,1,1,0.999239796,38.89264,-92.2057525,2017,MOH1
PHG80/PHZ51,NEH3_2017,N,21.65,757.5085102,25,2,184,93,65,64,6.03471326,3.955444498,0.18882913,3.842009577,1.316296295,1.435570981,2.764433094,3.912023778,4.15136979,187.076111,38.21611161,1.987222274,117.8244439,3.948888885,12.8655555,93.99333183,27.38611089,126.3194449,18.53150537,21.70326166,24.15860034,20.80931081,18.66603313,19.02487726,18.75887595,17.51813417,15.15718003,20.20137986,23.21257118,30.13389904,30.13339279,32.06462927,32.76776237,28.39622898,27.87449379,27.0242909,7.908297486,10.26215086,15.17879712,16.87891665,20.62425956,20.98993062,16.95054818,15.08081369,13.75654417,8.47748899,10.0955543,14.95078719,15.67969265,18.3413362,18.75248222,14.77642402,13.79312874,13.00111339,0.783510626,0.953819441,1,1,1,1,1,0.993105158,41.162,-96.409,2017,NEH3
B73/TX779,MOH1_1_2020,N,17.8,731.1212129,0.333333333,0.333333333,245.3333333,127.3333333,65,61.33333333,2.765624954,8.119999743,10.49656654,1.909885915,5.802857127,7.415295831,3.691475556,2.293301892,3.400930865,88.49999854,40.59999871,96.7978566,57.0957143,7.737142835,67.39857156,118.848571,17.52928566,104.715714,18.75466287,21.25211372,22.49923535,20.31658939,20.84622072,17.68630925,18.12476098,17.46293798,14.64158327,22.18656257,30.76999931,28.86546125,30.72469998,30.62226157,31.26253243,28.67352632,29.54480095,24.35225034,12.23093753,19.21800041,17.35636515,20.03188031,19.40511944,21.45309498,18.10676495,17.58972003,12.9136675,10.41798935,16.99399986,15.213465,17.3995364,17.01369051,18.36589209,15.51205264,15.80164337,11.56818364,0.936383936,1,1,1,1,1,0.995985623,0.962870504,38.8978375,-92.2070925,2020,MOH1
B73/MO17,WIH1_2017,Y,20.5,709.8826565,0,2,270,137.5,80,80,3.894838602,1.694000003,3.49156578,6.251914317,26.29780264,12.3515148,1.782621048,1.031219451,2.019413967,120.7399967,16.94000003,60.77000046,238.2086357,55.48409002,148.2181776,77.27181808,11.13545426,60.74545419,17.96009764,21.56986256,18.71582301,20.73316127,19.69440102,19.58726141,19.1692292,15.69151392,12.21998586,16.03451621,20.2119998,20.22998088,26.71060266,27.00553033,27.16428033,24.80808837,24.03641879,21.845045,3.37838715,6.260000002,9.268565708,14.6662765,15.35575767,16.21109857,13.17589581,11.52521119,9.509429623,5.507434962,7.720411242,8.664602637,13.14891279,13.46068042,13.9043846,11.67856357,10.90146065,9.608265423,0.606900932,0.8735357,0.867893568,1,1,0.998220242,0.971647403,0.89569217,43.05668125,-89.5308135,2017,WIH1
TX714/TX779,IAH3_2017,Y,28.75,700.8723599,0,2,229,110,65,64,4.153750014,4.476666673,3.404720357,2.207347727,0.783636364,2.628276904,1.892687593,2.328876272,1.794257086,132.9200004,67.1500001,54.03954627,78.33863542,1.567272728,28.02681865,71.85545488,19.05045461,54.69545453,16.14493189,17.75127989,18.89303832,22.07985964,20.54923199,20.99384486,19.81852315,17.22919489,15.64326955,15.84312499,15.5066665,21.42652578,27.714982,28.45522753,29.90074383,27.6545798,25.64720852,25.13760955,4.41906251,4.141333344,9.782295063,13.56526933,16.05901469,16.6123348,14.8096002,12.74600627,11.28191352,5.818880471,5.62230391,9.387130072,13.2881535,14.4256186,15.3843105,13.65871261,11.89796048,11.29223634,0.568604913,0.570380948,0.879734313,1,1,1,1,0.979205627,41.9758706,-92.24318881,2017,IAH3
TX714/TX779,NYH3_2020,N,18.25,664.8311733,0,3.5,274.5,163.5,79.5,78,4.422257993,0,1.373865683,3.203515064,6.161458224,3.578657229,2.247619776,1.339995863,2.270768823,137.0899978,0,18.69000064,113.6731244,12.19749978,37.86125033,87.74812532,17.041875,68.54562519,20.94560956,21.78233427,21.55267425,20.63825651,19.18147684,18.87690393,17.75633085,13.93943947,11.5316014,14.59225801,27.97729172,23.60945411,27.89842024,28.17958339,28.76829368,26.51617347,21.47489044,18.12990527,2.644717742,15.68266662,11.3508871,15.53912014,16.43281273,17.50013456,14.53010818,10.52921434,6.891416056,5.000434995,14.04753459,10.70035646,14.11697706,14.42792892,15.19886376,13.03509367,9.604727821,7.356101809,0.471947005,1,0.969562211,0.99553941,1,0.989555914,0.903066166,0.764418635,42.73227475,-76.6513705,2020,NYH3
2369/LH123HT,ONH2_2019,N,30.25,686.3271667,2,0.5,264.5,139,65,61.5,3.148749955,1.707142813,2.884788786,4.447732757,0.559615387,2.381315681,1.591062148,2.963873616,2.693056068,100.7599986,11.94999969,28.24076917,155.5976948,1.398461539,27.51692318,83.67846091,41.8892306,82.50307587,19.66548085,22.32332843,21.1459014,19.53903082,19.21471346,16.24443645,13.80926932,11.15414419,7.415876262,21.25437486,24.3300002,28.12065395,27.65940311,26.58807711,26.0777262,22.19925608,19.8977064,9.549499144,11.33624993,14.43999985,17.94791472,17.45486711,16.31807709,16.95925516,13.13253797,10.95349597,1.834706344,9.515816833,11.92539607,15.12217856,14.69848405,13.62366511,13.69445237,10.64536319,9.344594814,3.453371008,0.985803572,1,1,1,1,0.93986372,0.838029257,0.289255913,42.45221275,-81.881844,2019,ONH2
F42/MO17,NCH1_2019,N,17.7,731.1212129,0,2,229,110,65,64,2.191129027,0,0.107342031,4.775073233,0.466011907,4.533660718,6.24100048,2.370892844,2.941295675,67.92499983,0,1.347142833,143.4146411,0.94178571,36.26928575,165.0100003,13.54249993,91.02821354,18.69452832,25.30126673,21.77382428,19.07893176,22.56876209,20.7892765,19.22903807,18.96679552,16.71087377,25.69580629,28.76666609,32.29891346,30.08294473,33.3002377,33.83080339,32.75741781,32.04927549,30.79691829,13.34274195,12.19133326,19.06280588,18.61089734,20.56851188,21.23558053,21.08131414,19.9046464,19.77832645,12.18436683,13.33597385,17.64216348,16.39126772,18.88342746,19.44075481,18.8247811,17.98080212,17.31161093,1,1,1,1,1,1,1,1,35.67010175,-78.510504,2019,NCH1
F42/MO17,IAH3_2015,Y,21.6,698.941582,0,2,259,132,65,64,1.888124991,2.913571392,3.784813995,6.971928843,0,3.257500064,1.487385228,2.541446469,4.507444947,60.41999972,40.78999949,55.43999982,241.6600003,0,32.57500064,50.31437471,24.68500039,138.7756267,19.80172794,20.03998334,15.9141292,20.68283491,21.69136486,21.24428636,20.63784564,18.68301758,14.92198489,14.64187506,16.6814285,21.6371088,27.61372247,30.87885427,30.3035625,28.596254,28.51656267,24.33389908,0.83250004,3.600714236,12.24542872,16.05178152,19.47364565,18.11006255,15.99319583,14.30373217,10.64901215,4.605131548,5.787499831,10.11465775,14.1164012,17.17624996,16.25391669,14.57670766,13.97583386,10.87542788,0.501462055,0.634540813,0.981270753,1,1,1,0.968879463,0.933929792,41.97585629,-92.24291804,2015,IAH3
B73/MO17,INH1_2019,N,21.24,787.8860817,3,2,250.25,134.5,63.5,62,4.638124973,1.291666667,4.254883356,1.873002707,7.542143106,0.579848493,2.745608418,1.194209184,2.037834084,148.4199991,7.75,53.11714339,53.83785783,14.64785763,6.669285808,98.22214476,12.45785718,61.58714233,19.82387961,19.183822,19.33565513,20.5079362,16.64856858,22.30931036,17.46113557,15.79330395,12.43542766,23.34687504,26.15000025,24.44131608,31.06458042,27.9682139,28.43625549,27.60941131,25.59340811,22.91422815,11.29093746,15.88166634,14.27159151,19.40569109,18.2715475,15.1189393,15.69895629,13.38685715,10.33005226,10.62626718,13.2428989,11.86638398,17.27971266,15.26406297,14.09359416,13.93027737,12.23653025,10.46761426,0.918526784,1,1,1,1,0.999060374,0.966691327,0.86252861,40.477063,-87.00020175,2019,INH1
B14A/MO17,TXH1-Dry_2018,Y,17.7,731.1212129,0,2,202,70,65,74.5,2.442333295,0.87833333,4.91741256,2.91095925,1.112321411,5.987347663,3.094033648,2.445309502,2.573656677,73.26999886,5.269999981,55.2178573,113.3721426,4.449285643,64.36357035,86.72785865,13.67714274,77.357857,13.4988633,14.49154552,13.92485348,19.6618496,19.390827,19.64184359,19.38410293,21.21373351,18.01258323,19.68933331,26.95833333,25.66614373,26.56996845,30.24238085,29.14372996,31.91805433,33.2644762,34.51160554,6.357666679,15.03999996,15.13755815,13.69055459,18.24071415,16.44843436,20.63070323,20.50154739,23.97494014,7.613570572,13.40715604,12.87528071,12.79536137,16.34410207,15.0664779,18.21233438,18.75919739,20.40606275,0.821476194,1,0.991620595,0.99408643,1,1,1,0.999013392,30.546318,-96.4329965,2018,TXH1-Dry
CG44/CGR01,MOH1_2016,N,16.4,731.1212129,0.5,2,202.5,92.5,52,51,2.465483877,8.058000231,0.264259377,6.282521268,1.94553035,9.25680559,4.358907121,3.354664451,5.453130527,76.43000019,40.29000115,2.879999995,172.8372758,4.262727369,83.20363667,125.2090916,21.13363606,168.2240918,20.2309363,16.93509369,22.49829557,20.20959989,18.68177986,19.21408964,18.0090922,17.17714413,15.87534947,21.83193548,27.56600037,27.88644765,31.21215235,30.25795442,31.2505745,30.57423065,29.80077912,28.25339236,10.073871,16.74400005,16.26474463,19.86215984,19.98371223,20.49117413,20.76153791,19.91431794,17.56318368,9.497798547,14.24343349,14.21296425,17.47336946,17.12232598,17.8699151,17.65104862,16.90998551,15.09561117,0.937315665,1,1,1,1,1,1,0.999442641,38.8955475,-92.2072025,2016,MOH1
PHW52/PHM49,NEH4_2017,N,16.85,767.805992,16.5,3.5,129.5,44.5,65,64,4.590322548,9.024000108,0.479867887,3.811963874,0.538484848,1.684924238,2.267850047,4.65714279,3.86350146,142.299999,90.24000108,5.110000134,117.465454,1.615454544,15.13454541,79.63181698,32.59999953,117.4254543,19.43913734,17.21531701,24.1724839,20.95919975,19.50871722,19.21508163,18.90739129,17.69743939,15.39985704,20.62225799,19.52599983,28.59420128,30.06742287,31.22545445,32.42712118,28.61649727,28.47933405,26.83248677,7.519354824,9.509000063,13.57084537,16.75424147,19.44181835,20.40977276,17.16375472,15.74751643,13.71007622,8.50655754,8.450389052,13.62685976,15.58817353,17.34314748,18.36849178,14.97842881,14.34457974,12.87682879,0.797626729,0.881249991,1,1,1,1,1,0.994264069,41.162,-96.409,2017,NEH4
PHG39/TX205,NYH2_2016,N,22.25,731.1212129,1,2,198,90.5,81,78,2.034516133,1.030000001,1.88805842,0.867300396,1.140952366,2.326450204,3.376451109,4.287746575,3.208572451,63.07000011,12.36000001,22.4085716,34.4438095,2.622857094,25.59095225,116.65619,31.75809508,97.82571426,19.21240982,23.35584625,23.40556822,22.17883586,23.94456446,21.25361649,17.18897092,16.17245816,13.35906413,14.04935483,18.68749992,27.50851283,26.23633728,28.78071431,29.31692664,28.41638555,26.44500865,23.15297547,1.686774175,4.439999988,12.92699036,12.85534504,13.89476193,15.65588736,16.863818,13.58818034,10.55762265,4.511298309,6.607155497,12.88765676,12.33330427,13.7996272,14.74166699,14.82295673,12.66050813,10.26842414,0.447315667,0.804761906,0.999400038,0.994542932,1,0.999880088,0.994843294,0.949842165,42.726117,-76.655339,2016,NYH2
LH198/PHZ51,ONH2_2016,N,18.55,754.2905471,0,4.5,241,122.5,75,71.5,1.435483875,1.740833327,1.463802716,3.022687524,0.150999999,1.134659085,3.046446673,1.693503778,2.765116665,44.50000012,20.88999993,18.84600039,117.1590009,0.150999999,12.25349994,101.0444998,13.16149993,84.26899996,19.72563927,22.19747464,21.68954048,21.77365896,18.98664827,19.92678304,16.69906166,15.68152671,12.9072029,14.10741935,17.58083336,26.00758685,26.04894451,27.78099985,28.79287246,28.2480382,25.9224786,23.75348014,4.257419363,7.13166666,15.03828811,14.1477789,17.72699971,17.33924119,18.24672102,15.95494667,14.17526013,5.131346137,6.986841243,12.85116395,12.65171997,14.84296497,15.26027205,15.31782021,13.26534606,11.67621189,0.511244241,0.799851209,1,1,1,1,1,0.975829282,42.4530035,-81.88279875,2016,ONH2
B14A/H95,INH1_2019,Y,25.945,867.9490032,0,2,221.75,124,63.5,62.5,4.638124973,1.291666667,4.254883356,1.873002707,7.542143106,0.579848493,2.745608418,1.194209184,2.037834084,148.4199991,7.75,53.11714339,53.83785783,14.64785763,6.669285808,98.22214476,12.45785718,61.58714233,19.82387961,19.183822,19.33565513,20.5079362,16.64856858,22.30931036,17.46113557,15.79330395,12.43542766,23.34687504,26.15000025,24.44131608,31.06458042,27.9682139,28.43625549,27.60941131,25.59340811,22.91422815,11.29093746,15.88166634,14.27159151,19.40569109,18.2715475,15.1189393,15.69895629,13.38685715,10.33005226,10.62626718,13.2428989,11.86638398,17.27971266,15.26406297,14.09359416,13.93027737,12.23653025,10.46761426,0.918526784,1,1,1,1,0.999060374,0.966691327,0.86252861,40.477063,-87.00020175,2019,INH1
PHG80/PHZ51,MOH1_2015,N,13.9,731.1212129,0,2,227.5,122.5,78.5,76.5,3.914838722,3.002727248,2.7038834,5.646226268,2.268750012,1.183333344,4.736744086,1.740401796,3.666491943,121.3600004,33.02999973,34.41999933,178.8712478,5.868750036,10.6500001,140.2618746,11.88312507,113.6612502,18.81846694,18.88703156,16.92919735,21.70591481,15.72154266,19.94530069,18.47422179,20.12873028,17.02653892,18.28451609,18.00181831,23.77805456,28.93028285,29.85593748,31.76118019,30.42140763,28.58050013,28.43143147,5.857096827,7.500000065,15.21487777,17.6487962,21.67281234,21.45979159,20.28182538,17.09899995,17.28669369,7.068544315,7.302193139,11.97142579,15.39796361,17.76437491,18.61048589,17.380694,14.99182695,15.05317439,0.723283405,0.814935086,1,1,1,1,1,1,38.8965375,-92.20800417,2015,MOH1
CG44/CGR01,ARH1_2018,N,21.85,532.6372498,3.5,2,183,96.5,60.5,57.5,6.807499945,4.709999936,2.627776375,4.735912158,3.619166647,6.960178526,4.330437569,0.796285741,3.374677434,217.8399982,32.96999955,35.48928591,145.2942843,5.831428528,62.51428531,109.7978577,4.003571561,104.6150005,17.99706709,21.70226043,20.05949982,19.52680112,21.59397623,17.99264813,18.0574776,19.33215022,18.30424355,21.07062507,24.31857109,24.02168934,29.45279857,31.73095224,30.70692423,32.5717108,33.29521443,31.83741963,10.26718749,12.03571429,12.70205088,18.67412083,19.99154783,20.64677572,22.90335213,23.23585706,21.28834102,9.223277534,11.01036775,11.27832322,16.11267445,17.86206546,17.6775748,19.72770382,20.19469271,18.54368809,0.945725441,1,1,1,1,1,1,1,34.729679,-90.7603455,2018,ARH1
2369/LH123HT,WIH1_2020,N,21.1,707.308286,0.5,0,297,155,80,78,1.598387111,6.507143004,4.413520471,5.455426438,9.576153682,6.848251811,1.847198819,1.302442385,3.233674973,49.55000043,91.10000205,54.05307698,191.9769218,14.76999958,75.33076992,75.52923148,17.19923096,99.29769339,20.3303612,17.70938441,19.63774696,21.71928057,19.47191414,18.08778093,19.52506722,17.02277317,12.74244368,13.80935484,15.78214281,24.71870171,28.0331271,31.3961547,28.17125902,26.95535567,26.2427393,20.06715065,1.332903252,5.150000061,13.25869882,14.90724568,18.80923077,17.63741262,14.66820073,13.00544381,8.429758508,4.404075426,5.920121855,11.73838603,13.88054584,17.12955683,14.95247276,13.30208011,12.63591888,8.588509069,0.46481566,0.623010193,1,1,1,0.987099279,0.934776512,0.808464704,43.05505505,-89.52853825,2020,WIH1
B73/PHM49,ARH1_2016,N,16.4,795.4804746,0,2,211,119.5,71,69.5,12.62656226,6.052222146,7.859593922,4.411032368,3.769999921,0.095833332,1.834913509,2.950363528,2.931715563,404.0499923,54.46999931,101.1431819,160.496816,7.539999843,0.824999988,46.86636396,14.75181764,90.88318244,16.40757677,14.40289243,17.41332625,19.31399891,17.48165414,22.15918181,19.7781726,18.25208951,17.22596404,20.37124979,20.08666674,25.25253507,26.30445415,29.50681779,32.27019592,33.22074717,33.17606868,32.75999986,8.53968759,10.04999993,14.84655054,15.67568893,20.10318184,20.90335237,23.01320039,23.46584116,23.35664232,8.376579132,8.623890092,12.4075181,13.38568101,16.80499981,18.57005087,20.09384313,20.24603027,19.89808151,0.932198657,0.999841266,1,1,1,1,1,1,34.72952,-90.7603555,2016,ARH1
LH198/PHZ51,TXH1_2015,N,11.1,760.7264732,0,2,175,82.5,69,66.5,2.435333351,0.886666695,4.529386736,2.992210444,0,5.407499953,3.236240411,4.528416659,2.205666663,73.06000052,5.320000172,54.16999972,113.7899998,0,59.48249948,89.11249819,24.54499996,66.1699999,13.38128519,15.80308406,13.73749678,19.48289484,22.46598899,19.96463979,19.54848583,19.57031498,18.03135075,19.61999995,26.26833312,25.8489028,26.4780255,30.37177098,28.79539756,31.9014052,33.48070828,34.35516661,6.122333375,12.74499997,15.39155332,13.69439061,15.83385423,15.9580683,20.41172374,21.45270844,23.93220836,7.516768444,12.28221354,13.06030889,12.7550996,15.35592881,14.67426974,18.11040569,19.30603111,20.37775841,0.822428569,1,0.992325397,0.994092815,1,1,1,0.999431249,30.54708625,-96.43393475,2015,TXH1
LH74/PHN82,IAH4_2019,Y,32.15,651.6375247,1,0,242,124.5,60,59,7.44874995,0,6.508814674,5.652572602,2.433809479,0.731547632,2.455795253,7.856419535,5.758725846,238.3599984,0,89.12928634,169.456428,4.779285618,8.60571444,106.5300014,62.81714391,173.1250012,18.61457558,24.25652275,18.80062453,19.64217675,17.01762246,21.29967345,16.82875041,12.82062273,10.73648339,20.72718754,29.98400002,24.57226332,29.58102216,28.11761892,27.58625519,26.21902431,25.70162766,18.66579105,8.655312385,16.39199963,13.30590142,18.52555793,18.42333308,15.4118289,14.78252205,14.57801647,7.354403302,8.719182336,15.28713381,11.55896644,16.12377034,15.4195504,13.79277779,12.9189296,12.78184671,8.051480754,0.866629464,1,1,1,1,0.996735112,0.969646609,0.721601517,42.03193798,-93.79333213,2019,IAH4
2369/LH123HT,TXH1_2020,N,11.375,758.1521028,0,2,215.265,67.945,71,69.75,2.284333333,0,4.613530444,2.949806388,1.362941181,6.741056464,2.844869093,3.829088224,2.301094231,68.53,0,55.97058804,110.7988238,1.362941181,71.52235312,82.32059028,18.97352936,69.29117607,13.91343843,13.3863348,15.08816438,19.79337859,19.48130546,19.24170726,19.77113757,20.7945973,17.91495332,20.02266652,27.17999992,26.60815942,26.52479293,29.39617636,29.12989124,32.2266946,33.03076485,34.59511331,6.794333295,17.20400028,15.2455437,13.65359797,17.29686298,16.61337131,20.73348334,20.06167624,24.24037069,7.901247141,14.27292515,13.38037585,12.76738989,15.58009007,15.11126374,18.39892159,18.53701373,20.50202011,0.821357143,1,0.99243504,0.993791594,1,1,1,0.999042533,30.53781575,-96.4283715,2020,TXH1
PHG29/PHG47,NYH2_2016,N,17.15,731.1212129,0,1.5,155.5,69,69.5,68,2.034516133,1.030000001,1.88805842,0.867300396,1.140952366,2.326450204,3.376451109,4.287746575,3.208572451,63.07000011,12.36000001,22.4085716,34.4438095,2.622857094,25.59095225,116.65619,31.75809508,97.82571426,19.21240982,23.35584625,23.40556822,22.17883586,23.94456446,21.25361649,17.18897092,16.17245816,13.35906413,14.04935483,18.68749992,27.50851283,26.23633728,28.78071431,29.31692664,28.41638555,26.44500865,23.15297547,1.686774175,4.439999988,12.92699036,12.85534504,13.89476193,15.65588736,16.863818,13.58818034,10.55762265,4.511298309,6.607155497,12.88765676,12.33330427,13.7996272,14.74166699,14.82295673,12.66050813,10.26842414,0.447315667,0.804761906,0.999400038,0.994542932,1,0.999880088,0.994843294,0.949842165,42.726117,-76.655339,2016,NYH2
PHN11_PHW65_0323/LH195,NYH2_2015,N,19.2,731.1212129,0,1,213,103,86,86,3.814193487,2.822857129,1.806874641,1.427310218,14.28882354,6.323155046,2.553769654,1.263651931,1.70374005,118.2399981,39.5199998,23.5252947,50.99705838,17.86235295,65.18176435,90.43176518,10.71352917,51.74117684,19.21827184,21.58410556,20.44972798,21.8367517,17.34067749,18.34945618,18.49425604,17.55625849,13.84215422,11.26903224,15.86071418,24.70888252,27.12764594,29.5805878,28.55383422,27.75922879,25.11594081,20.73318661,0.676451599,3.065714287,12.68317757,14.19692254,19.48862723,17.66257776,16.12899413,12.03346763,8.797239788,3.458861152,5.522653893,11.65565145,13.2498794,16.56577659,15.18766176,14.16580901,11.53845799,8.731216192,0.261509218,0.568112238,0.971160735,0.994106254,1,0.999864887,0.980226591,0.898542131,42.7324825,-76.65277775,2015,NYH2
B73/PHM49,NYH2_2016,N,18.9,731.1212129,1.5,2,192.5,107,77.5,74.5,2.034516133,1.030000001,1.88805842,0.867300396,1.140952366,2.326450204,3.376451109,4.287746575,3.208572451,63.07000011,12.36000001,22.4085716,34.4438095,2.622857094,25.59095225,116.65619,31.75809508,97.82571426,19.21240982,23.35584625,23.40556822,22.17883586,23.94456446,21.25361649,17.18897092,16.17245816,13.35906413,14.04935483,18.68749992,27.50851283,26.23633728,28.78071431,29.31692664,28.41638555,26.44500865,23.15297547,1.686774175,4.439999988,12.92699036,12.85534504,13.89476193,15.65588736,16.863818,13.58818034,10.55762265,4.511298309,6.607155497,12.88765676,12.33330427,13.7996272,14.74166699,14.82295673,12.66050813,10.26842414,0.447315667,0.804761906,0.999400038,0.994542932,1,0.999880088,0.994843294,0.949842165,42.726117,-76.655339,2016,NYH2
PHG39/PHN82,MOH1_1_2018,N,17.36666667,731.1212129,0,2,228.3333333,86,56,54.33333333,4.419032262,0.120000001,6.56660792,4.995913726,0,0.865952386,4.867908623,7.318145406,3.629241153,136.9900001,0.840000004,71.60142667,150.6285707,0,7.793571472,145.6157139,39.85928573,112.0157138,18.39395777,18.46565301,20.1607481,20.70593221,19.87326009,21.97749135,18.06982858,17.46468943,16.31914076,19.5254839,22.76714298,27.16554273,29.60936822,31.6271427,32.32420578,29.51628185,29.85375934,27.04843165,7.99741943,14.14714282,16.43732974,18.81172612,21.79964249,20.71007941,19.44316189,19.21155699,15.91814144,7.992986492,11.1555316,14.00535673,16.26359619,18.7133926,18.51714259,16.54699664,16.60044059,13.86670431,0.872361758,1,1,1,1,1,1,0.995607144,38.89791675,-92.20952075,2018,MOH1
LH198/PHZ51,NYH3_2017,Y,18.1,725.9724719,0,5,266.5,127.5,76.5,75,4.985806354,2.593333337,3.440292244,5.924553407,1.051666657,3.381140065,2.23243854,2.798625029,4.018371008,154.559997,23.34000003,54.13749945,222.2425004,2.049999952,44.44499943,102.8575006,24.55750025,123.6625012,18.91896409,18.22902181,21.60070221,19.42377057,18.75741065,18.65984774,17.28846846,13.47436078,9.528870152,16.54903238,19.80111122,22.34799835,25.7161787,25.88750029,25.25326924,23.49877068,24.29574993,19.15391932,5.239677404,10.2422222,10.56618324,15.20414844,15.99166679,14.88818678,11.70967484,11.14050002,8.077069991,6.267898103,8.570747831,9.800943694,12.82521906,13.14722321,12.44715548,10.67530521,10.86002668,8.093424028,0.638917053,1,1,1,1,0.987943118,0.977741071,0.791930495,42.73339625,-76.652747,2017,NYH3
B37/OH43,DEH1_2015,Y,21.8,647.4541727,0,1,256,135,67,61,2.877187484,6.848000002,1.658122271,2.899811139,0.533124998,6.398055441,4.542065261,4.666333417,5.694818618,92.06999949,68.48000002,26.86312445,94.40374921,0.778750002,57.58249897,115.8581242,26.73625046,176.5393772,18.09789148,17.20138936,20.11151884,21.0089777,21.53492481,19.24730516,17.70191113,15.05628078,15.14846735,16.82656264,19.24400005,20.72376954,27.68890342,31.56656283,31.86354174,32.09465687,30.43364003,29.09395151,6.265937505,9.858999991,10.7453803,17.67876376,20.38750017,21.35659703,22.77220607,22.28250884,20.56647162,6.521960329,8.412914767,9.229957748,14.85993723,17.9770315,18.58170739,19.36170697,18.35807444,16.86736745,0.750435273,0.870857151,0.962682184,1,1,1,1,1,38.62935675,-75.4656925,2015,DEH1
F42/H95,GAH1_2016,N,14.8,779.3906591,0,2,195,95,62,59,6.466250051,4.395000041,0.566421492,2.549627568,3.17469698,5.859943136,4.096967014,2.330999996,2.476261007,206.9200016,35.16000032,6.21000006,86.0200003,9.52409094,52.42727233,105.6731797,11.65499998,76.76409122,15.95696127,18.25385642,20.33100053,20.74024209,20.01064868,19.54302735,19.38198769,19.26953352,18.21451922,23.62687498,22.98249984,28.56134937,29.4983659,33.37075638,32.62719045,33.25026907,34.51499955,33.94928126,11.29749997,10.47000009,15.64744728,16.2846205,20.78287862,20.61269551,21.56927107,22.51809092,22.40467728,10.53971422,9.962440438,14.36481163,15.11313475,19.02952924,18.56859265,19.26668195,20.34390963,19.99415841,0.993928569,1,1,1,1,1,1,1,31.5079175,-83.55854775,2016,GAH1
F42/OH43,TXH1-Dry_2018,N,9.6,707.9518787,0,2,236.5,87.5,71.5,70.5,2.442333295,0.87833333,4.91741256,2.91095925,1.112321411,5.987347663,3.094033648,2.445309502,2.573656677,73.26999886,5.269999981,55.2178573,113.3721426,4.449285643,64.36357035,86.72785865,13.67714274,77.357857,13.4988633,14.49154552,13.92485348,19.6618496,19.390827,19.64184359,19.38410293,21.21373351,18.01258323,19.68933331,26.95833333,25.66614373,26.56996845,30.24238085,29.14372996,31.91805433,33.2644762,34.51160554,6.357666679,15.03999996,15.13755815,13.69055459,18.24071415,16.44843436,20.63070323,20.50154739,23.97494014,7.613570572,13.40715604,12.87528071,12.79536137,16.34410207,15.0664779,18.21233438,18.75919739,20.40606275,0.821476194,1,0.991620595,0.99408643,1,1,1,0.999013392,30.546318,-96.4329965,2018,TXH1-Dry
B73/PHZ51,ONH1_2015,Y,30.9,710.5262491,0,0.5,272.5,145,87.5,88,1.605625002,2.296315821,1.411426091,1.973297954,0.512941169,3.436769168,2.641035405,1.799953816,2.360571209,51.38000005,43.63000059,20.30117703,73.50294104,0.81882352,40.73352947,103.9364728,19.58470627,71.14882509,18.02169462,20.4737019,23.34007091,22.64543997,20.24065375,18.07254412,18.60447299,14.22755231,12.21920895,9.771562532,12.63473691,23.7578119,26.83441686,29.90941261,27.46928249,26.11972075,22.82201755,18.35250846,-0.327500018,2.045263152,11.01347606,13.31919887,17.43313718,16.50329302,14.06775752,11.69572195,7.013714688,2.851211725,4.201400589,10.67713105,12.77399982,15.76589753,14.15032606,12.63577386,10.48249806,7.379159901,0.167098218,0.403345874,0.957007131,0.991950294,1,0.994472794,0.939113043,0.772366561,43.49741975,-80.44806025,2015,ONH1
PHG39/PHN82,MNH1_2018,N,20.53666667,730.1200688,0,2,218.2222222,102.2222222,64.44444444,62.11111111,2.793871032,5.664285694,1.881383508,4.66962568,0.280777779,5.314848416,5.503097756,4.902593174,1.744490341,86.61000198,39.64999986,19.66333312,156.0266671,0.653333338,61.18466587,207.3246693,42.5680015,52.61600056,18.68617175,18.6483766,23.22190313,20.23498137,21.88409551,21.20453879,17.43849101,14.02805899,11.47763682,18.24580648,23.51142883,30.49568208,28.40295697,27.67288871,27.88288382,26.24424925,23.489937,17.2954947,6.62290317,13.35285704,16.1020056,17.07111629,16.25377796,15.7901465,14.83515609,12.42970144,6.347470975,7.12789267,11.15082684,15.42136783,14.91719499,14.1582049,14.10491894,13.08066536,11.20324133,7.126560519,0.79756912,1,1,1,1,0.978734696,0.910102722,0.699884152,44.07044721,-93.53494127,2018,MNH1
CG44/CGR01,MOH1_2_2018,Y,18.2,731.1212129,0,2,258,124,54,54.5,4.419032262,0.120000001,6.56660792,4.995913726,0,0.865952386,4.867908623,7.318145406,3.629241153,136.9900001,0.840000004,71.60142667,150.6285707,0,7.793571472,145.6157139,39.85928573,112.0157138,18.39395777,18.46565301,20.1607481,20.70593221,19.87326009,21.97749135,18.06982858,17.46468943,16.31914076,19.5254839,22.76714298,27.16554273,29.60936822,31.6271427,32.32420578,29.51628185,29.85375934,27.04843165,7.99741943,14.14714282,16.43732974,18.81172612,21.79964249,20.71007941,19.44316189,19.21155699,15.91814144,7.992986492,11.1555316,14.00535673,16.26359619,18.7133926,18.51714259,16.54699664,16.60044059,13.86670431,0.872361758,1,1,1,1,1,1,0.995607144,38.89555425,-92.20964575,2018,MOH1
PHG80/PHZ51,ARH2_2017,N,16.65,731.1212129,0,2,195.5,85,66.5,64,2.789999995,15.83285686,4.776016413,2.853949028,1.142500003,5.651818152,3.905948255,2.4430325,4.688621725,89.27999985,110.829998,61.6427269,88.95863769,3.003181826,52.42863608,105.2449988,13.33772746,145.3472735,17.14489296,19.09436907,20.93439511,19.65670258,19.84409681,19.1211903,18.81176407,19.65259997,17.546866,23.65656266,24.55142866,25.38541455,28.9612549,32.40098458,30.84565692,31.84241473,32.83627249,30.20087953,12.07343751,12.16142872,12.7110645,18.0477898,21.78734854,20.24410098,21.87781566,22.25639174,20.26112908,10.83878158,11.22094165,11.88579938,15.62584547,19.09416656,17.54487895,18.8103181,19.27693671,17.25265116,0.991674107,1,0.97315368,1,1,1,1,1,35.67418125,-90.0752695,2017,ARH2
LH74/PHN82,DEH1_2017,Y,17.7,731.1212129,0,2,229,110,65,64,2.917187458,6.201428686,3.00780289,3.517983876,1.211428521,1.632751291,5.214259368,11.31934688,4.882730708,93.34999865,43.4100008,45.34571489,126.7790489,1.268571377,15.48333303,157.8533328,69.24809492,151.3147631,17.05647962,17.73228645,20.71096481,19.57386043,19.15556694,20.88592809,18.21237176,18.15756056,16.58607394,20.26624998,24.66142872,21.72245043,26.82298965,30.35071437,30.31148162,30.69555299,28.43090921,27.29702356,9.32593758,14.19571427,10.68752201,16.75855213,19.906349,19.88150788,21.21690322,18.72144455,17.91444491,8.690479953,12.08402314,9.787934269,14.12431868,17.15482568,17.14050735,17.94790556,15.63546309,14.74613823,0.907287956,1,0.959736116,1,1,1,1,1,38.67025825,-75.4333645,2017,DEH1
F42/MO17,ARH1_2017,N,12.15,492.348352,0,2,224.8,121.3,68,65,3.058125025,3.532857077,9.871688678,6.405160528,0.516363615,5.988171668,5.119232493,3.102318153,5.34158356,97.86000079,24.72999954,132.0327285,211.6218184,0.569545432,54.36818138,136.8913653,16.08272713,165.5890903,17.13974981,16.55343887,20.38424011,18.76225527,22.81364793,19.06964508,19.53553475,19.77193111,17.12972935,24.60906261,23.96000045,24.77057006,28.06605652,30.35469691,31.5146664,31.30577636,32.78459133,30.91587993,11.9175,14.17857156,11.8445801,17.60850246,18.97249995,21.30615642,21.39979275,22.50533316,21.62237538,11.1639709,11.77578055,11.22655186,14.97537354,16.74359516,18.41041141,18.33049426,19.54768126,18.22457608,1,1,1,1,1,1,1,1,34.7272515,-90.76032575,2017,ARH1
PHB47/PHN82,MOH1_1_2020,N,13.9,731.1212129,0,0.333333333,218.3333333,91,55.33333333,53.66666667,2.765624954,8.119999743,10.49656654,1.909885915,5.802857127,7.415295831,3.691475556,2.293301892,3.400930865,88.49999854,40.59999871,96.7978566,57.0957143,7.737142835,67.39857156,118.848571,17.52928566,104.715714,18.75466287,21.25211372,22.49923535,20.31658939,20.84622072,17.68630925,18.12476098,17.46293798,14.64158327,22.18656257,30.76999931,28.86546125,30.72469998,30.62226157,31.26253243,28.67352632,29.54480095,24.35225034,12.23093753,19.21800041,17.35636515,20.03188031,19.40511944,21.45309498,18.10676495,17.58972003,12.9136675,10.41798935,16.99399986,15.213465,17.3995364,17.01369051,18.36589209,15.51205264,15.80164337,11.56818364,0.936383936,1,1,1,1,1,0.995985623,0.962870504,38.8978375,-92.2070925,2020,MOH1
B14A/OH43,NYH2_2018,Y,20.06,717.1338,6,11.33333333,209.3333333,111.3333333,69,67.33333333,4.152903213,0.855714253,1.31693108,2.056877316,18.60714291,4.17142208,1.796460541,3.71345921,2.001911684,128.7399996,5.989999771,17.50499944,73.5107149,37.6500001,45.13714288,70.0178584,34.82000022,60.53000028,20.64383799,23.73438372,20.97980276,21.28373647,15.72294375,18.26843876,18.50915054,13.77481919,12.83457813,12.82806446,24.72714315,24.76775456,27.60101009,28.96428537,28.5122727,26.91050025,24.01606741,19.66558606,1.452258048,10.48999977,13.07559666,14.8719081,19.08642861,17.4819286,14.95013511,12.80738491,7.865124395,4.113027627,10.74522894,11.82847182,13.74928068,16.05096628,15.06575239,13.37181447,11.42873851,8.144119245,0.351670502,1,0.973410204,0.99504728,1,0.991140913,0.940533101,0.821942422,42.72611075,-76.65530175,2018,NYH2
LH74/PHN82,NEH3_2017,N,21.45,758.7956954,28.5,2,160,86,65,64,6.03471326,3.955444498,0.18882913,3.842009577,1.316296295,1.435570981,2.764433094,3.912023778,4.15136979,187.076111,38.21611161,1.987222274,117.8244439,3.948888885,12.8655555,93.99333183,27.38611089,126.3194449,18.53150537,21.70326166,24.15860034,20.80931081,18.66603313,19.02487726,18.75887595,17.51813417,15.15718003,20.20137986,23.21257118,30.13389904,30.13339279,32.06462927,32.76776237,28.39622898,27.87449379,27.0242909,7.908297486,10.26215086,15.17879712,16.87891665,20.62425956,20.98993062,16.95054818,15.08081369,13.75654417,8.47748899,10.0955543,14.95078719,15.67969265,18.3413362,18.75248222,14.77642402,13.79312874,13.00111339,0.783510626,0.953819441,1,1,1,1,1,0.993105158,41.162,-96.409,2017,NEH3
B73/PHN82,GAH1_2015,N,13.7,756.8649175,0,4.5,180,105,63,61,4.231249915,0,5.95843649,3.852603143,2.594000032,2.429925956,4.217759372,2.225466652,2.667397826,135.3999973,0,82.56599903,137.5619979,4.851333332,21.8693336,117.5779999,11.12733326,82.68933261,16.59936112,21.58269278,19.11661296,20.61616366,14.5260024,17.86473659,19.792993,19.1551459,18.46432438,25.43281227,26.81500022,26.00854227,27.82657943,29.9603331,30.57562955,31.8228303,33.58693334,33.75221527,12.50374998,10.5999999,12.24448314,13.90452364,20.76811106,20.25348139,20.64254904,22.17719986,22.29090342,11.85447967,11.72664631,11.94062668,13.41492991,17.36422208,17.41455547,18.23714923,19.83066815,19.89653894,0.988973219,1,1,1,1,1,1,1,31.505771,-83.555095,2015,GAH1
B37/H95,TXH1_2016,N,10.8,731.1212129,0,2,202,72.5,71.5,71,1.633666698,16.13999993,0.99702422,4.719865603,0.129393939,3.277272727,13.06232457,0.703636358,1.017125621,49.01000094,112.9799995,14.5313639,177.3549991,0.33090909,36.05,378.0672674,3.179999969,30.53454577,13.9726292,10.72874144,17.88940951,17.80076093,20.55685321,19.77792414,17.90480363,20.8338604,20.14326093,22.32500016,23.95000022,24.48309256,26.40498513,28.5388636,28.63545455,30.12870319,34.35404525,35.58838723,6.034666632,13.33571414,9.675379644,13.12758779,15.78530267,16.33764454,20.13902853,23.08186362,24.00118421,8.473379033,11.29783551,10.5045992,12.46111665,14.43681279,14.72204148,17.12368238,20.53225114,20.87599038,0.915869048,1,0.972225207,1,1,1,1,1,30.54708625,-96.43393475,2016,TXH1
PHW52/PHM49,ARH2_2016,N,13.575,731.1212129,0,2,203.25,111.5,67.75,65.75,5.780937422,12.26500018,3.712120208,7.0222886,1.105000019,0.295568184,1.931287914,1.454696927,6.280835692,184.9899975,73.59000111,50.67409075,233.2059098,2.210000038,2.364545475,51.29727264,7.656817956,194.7059064,17.76457119,17.22719622,20.14058537,19.80644481,18.88262117,19.79738723,18.69440654,19.88854878,15.60714355,21.02781257,25.69833342,24.88224707,27.55747889,33.1628785,33.38017045,32.40728063,33.71248445,31.37684753,8.517187547,14.13833332,13.26693003,16.75834882,22.79151535,23.21522755,22.56353312,22.95024234,22.3752492,8.626308124,12.37618007,11.75818796,14.46644855,19.89189903,20.24263088,19.43024202,20.23735303,18.81126952,0.958649555,1,1,1,1,1,1,1,35.838614,-90.66530155,2016,ARH2
B73/MO17,NYH2_2015,N,19.65,731.1212129,1,2,239.5,120,85.5,85,3.814193487,2.822857129,1.806874641,1.427310218,14.28882354,6.323155046,2.553769654,1.263651931,1.70374005,118.2399981,39.5199998,23.5252947,50.99705838,17.86235295,65.18176435,90.43176518,10.71352917,51.74117684,19.21827184,21.58410556,20.44972798,21.8367517,17.34067749,18.34945618,18.49425604,17.55625849,13.84215422,11.26903224,15.86071418,24.70888252,27.12764594,29.5805878,28.55383422,27.75922879,25.11594081,20.73318661,0.676451599,3.065714287,12.68317757,14.19692254,19.48862723,17.66257776,16.12899413,12.03346763,8.797239788,3.458861152,5.522653893,11.65565145,13.2498794,16.56577659,15.18766176,14.16580901,11.53845799,8.731216192,0.261509218,0.568112238,0.971160735,0.994106254,1,0.999864887,0.980226591,0.898542131,42.7324825,-76.65277775,2015,NYH2
W10004_0216/PHZ51,WIH2_2017,Y,19.45,790.3317336,0,2,277.5,126,77.5,78.5,5.048709616,4.636666616,1.142383575,5.763857885,8.001590729,6.160048604,1.607776433,1.167726513,2.257555268,156.5099981,41.72999954,17.5799998,219.3963643,12.14409065,74.04090792,72.28863683,15.04409093,68.0204557,18.1690344,19.72049554,20.64727683,20.23287988,19.13163679,19.37493243,18.51401576,14.93340477,10.89478233,16.03129027,21.86555545,22.15746071,26.59689143,27.90045501,26.76799254,24.73062069,22.38533393,20.51274781,3.24419354,8.791111098,9.553497601,14.54337319,16.81037892,15.37831158,12.19271258,9.193202486,7.868866577,5.438218202,9.209131236,9.451203107,13.05708411,14.51682301,13.37610723,11.31306373,9.686333754,8.853113959,0.624158991,0.847976183,0.950288768,1,1,0.998699911,0.954544862,0.834596302,43.3246415,-89.33688775,2017,WIH2
CG119/CG108,NEH2_2018,N,13.1,781.9650296,0,2,196.5,75.5,65,64,1.223548393,0.707272736,4.763911635,2.422660693,9.359230876,1.187769238,2.22139935,1.060615372,2.655643509,37.93000019,7.780000091,61.58923048,72.52538565,18.71846175,11.03461544,72.02230704,6.795384554,82.07230774,19.8632896,17.86074517,17.24350838,22.63499015,18.62862352,21.21286184,19.62237806,18.45252819,16.56870138,17.6919355,17.47909086,23.04657186,30.81178887,30.82346183,31.15499996,29.41523597,30.138927,26.57117624,3.026129,6.979090886,13.86801705,18.31582591,19.94076905,19.05673485,17.52505525,17.69200753,12.69636803,6.275299993,6.965919572,11.10889174,16.66188215,17.38211544,17.1119836,15.61857368,16.09025205,12.68735507,0.68033411,0.762240243,1,1,1,0.996687975,0.997695055,0.910447978,41.38042275,-96.55988375,2018,NEH2
B73/PHN82,INH1_2019,N,17.7,731.1212129,0,2,247,134,61,60.5,4.638124973,1.291666667,4.254883356,1.873002707,7.542143106,0.579848493,2.745608418,1.194209184,2.037834084,148.4199991,7.75,53.11714339,53.83785783,14.64785763,6.669285808,98.22214476,12.45785718,61.58714233,19.82387961,19.183822,19.33565513,20.5079362,16.64856858,22.30931036,17.46113557,15.79330395,12.43542766,23.34687504,26.15000025,24.44131608,31.06458042,27.9682139,28.43625549,27.60941131,25.59340811,22.91422815,11.29093746,15.88166634,14.27159151,19.40569109,18.2715475,15.1189393,15.69895629,13.38685715,10.33005226,10.62626718,13.2428989,11.86638398,17.27971266,15.26406297,14.09359416,13.93027737,12.23653025,10.46761426,0.918526784,1,1,1,1,0.999060374,0.966691327,0.86252861,40.477063,-87.00020175,2019,INH1
CG60/LH162,NCH1_2016,N,16.15,731.1212129,0,3.5,200,102,65,64,2.901562452,3.125714166,7.137907935,4.683034439,4.3177271,0.863030289,5.226283407,5.104181825,4.507668668,92.84999847,21.87999916,91.86318315,160.7736342,8.497726928,8.495454409,139.9318182,26.12772732,139.7377287,16.36857818,22.27138465,15.49498623,18.72849078,21.8793198,21.8664799,18.529992,18.05675722,17.32656161,20.86125001,25.58571407,25.68946269,27.1054564,30.20318166,31.0559697,32.42423852,33.59766701,33.26035177,7.692187494,8.212857212,14.27003911,16.07300028,18.02681784,18.80169681,21.2796372,22.62190931,22.7218182,8.383421821,10.43985322,12.46468669,13.95599298,16.17160042,16.99727481,18.83160592,19.980567,19.86697781,0.913761163,1,1,1,1,1,1,1,35.30015175,-77.57127825,2016,NCH1
F42/MO17,MIH1_2018,Y,26,657.1080619,0,1.5,216.5,107,66.5,62,5.012258064,1.858571376,2.303311915,3.259516918,0,1.604151199,2.926198314,4.215530212,2.830074039,155.38,13.00999963,29.79071396,101.4421425,0,18.16214306,122.3414291,36.1057143,85.34142821,19.78619528,22.4124418,25.08845985,20.26124585,21.4032747,19.63779009,17.59687557,14.64655727,11.33533343,19.08258061,24.4042857,26.50594484,29.85917276,29.20761908,28.94024759,27.00181445,23.87253837,17.74080494,7.633548365,11.57000004,11.5577044,16.90410614,16.77238059,17.0588351,14.06431329,11.77329027,6.160183734,7.985580948,11.08545818,11.96011996,15.51317333,15.06763476,15.11768347,13.15911947,11.00371024,6.94989994,0.750656678,0.993928569,1,1,1,0.982067155,0.951173414,0.716707841,42.689234,-84.49755575,2018,MIH1
W10005_0107/PHB47,ILH1_2015,Y,11.6,724.6852867,0,1,222.5,105,66,65,4.343437491,1.296153843,7.654899739,5.34311295,3.674999952,2.467291633,4.647268051,0.712819956,1.951907909,138.9899997,16.84999996,99.86750055,177.342501,7.349999905,22.2056247,144.0256246,5.039375113,60.06187434,19.4076893,20.21820178,17.58012378,22.59231729,17.35775694,20.12242863,18.79551315,20.37165926,16.80998738,15.69375022,16.27615364,23.81483975,28.77428317,30.28249967,31.91701372,28.65899596,28.4854072,27.09877011,2.916875011,4.602307732,13.93389792,16.26044709,20.47749984,20.41381959,17.79543547,15.77196732,14.62672175,5.339800043,5.921635642,11.53105666,14.7484369,17.37999976,18.17178164,15.31569586,14.44648847,13.36421336,0.599162964,0.636840646,1,1,1,1,1,0.99828125,40.05982425,-88.23397575,2015,ILH1
B14A/MO17,OHH1_2016,N,19.7,664.1875807,0,64.5,279,142.5,65,64,4.328064465,1.776000023,3.915145208,2.580740659,3.890757626,4.17049496,5.079069289,3.957741935,3.614594814,134.1699984,8.880000114,44.70363614,85.9177286,9.330454675,39.94818193,160.1854537,27.69772666,110.1186362,18.3437644,22.24283047,20.73146956,20.35982518,19.15233416,18.82824642,16.72048491,17.98730955,14.71797893,19.63580645,29.63200035,26.56953589,28.59263588,29.59106055,30.69283836,29.21689182,28.27188687,26.30588322,8.120967747,16.89599972,14.9739129,16.70528562,18.30318191,19.74443426,18.9160149,15.44500838,13.40262461,8.117657052,15.32722009,13.17028057,14.81678154,15.96857054,17.23303236,16.11713161,14.21502474,12.5845871,0.859331788,1,1,1,1,1,0.999172078,0.989049277,39.860924,-83.6755995,2016,OHH1
PHG39/PHN82,WIH2_2015,Y,33.7,729.8340276,0,0,257.5,134,65,64,3.126774188,2.655000041,4.103605878,5.336067251,1.868823528,3.142847566,3.066358713,6.463272165,3.426278957,96.92999983,15.93000025,53.58117651,186.0694135,5.435882344,36.03705852,132.4747064,52.80117733,103.4994124,19.63646212,20.57311455,21.5892617,21.07111177,18.36300238,19.20517036,18.54583572,13.68038168,11.37476292,15.6409678,24.97666677,26.11823115,28.09529077,27.51588227,27.91298604,26.4469062,23.95331443,17.63645543,3.355806466,13.62666686,13.88922494,15.17788174,17.2276475,16.92946091,13.73434519,12.63733902,6.343913375,5.370860554,11.93138906,12.65256426,14.04290221,14.43586033,14.57588984,12.76646014,11.49482956,7.023163717,0.588214292,1,1,1,1,0.979783322,0.914260835,0.715230077,43.3264485,-89.33359975,2015,WIH2
B37/H95,ARH1_2017,Y,17.7,731.1212129,0,2,229,110,65,64,3.058125025,3.532857077,9.871688678,6.405160528,0.516363615,5.988171668,5.119232493,3.102318153,5.34158356,97.86000079,24.72999954,132.0327285,211.6218184,0.569545432,54.36818138,136.8913653,16.08272713,165.5890903,17.13974981,16.55343887,20.38424011,18.76225527,22.81364793,19.06964508,19.53553475,19.77193111,17.12972935,24.60906261,23.96000045,24.77057006,28.06605652,30.35469691,31.5146664,31.30577636,32.78459133,30.91587993,11.9175,14.17857156,11.8445801,17.60850246,18.97249995,21.30615642,21.39979275,22.50533316,21.62237538,11.1639709,11.77578055,11.22655186,14.97537354,16.74359516,18.41041141,18.33049426,19.54768126,18.22457608,1,1,1,1,1,1,1,1,34.7272515,-90.76032575,2017,ARH1
PHG39/PHN82,GAH1_2016,N,17.5,771.6675477,0,2,190,85,62,61,6.466250051,4.395000041,0.566421492,2.549627568,3.17469698,5.859943136,4.096967014,2.330999996,2.476261007,206.9200016,35.16000032,6.21000006,86.0200003,9.52409094,52.42727233,105.6731797,11.65499998,76.76409122,15.95696127,18.25385642,20.33100053,20.74024209,20.01064868,19.54302735,19.38198769,19.26953352,18.21451922,23.62687498,22.98249984,28.56134937,29.4983659,33.37075638,32.62719045,33.25026907,34.51499955,33.94928126,11.29749997,10.47000009,15.64744728,16.2846205,20.78287862,20.61269551,21.56927107,22.51809092,22.40467728,10.53971422,9.962440438,14.36481163,15.11313475,19.02952924,18.56859265,19.26668195,20.34390963,19.99415841,0.993928569,1,1,1,1,1,1,1,31.5079175,-83.55854775,2016,GAH1
CG119/CG108,TXH3_2020,N,9.785,1259.832548,0,2,169.545,60.325,49.5,49.25,3.45875001,5.345714297,0.996479651,4.090893152,11.37176514,0.055555557,3.334418123,0.880352915,2.226110039,110.6800003,37.42000008,12.08058808,124.9758839,22.74353027,0.450000013,88.32823513,3.714117541,69.00941121,15.8034201,18.34009743,21.30541133,19.40762275,20.16580067,20.62125497,19.02899565,16.94703156,18.75160362,25.77062485,24.00285694,27.63577502,29.95402965,30.19186265,32.38063702,33.36328143,35.03835301,35.63206825,14.19906271,12.24428552,13.92062761,17.60156859,18.33921522,21.14142164,21.88591696,25.71364726,24.34760913,12.60372436,11.20425028,13.29865333,15.96364287,16.27361839,18.69618421,19.4144726,21.47019646,20.81901077,0.989866069,1,1,1,1,0.99995416,0.999321567,0.998827006,30.53869475,-96.4274175,2020,TXH3
F42/OH43,NYH3_2019,Y,27.55,778.1034739,1.5,1,259,137,74.5,73,3.722580618,3.873333404,3.769554008,3.757958966,6.56821411,3.88506864,3.604603585,1.929858492,3.709694332,115.3999992,34.86000064,61.04857108,135.2235714,13.13642822,47.6607138,172.5314276,35.27499978,112.0914282,17.9818517,20.79040337,20.53458356,20.20586531,15.56107187,20.47665645,15.7702462,13.42945136,8.802352299,16.21290321,21.91111098,21.5613082,26.8770008,26.27928579,27.19863099,23.33754175,19.77308355,13.39834902,5.322258069,10.30000003,10.31609792,15.50927174,17.62488075,14.92700095,12.00041282,8.027538821,3.378330702,6.134411308,9.414033746,9.318517767,13.52970479,14.11503311,13.40897889,10.69134109,8.327220554,5.109082433,0.665391704,1,0.983452189,1,1,0.970435943,0.837841689,0.510564168,42.7321756,-76.65345463,2019,NYH3
B37/OH43,MIH1_2016,N,22.6,682.8517666,0,5,218.5,122,63,61.5,3.213870927,0.372000003,1.277668238,2.072144594,0.204761899,2.382636341,6.277866916,3.129595251,4.115734243,99.62999874,1.860000014,16.77857134,74.4033328,0.614285696,24.34142835,217.3680916,23.88571438,123.5814282,20.04481233,22.69628944,22.57460654,21.19066928,19.62511718,19.41470496,17.43536011,14.16523572,12.41239439,17.74322581,29.20999985,25.57947765,28.1508514,27.23547651,30.32783564,28.27294529,26.6388532,22.50219404,5.299677434,16.33600006,11.90361174,14.70447611,15.74579377,17.52671,16.25511672,15.58650841,10.86825081,6.615827776,14.89908974,11.62365975,13.82943527,13.70908531,16.01583991,14.48649579,13.48265,10.09129455,0.734400922,1,1,1,1,0.999987733,0.99326559,0.936590208,42.41206675,-84.2952625,2016,MIH1
F42/MO17,GAH1_2015,N,14.15,756.8649175,0,4.5,185,75,63,59.5,4.231249915,0,5.95843649,3.852603143,2.594000032,2.429925956,4.217759372,2.225466652,2.667397826,135.3999973,0,82.56599903,137.5619979,4.851333332,21.8693336,117.5779999,11.12733326,82.68933261,16.59936112,21.58269278,19.11661296,20.61616366,14.5260024,17.86473659,19.792993,19.1551459,18.46432438,25.43281227,26.81500022,26.00854227,27.82657943,29.9603331,30.57562955,31.8228303,33.58693334,33.75221527,12.50374998,10.5999999,12.24448314,13.90452364,20.76811106,20.25348139,20.64254904,22.17719986,22.29090342,11.85447967,11.72664631,11.94062668,13.41492991,17.36422208,17.41455547,18.23714923,19.83066815,19.89653894,0.988973219,1,1,1,1,1,1,1,31.505771,-83.555095,2015,GAH1
B73/PHZ51,INH1_2015,Y,15.1,732.4083981,0,4,244,97,70,69,2.968064535,5.608750075,2.401797478,2.620596579,1.049062505,3.048312443,3.454130844,1.332533481,1.484370975,92.01000059,44.8700006,26.44312483,85.12437463,1.715625018,30.48312443,116.5724995,9.316249996,45.68062523,19.44608656,13.59046638,21.88315593,21.65689439,20.60130358,19.73326552,18.77560381,17.99738388,15.64927463,15.67580632,21.0562501,27.44396829,29.52449332,32.66781175,30.16981242,28.17317586,28.46934151,25.5406298,3.004516139,13.05249977,15.22068343,16.62214482,19.56843758,18.02818774,16.71489706,16.46563638,12.56847521,5.360930658,9.9438759,13.725819,15.26696414,18.11812466,16.1828721,14.63810214,14.67667849,11.95902497,0.609504607,1,1,1,1,1,1,0.986081101,40.477075,-87.000205,2015,INH1
PHW52/PHN82,IAH1_2020,N,15.56666667,731.1212129,0,0,229,110,65,64,1.688064506,6.196000195,3.0793737,6.533057926,1.271428551,2.673269776,1.85421064,0.708456624,3.755616013,52.32999969,61.96000195,37.23499918,213.6221428,2.198571375,25.9085708,60.11785651,6.012142782,115.3728583,19.46953177,15.04660187,20.64247086,20.31598349,21.99207742,21.09552252,19.7297914,19.80455556,15.11692591,15.87290319,18.70700045,25.72176895,28.50674309,31.92999949,30.87921407,28.61147391,29.37327705,24.63079501,3.348387095,9.753000152,14.65929334,17.38633346,19.85714286,19.28849194,17.27261165,15.46819038,11.83183106,5.5584858,8.125456457,12.65757338,15.09801966,17.89357117,17.09078834,15.12121856,14.7539709,11.47694483,0.621440085,0.927035726,1,1,1,0.998514142,0.992713009,0.918334154,41.19774214,-91.48767072,2020,IAH1
WF9/H95,COH1_2017,N,37.675,576.0153922,2.5,30,235,102.25,78,75,3.393124943,0,0.001708684,0.360843908,0.891428554,3.560382097,1.42287895,1.565670675,1.770870451,108.5799982,0,0.02904762,12.29476177,1.600476163,43.78523833,56.48285717,21.02523811,53.20285701,22.26802993,25.65694836,25.9931063,24.2875628,21.26982858,19.37652668,19.65631787,15.92591012,11.99136935,20.38624986,26.27857154,29.00990249,30.95750085,32.84396765,29.24597739,27.87075516,24.49812031,17.64004964,4.676250031,9.955714362,11.44166305,13.33492254,15.64190474,14.2894836,11.55992968,8.650869984,2.505724526,7.387813889,11.22152513,12.97827389,14.53136664,16.23032426,14.11586508,12.58015619,10.40568176,6.007000116,0.859799101,1,1,1,1,0.978368119,0.882220332,0.653649732,40.64850025,-104.9997825,2017,COH1
2369/LH123HT,IAH2_2017,N,16.1,749.7853988,5.5,12.5,242,119.5,65,64,2.991935476,4.003749907,5.594154361,1.824159742,2.965909053,1.138616173,3.544395797,5.525860929,3.224964342,92.74999976,32.02999926,86.83999968,64.74363607,5.880909015,11.03545466,133.6850016,39.36636487,98.02272796,18.91811151,22.03083944,18.39067038,21.91300981,21.59707026,21.00058551,18.76246256,16.50136756,14.56336975,16.70258062,25.25375009,21.16444029,28.78792803,31.34295403,31.03890899,27.79230679,26.54138994,25.01808603,3.836129038,9.060000002,9.836484062,14.72352594,17.1804546,18.00485339,15.61890002,13.9478747,12.25710857,5.884356407,10.52058178,9.325556586,14.19611432,16.29393371,16.57150033,14.05801276,12.73803514,11.57992501,0.659274195,1,0.882113053,1,1,1,1,0.976890029,42.06582876,-94.72050129,2017,IAH2
F42/MO17,IAH3_2019,Y,24.75,677.059433,0,0.5,224.5,114.5,65,64,2.879677419,8.325833271,8.514982687,3.930253796,0.537380945,2.3054841,2.306432914,9.350841805,5.38576807,89.26999998,99.90999925,122.1842849,140.4857139,1.612142835,22.50785688,97.56999955,77.30999979,164.0414292,18.1142604,18.14433392,18.34133211,20.20102762,20.30083813,21.10542726,19.14151731,15.03963484,12.83068274,16.60032246,18.1858333,22.24543073,27.09611601,28.60416662,30.1634999,27.59661349,25.62734982,23.13272506,3.497096781,6.015833348,10.94521806,15.70806976,18.18130992,18.44873807,15.55405048,14.14793364,12.04513443,5.803122395,7.048807354,9.977529243,13.7421048,15.43701566,16.36698878,13.8976006,12.43400485,10.94701098,0.634539169,0.718095232,0.926337681,1,1,1,0.9932483,0.897879883,41.97593131,-92.24310603,2019,IAH3
B37/MO17,WIH1_2016,N,22.7,786.4701779,0,6.5,251,127.5,75,74,2.076129018,1.94750002,4.430291291,4.068377178,0.606590927,8.204471101,6.520888551,7.285801826,4.413191112,64.35999957,23.37000024,50.66818307,153.9786358,1.017727305,87.41727302,222.4604529,58.95590957,134.9268184,19.92805462,20.9108026,19.53546339,20.65690042,18.97296773,19.76360502,17.50876714,15.21370917,12.23883056,16.70258062,17.57583312,27.08182728,26.49130857,27.22159082,28.35833875,27.6700069,25.1458901,22.98674642,3.327419363,4.990833327,14.04723809,14.47423798,17.58636334,16.7186736,17.17399145,14.32051147,12.5735533,5.875866612,6.419508974,12.98865398,12.92924289,14.50224274,14.72651534,14.55658067,12.23924581,10.7486024,0.621198161,0.7653869,1,1,1,0.999967803,0.998306277,0.970976554,43.05632525,-89.53194975,2016,WIH1
PHW52/PHN82,WIH3_2020,N,19.95,691.2184706,0,0,236.25,110.75,67,64.75,2.733870995,5.446666638,6.112394342,4.74655674,3.655208389,1.04360979,2.527373572,3.69928986,2.61452892,84.75000083,32.67999983,82.9068754,167.6149986,8.003125131,12.58312517,113.8450009,40.74312496,78.93437568,20.41919384,18.2775027,21.33639865,20.40337995,19.49413761,18.99324058,17.80850823,14.15156863,10.1168501,15.48354838,26.52499994,25.39100386,27.30541678,28.00124967,27.24401428,25.77617537,21.78088819,14.67245705,3.106129019,15.18500026,12.31273591,15.12317531,16.14624966,16.31340126,13.17330579,9.92591724,4.431311843,5.287102842,13.2823578,11.70416503,13.61992535,14.28505882,13.97808988,12.29059579,9.657643491,5.630137727,0.571854837,1,1,1,1,0.965668942,0.879609054,0.560799012,44.115703,-89.54491325,2020,WIH3
W10001_0022/PHB47,NYH2_2015,Y,16.6,731.1212129,0,2,245,104,80,80,3.814193487,2.822857129,1.806874641,1.427310218,14.28882354,6.323155046,2.553769654,1.263651931,1.70374005,118.2399981,39.5199998,23.5252947,50.99705838,17.86235295,65.18176435,90.43176518,10.71352917,51.74117684,19.21827184,21.58410556,20.44972798,21.8367517,17.34067749,18.34945618,18.49425604,17.55625849,13.84215422,11.26903224,15.86071418,24.70888252,27.12764594,29.5805878,28.55383422,27.75922879,25.11594081,20.73318661,0.676451599,3.065714287,12.68317757,14.19692254,19.48862723,17.66257776,16.12899413,12.03346763,8.797239788,3.458861152,5.522653893,11.65565145,13.2498794,16.56577659,15.18766176,14.16580901,11.53845799,8.731216192,0.261509218,0.568112238,0.971160735,0.994106254,1,0.999864887,0.980226591,0.898542131,42.7324825,-76.65277775,2015,NYH2
PHP02/PHB47,ILH1_2016,Y,14.25,740.1315095,6,2,237.5,178,74,72,2.976905237,4.388409027,2.266536067,5.61207631,2.384848472,3.596551307,3.312350719,4.357499975,4.793790319,93.71999985,46.35499933,33.46068128,180.4177266,4.628863606,41.73386359,104.1413657,28.32431801,148.2020453,18.82488241,16.77241452,21.32061235,20.18653607,20.74234538,18.07981042,18.8666989,17.85818253,16.07680721,18.05081144,19.20204525,23.0422997,29.42292662,27.90308728,26.97317812,29.60218573,29.15938829,28.17592877,4.960040295,8.531272602,10.4507586,17.10049505,15.99717794,16.84881478,19.41054858,18.84383108,17.09740687,6.781235125,7.969267807,10.17119166,15.41614171,14.29579798,14.15384892,16.51995977,16.04951253,14.84458937,0.666766271,0.897956159,0.946860721,1,1,1,1,0.999883117,40.0607245,-88.2338815,2016,ILH1
LH82/PHB47,NEH3_2015,N,15,768.4495847,0,2,229,110,62,62,3.231250057,0.918000031,0.565093977,1.286692195,3.19749999,1.391136354,0.258061221,1.474667183,0.155891338,103.4000018,4.590000153,6.150000095,39.04749978,4.720000029,15.30249989,11.17999983,14.52874985,4.648125023,21.79127574,25.69442635,22.86725485,21.82271665,15.26317632,20.59079,20.06412842,16.27968968,13.53861776,24.28750017,32.64599991,30.58771447,32.67731329,28.91593772,29.87238656,30.80707127,25.39031645,21.32018275,9.278749934,13.0079998,13.8828633,15.7826582,17.05531204,14.62710229,13.18313307,8.87540479,3.334017086,10.46257825,15.28330691,14.45465852,16.22005678,15.0938879,14.496454,14.53020136,10.90039565,7.851747396,0.909587052,1,1,1,1,0.965712824,0.862507779,0.80953931,41.15824525,-101.9872958,2015,NEH3
B37/MO17,GAH2_2018,N,14.2,724.0416941,13.5,7,209,101,56.5,55.5,4.849677459,0.472857135,6.389842835,2.50728713,2.625000003,3.795198411,2.499668454,2.828785729,3.724124467,150.3400012,3.309999943,84.90856965,76.95785742,5.387857173,33.84785713,66.14142865,15.06428581,115.4478585,20.49558812,21.88511535,20.33298503,19.15998772,23.51626716,19.70790798,20.02489003,19.42019064,16.00793598,23.5748387,25.80428559,25.09824669,29.4338755,32.57678595,32.30446448,33.95531338,34.12885699,31.99587548,8.787742034,10.57714278,11.20780819,18.18961495,18.46904782,20.57888879,21.25284753,21.08492862,21.01629033,9.717543295,11.3392147,11.23425566,15.89113211,17.53376954,18.44167663,19.31882395,19.47290933,18.49284767,0.993778801,1,1,1,1,1,1,1,33.71560925,-83.30894675,2018,GAH2
LH198/PHZ51,ILH1_2015,Y,10.7,730.4776202,0,8,267.5,120,69.5,68.5,4.343437491,1.296153843,7.654899739,5.34311295,3.674999952,2.467291633,4.647268051,0.712819956,1.951907909,138.9899997,16.84999996,99.86750055,177.342501,7.349999905,22.2056247,144.0256246,5.039375113,60.06187434,19.4076893,20.21820178,17.58012378,22.59231729,17.35775694,20.12242863,18.79551315,20.37165926,16.80998738,15.69375022,16.27615364,23.81483975,28.77428317,30.28249967,31.91701372,28.65899596,28.4854072,27.09877011,2.916875011,4.602307732,13.93389792,16.26044709,20.47749984,20.41381959,17.79543547,15.77196732,14.62672175,5.339800043,5.921635642,11.53105666,14.7484369,17.37999976,18.17178164,15.31569586,14.44648847,13.36421336,0.599162964,0.636840646,1,1,1,1,1,0.99828125,40.05982425,-88.23397575,2015,ILH1
PHW52/PHN82,NYH3_2020,N,15.2,729.8340276,0,5.5,214.5,83,69.5,69,4.422257993,0,1.373865683,3.203515064,6.161458224,3.578657229,2.247619776,1.339995863,2.270768823,137.0899978,0,18.69000064,113.6731244,12.19749978,37.86125033,87.74812532,17.041875,68.54562519,20.94560956,21.78233427,21.55267425,20.63825651,19.18147684,18.87690393,17.75633085,13.93943947,11.5316014,14.59225801,27.97729172,23.60945411,27.89842024,28.17958339,28.76829368,26.51617347,21.47489044,18.12990527,2.644717742,15.68266662,11.3508871,15.53912014,16.43281273,17.50013456,14.53010818,10.52921434,6.891416056,5.000434995,14.04753459,10.70035646,14.11697706,14.42792892,15.19886376,13.03509367,9.604727821,7.356101809,0.471947005,1,0.969562211,0.99553941,1,0.989555914,0.903066166,0.764418635,42.73227475,-76.6513705,2020,NYH3
B73/MO17,NEH2_2018,Y,16.15,756.2213249,0,2,290,115,65,64,1.223548393,0.707272736,4.763911635,2.422660693,9.359230876,1.187769238,2.22139935,1.060615372,2.655643509,37.93000019,7.780000091,61.58923048,72.52538565,18.71846175,11.03461544,72.02230704,6.795384554,82.07230774,19.8632896,17.86074517,17.24350838,22.63499015,18.62862352,21.21286184,19.62237806,18.45252819,16.56870138,17.6919355,17.47909086,23.04657186,30.81178887,30.82346183,31.15499996,29.41523597,30.138927,26.57117624,3.026129,6.979090886,13.86801705,18.31582591,19.94076905,19.05673485,17.52505525,17.69200753,12.69636803,6.275299993,6.965919572,11.10889174,16.66188215,17.38211544,17.1119836,15.61857368,16.09025205,12.68735507,0.68033411,0.762240243,1,1,1,0.996687975,0.997695055,0.910447978,41.38042275,-96.55988375,2018,NEH2
WF9/H95,NYH1_2017,Y,17.7,731.1212129,0,2,229,110,65,64,4.758709581,4.139999986,2.953024942,5.715506232,4.320872878,2.701732063,2.616328443,1.022630585,3.614268439,147.519997,37.25999987,45.12618999,219.9223815,11.26857107,35.6957141,128.4247627,13.30476207,110.8900009,18.97444351,17.81005277,22.0763727,19.38397475,18.56141379,19.22534974,16.71382568,13.43506643,9.037548332,17.06967752,20.23333359,22.7745171,25.66488699,26.70396817,25.32691524,23.26007272,23.96840526,17.61119819,5.964193534,10.19,10.93717632,15.20362294,16.36293638,14.60656728,11.31793404,11.56685323,6.669544781,6.641127344,8.727253675,10.15270493,12.79474615,13.71935226,12.37567782,10.45035179,10.9124923,7.239151369,0.685760371,1,1,1,1,0.982493678,0.953634339,0.701363064,42.72880835,-76.6515625,2017,NYH1
PHW52/PHN82,IAH3_2019,Y,24.1,700.2287673,0,0,246.5,120,65,64,2.879677419,8.325833271,8.514982687,3.930253796,0.537380945,2.3054841,2.306432914,9.350841805,5.38576807,89.26999998,99.90999925,122.1842849,140.4857139,1.612142835,22.50785688,97.56999955,77.30999979,164.0414292,18.1142604,18.14433392,18.34133211,20.20102762,20.30083813,21.10542726,19.14151731,15.03963484,12.83068274,16.60032246,18.1858333,22.24543073,27.09611601,28.60416662,30.1634999,27.59661349,25.62734982,23.13272506,3.497096781,6.015833348,10.94521806,15.70806976,18.18130992,18.44873807,15.55405048,14.14793364,12.04513443,5.803122395,7.048807354,9.977529243,13.7421048,15.43701566,16.36698878,13.8976006,12.43400485,10.94701098,0.634539169,0.718095232,0.926337681,1,1,1,0.9932483,0.897879883,41.97593131,-92.24310603,2019,IAH3
PHB47/PHZ51,NYH1_2017,N,15.975,731.1212129,0.25,16.75,235.25,111.5,74,72.75,4.758709581,4.139999986,2.953024942,5.715506232,4.320872878,2.701732063,2.616328443,1.022630585,3.614268439,147.519997,37.25999987,45.12618999,219.9223815,11.26857107,35.6957141,128.4247627,13.30476207,110.8900009,18.97444351,17.81005277,22.0763727,19.38397475,18.56141379,19.22534974,16.71382568,13.43506643,9.037548332,17.06967752,20.23333359,22.7745171,25.66488699,26.70396817,25.32691524,23.26007272,23.96840526,17.61119819,5.964193534,10.19,10.93717632,15.20362294,16.36293638,14.60656728,11.31793404,11.56685323,6.669544781,6.641127344,8.727253675,10.15270493,12.79474615,13.71935226,12.37567782,10.45035179,10.9124923,7.239151369,0.685760371,1,1,1,1,0.982493678,0.953634339,0.701363064,42.72880835,-76.6515625,2017,NYH1
LH74/PHN82,ARH1_2017,N,13.9,670.6235069,0,2,186.35,97.15,65.5,65,3.058125025,3.532857077,9.871688678,6.405160528,0.516363615,5.988171668,5.119232493,3.102318153,5.34158356,97.86000079,24.72999954,132.0327285,211.6218184,0.569545432,54.36818138,136.8913653,16.08272713,165.5890903,17.13974981,16.55343887,20.38424011,18.76225527,22.81364793,19.06964508,19.53553475,19.77193111,17.12972935,24.60906261,23.96000045,24.77057006,28.06605652,30.35469691,31.5146664,31.30577636,32.78459133,30.91587993,11.9175,14.17857156,11.8445801,17.60850246,18.97249995,21.30615642,21.39979275,22.50533316,21.62237538,11.1639709,11.77578055,11.22655186,14.97537354,16.74359516,18.41041141,18.33049426,19.54768126,18.22457608,1,1,1,1,1,1,1,1,34.7272515,-90.76032575,2017,ARH1
LH82/PHB47,INH1_2016,N,18.5,700.2287673,1.5,5.5,236,119.5,59.5,59.5,3.034516148,1.382857186,3.106568823,3.966270256,3.500454469,6.752636371,3.451172643,3.198528118,3.024422797,94.07000059,9.680000305,31.26000059,138.8759105,3.500454469,67.52636371,113.8927274,21.6654544,92.62590972,17.63328649,23.97511796,20.66441577,20.1236558,19.9706746,19.39149484,18.14527656,15.98533716,14.62820237,18.74516109,26.31142807,27.84898846,28.12893417,28.20272714,29.14504538,29.16779001,27.95564941,27.07739093,7.950322636,11.69428553,16.31817922,16.10606538,16.8522731,18.34872752,18.58889605,17.50284626,15.03841012,7.677100472,11.91689015,14.24288378,14.4184555,14.68521604,15.7994256,15.9329094,14.92238151,13.51734692,0.852649763,1,1,1,1,1,1,0.996102814,40.4787595,-86.98982,2016,INH1
PHG29/PHG47,GAH2_2016,N,11.95,731.1212129,0,2,247.5,201,47,47,1.486129045,0,7.316392826,2.079782856,1.718421064,1.264671045,2.43256314,4.61773679,3.235456168,46.07000041,0,60.50999928,55.97210474,3.436842128,10.11736836,67.31736801,23.15894711,100.2847377,20.21189387,22.87583466,19.10112302,21.34036575,17.85876091,19.83818451,18.50479945,15.9975398,17.29687983,27.80677426,30.50400009,32.06010812,34.2138269,34.93842035,34.86282896,34.62455114,33.33373696,32.80003392,13.8351613,16.55600014,19.35906305,20.32019684,22.9621054,21.76434208,22.04984942,22.29670187,20.14649938,13.32566871,15.60302283,17.72531793,18.78372546,20.36638125,19.89190838,19.9091667,19.70080105,18.42340329,1,1,1,1,1,1,1,1,33.717295,-83.3110275,2016,GAH2
PHW52/PHM49,NYH2_2020,Y,13.95,737.557139,0,2,226.5,96.5,68.5,68,4.422257993,0,1.391731236,3.182357247,6.170888774,3.507901041,2.283490724,1.426918664,2.172175634,137.0899978,0,18.68266731,113.2706661,12.6093331,36.98266699,88.46933366,18.14666667,65.61600019,20.94267544,21.78244971,21.55666085,20.64321436,19.27786447,18.92984529,17.76882093,13.77968924,11.70490539,14.55447306,27.94977782,23.62933928,27.86541297,27.88688897,28.78672537,26.53302948,21.56675493,18.20507674,2.61195699,15.66431106,11.35573055,15.51025755,16.31100023,17.48208292,14.53826355,10.86377734,6.879177126,4.979415324,14.02697238,10.70801105,14.09392345,14.22879085,15.20067311,13.04971037,9.749522427,7.387680802,0.470065285,1,0.969822941,0.995242037,1,0.988859641,0.904446401,0.765938608,42.73230075,-76.65036275,2020,NYH2
B37/OH43,INH1_2018,Y,18.88,787.4355669,0,2,237,115.5,62.5,62,2.767096756,4.68454543,2.7337539,2.608245307,0.180000007,3.094468228,3.412660528,0.546071422,1.653962344,85.77999943,51.52999973,31.28214284,86.61642764,0.256428582,29.52071404,116.6621433,3.926428522,50.80214219,18.97651723,17.84080185,18.4751702,21.91502565,21.1577316,19.53552192,18.82147066,19.16946561,15.73843824,16.02451609,18.1199998,25.33039297,28.95851984,31.36964308,31.15694425,28.16765345,28.4284546,26.00206774,3.260645186,6.861818249,15.08608447,16.0398559,19.18499974,18.88806934,16.73005964,15.8360335,13.18834038,5.572938243,7.259226835,12.75390782,14.76719288,17.27732141,17.05840253,14.63863294,14.40004061,12.39915253,0.613732714,0.707012975,1,1,1,1,1,0.979968538,40.4787825,-86.9898145,2018,INH1
B37/OH43,NYH3_2019,Y,22.7,641.0182465,3.5,1,262.5,122,73.5,73,3.722580618,3.873333404,3.769554008,3.757958966,6.56821411,3.88506864,3.604603585,1.929858492,3.709694332,115.3999992,34.86000064,61.04857108,135.2235714,13.13642822,47.6607138,172.5314276,35.27499978,112.0914282,17.9818517,20.79040337,20.53458356,20.20586531,15.56107187,20.47665645,15.7702462,13.42945136,8.802352299,16.21290321,21.91111098,21.5613082,26.8770008,26.27928579,27.19863099,23.33754175,19.77308355,13.39834902,5.322258069,10.30000003,10.31609792,15.50927174,17.62488075,14.92700095,12.00041282,8.027538821,3.378330702,6.134411308,9.414033746,9.318517767,13.52970479,14.11503311,13.40897889,10.69134109,8.327220554,5.109082433,0.665391704,1,0.983452189,1,1,0.970435943,0.837841689,0.510564168,42.7321756,-76.65345463,2019,NYH3
F42/MO17,NYH2_2015,N,21.95,731.1212129,0,11.5,242.5,125,83,83,3.814193487,2.822857129,1.806874641,1.427310218,14.28882354,6.323155046,2.553769654,1.263651931,1.70374005,118.2399981,39.5199998,23.5252947,50.99705838,17.86235295,65.18176435,90.43176518,10.71352917,51.74117684,19.21827184,21.58410556,20.44972798,21.8367517,17.34067749,18.34945618,18.49425604,17.55625849,13.84215422,11.26903224,15.86071418,24.70888252,27.12764594,29.5805878,28.55383422,27.75922879,25.11594081,20.73318661,0.676451599,3.065714287,12.68317757,14.19692254,19.48862723,17.66257776,16.12899413,12.03346763,8.797239788,3.458861152,5.522653893,11.65565145,13.2498794,16.56577659,15.18766176,14.16580901,11.53845799,8.731216192,0.261509218,0.568112238,0.971160735,0.994106254,1,0.999864887,0.980226591,0.898542131,42.7324825,-76.65277775,2015,NYH2
PHG39/PHN82,NCH1_2019,N,17.7,731.1212129,0,2,229,110,65,64,2.191129027,0,0.107342031,4.775073233,0.466011907,4.533660718,6.24100048,2.370892844,2.941295675,67.92499983,0,1.347142833,143.4146411,0.94178571,36.26928575,165.0100003,13.54249993,91.02821354,18.69452832,25.30126673,21.77382428,19.07893176,22.56876209,20.7892765,19.22903807,18.96679552,16.71087377,25.69580629,28.76666609,32.29891346,30.08294473,33.3002377,33.83080339,32.75741781,32.04927549,30.79691829,13.34274195,12.19133326,19.06280588,18.61089734,20.56851188,21.23558053,21.08131414,19.9046464,19.77832645,12.18436683,13.33597385,17.64216348,16.39126772,18.88342746,19.44075481,18.8247811,17.98080212,17.31161093,1,1,1,1,1,1,1,1,35.67010175,-78.510504,2019,NCH1
B73/PHN82,WIH2_2017,Y,23.15,767.1623994,0,2,262.5,134,78,79,5.048709616,4.636666616,1.142383575,5.763857885,8.001590729,6.160048604,1.607776433,1.167726513,2.257555268,156.5099981,41.72999954,17.5799998,219.3963643,12.14409065,74.04090792,72.28863683,15.04409093,68.0204557,18.1690344,19.72049554,20.64727683,20.23287988,19.13163679,19.37493243,18.51401576,14.93340477,10.89478233,16.03129027,21.86555545,22.15746071,26.59689143,27.90045501,26.76799254,24.73062069,22.38533393,20.51274781,3.24419354,8.791111098,9.553497601,14.54337319,16.81037892,15.37831158,12.19271258,9.193202486,7.868866577,5.438218202,9.209131236,9.451203107,13.05708411,14.51682301,13.37610723,11.31306373,9.686333754,8.853113959,0.624158991,0.847976183,0.950288768,1,1,0.998699911,0.954544862,0.834596302,43.3246415,-89.33688775,2017,WIH2
PHG29/PHG47,MOH1_2016,N,16,731.1212129,0,2,237.5,130,52.5,51.5,2.465483877,8.058000231,0.264259377,6.282521268,1.94553035,9.25680559,4.358907121,3.354664451,5.453130527,76.43000019,40.29000115,2.879999995,172.8372758,4.262727369,83.20363667,125.2090916,21.13363606,168.2240918,20.2309363,16.93509369,22.49829557,20.20959989,18.68177986,19.21408964,18.0090922,17.17714413,15.87534947,21.83193548,27.56600037,27.88644765,31.21215235,30.25795442,31.2505745,30.57423065,29.80077912,28.25339236,10.073871,16.74400005,16.26474463,19.86215984,19.98371223,20.49117413,20.76153791,19.91431794,17.56318368,9.497798547,14.24343349,14.21296425,17.47336946,17.12232598,17.8699151,17.65104862,16.90998551,15.09561117,0.937315665,1,1,1,1,1,1,0.999442641,38.8955475,-92.2072025,2016,MOH1
PHN11_PHW65_0323/LH195,WIH2_2017,Y,26.65,754.9341397,0,2,260.5,114,78.5,79.5,5.048709616,4.636666616,1.142383575,5.763857885,8.001590729,6.160048604,1.607776433,1.167726513,2.257555268,156.5099981,41.72999954,17.5799998,219.3963643,12.14409065,74.04090792,72.28863683,15.04409093,68.0204557,18.1690344,19.72049554,20.64727683,20.23287988,19.13163679,19.37493243,18.51401576,14.93340477,10.89478233,16.03129027,21.86555545,22.15746071,26.59689143,27.90045501,26.76799254,24.73062069,22.38533393,20.51274781,3.24419354,8.791111098,9.553497601,14.54337319,16.81037892,15.37831158,12.19271258,9.193202486,7.868866577,5.438218202,9.209131236,9.451203107,13.05708411,14.51682301,13.37610723,11.31306373,9.686333754,8.853113959,0.624158991,0.847976183,0.950288768,1,1,0.998699911,0.954544862,0.834596302,43.3246415,-89.33688775,2017,WIH2
B14A/MO17,NCH1_2019,Y,17.7,731.1212129,0,2,229,110,65,64,2.191129027,0,0.107342031,4.775073233,0.466011907,4.533660718,6.24100048,2.370892844,2.941295675,67.92499983,0,1.347142833,143.4146411,0.94178571,36.26928575,165.0100003,13.54249993,91.02821354,18.69452832,25.30126673,21.77382428,19.07893176,22.56876209,20.7892765,19.22903807,18.96679552,16.71087377,25.69580629,28.76666609,32.29891346,30.08294473,33.3002377,33.83080339,32.75741781,32.04927549,30.79691829,13.34274195,12.19133326,19.06280588,18.61089734,20.56851188,21.23558053,21.08131414,19.9046464,19.77832645,12.18436683,13.33597385,17.64216348,16.39126772,18.88342746,19.44075481,18.8247811,17.98080212,17.31161093,1,1,1,1,1,1,1,1,35.67010175,-78.510504,2019,NCH1
B37/MO17,ARH2_2016,N,13.95,731.1212129,1,2,223.5,130.5,65.5,62,5.780937422,12.26500018,3.712120208,7.0222886,1.105000019,0.295568184,1.931287914,1.454696927,6.280835692,184.9899975,73.59000111,50.67409075,233.2059098,2.210000038,2.364545475,51.29727264,7.656817956,194.7059064,17.76457119,17.22719622,20.14058537,19.80644481,18.88262117,19.79738723,18.69440654,19.88854878,15.60714355,21.02781257,25.69833342,24.88224707,27.55747889,33.1628785,33.38017045,32.40728063,33.71248445,31.37684753,8.517187547,14.13833332,13.26693003,16.75834882,22.79151535,23.21522755,22.56353312,22.95024234,22.3752492,8.626308124,12.37618007,11.75818796,14.46644855,19.89189903,20.24263088,19.43024202,20.23735303,18.81126952,0.958649555,1,1,1,1,1,1,1,35.838614,-90.66530155,2016,ARH2
PHW52/PHN82,SCH1_2019,N,15.205,731.1212129,0,2,170.18,55.88,57,61.5,3.522580645,3.026666641,1.832071666,3.15534991,1.497023807,2.439880971,1.838213127,1.715047598,2.162465429,109.2,18.15999985,19.94999987,97.87357193,2.846428582,21.92714303,50.9164284,9.481428444,67.0364283,18.2238054,19.24788825,19.83816148,19.9388592,17.79349522,20.88775084,19.93011295,20.19525604,17.6553152,24.08129043,27.55666669,26.86360264,30.30302253,30.15095266,31.81823454,32.87501498,31.84457125,32.33357145,10.7222581,15.88833332,14.78977791,18.33498627,20.49666657,19.48954379,21.18366564,19.1694286,20.16504603,10.62715993,13.88239503,13.27455789,16.3672742,17.32380961,17.64580353,19.00989067,17.48787314,18.15917061,0.967315668,1,1,1,1,1,1,1,34.62248225,-82.73756775,2019,SCH1
W10001_0022/PHB47,NYH3_2015,N,17.9,731.1212129,0,11,212,99,77,76,4.268387075,0,1.234803629,3.315485905,3.744705864,3.708743319,2.034738589,2.091907533,2.160160663,132.3199993,0,17.66999944,111.4647067,9.843529393,38.42352946,75.35117763,21.49235322,65.37235311,20.95885717,21.76160183,22.01003167,20.47654391,19.37507164,18.84800849,18.09954582,14.25866518,12.17165493,15.21516129,28.41399994,23.9726608,27.94852153,28.22411762,29.00645443,26.88612691,22.65429039,19.02039094,3.206451565,16.00799999,11.62235867,15.61032629,16.7502941,17.72633694,14.88804443,11.60832066,7.356588233,5.349626667,14.38734971,10.95773449,14.17183136,14.61937489,15.41213998,13.31670354,10.34569698,7.707711279,0.504331792,1,0.97267375,0.996219796,1,0.995345527,0.95775528,0.812032548,42.7233625,-76.6555945,2015,NYH3
PHG29/PHG47,ILH1_2016,Y,16.35,718.2493605,0,2,249,115.5,73,71.5,2.976905237,4.388409027,2.266536067,5.61207631,2.384848472,3.596551307,3.312350719,4.357499975,4.793790319,93.71999985,46.35499933,33.46068128,180.4177266,4.628863606,41.73386359,104.1413657,28.32431801,148.2020453,18.82488241,16.77241452,21.32061235,20.18653607,20.74234538,18.07981042,18.8666989,17.85818253,16.07680721,18.05081144,19.20204525,23.0422997,29.42292662,27.90308728,26.97317812,29.60218573,29.15938829,28.17592877,4.960040295,8.531272602,10.4507586,17.10049505,15.99717794,16.84881478,19.41054858,18.84383108,17.09740687,6.781235125,7.969267807,10.17119166,15.41614171,14.29579798,14.15384892,16.51995977,16.04951253,14.84458937,0.666766271,0.897956159,0.946860721,1,1,1,1,0.999883117,40.0607245,-88.2338815,2016,ILH1
PHG29/PHG47,NYS1_2020,Y,15.7,750.4289914,0,9.5,214,98,64.5,64.5,4.422257993,0,1.465106888,3.112730419,5.226388772,3.791500035,2.252145842,1.205606062,2.258500008,137.0899978,0,18.69000064,111.7083327,11.12166643,40.23500037,81.04333365,12.37166667,67.75500025,20.93932216,21.78258165,21.50902141,20.73125831,19.36904918,18.75308368,18.06102422,15.18229782,12.07034185,14.51129027,27.91833337,23.80048522,27.65661692,28.12555557,28.75518193,26.95460769,22.41267031,19.20822226,2.574516131,15.64333328,11.50500006,15.28648379,16.42583349,17.59142435,15.02631586,10.71009203,7.777611178,4.955392842,14.00347271,10.82536169,13.9247866,14.40689442,15.2259098,13.37336426,9.961154016,7.871549184,0.467914747,1,0.970676975,0.994134504,1,0.998779762,0.945742115,0.836474207,42.7322645,-76.651743,2020,NYS1
B37/H95,NEH2_2015,N,14.5,760.7264732,0,2,229,110,97.5,96,1.358750008,3.755999994,3.031264216,1.286090902,0.286666671,1.657187527,3.751759362,0.157499999,0.616713691,43.48000026,37.55999994,66.29000026,43.49999976,0.860000014,16.57187527,117.6431233,0.944999993,18.99062441,19.53783247,19.98656282,18.8528682,23.65152674,23.21232343,22.7312118,19.62767813,21.61948185,18.20728239,15.03874992,23.15200024,18.66927583,30.14561768,32.37510385,32.60862507,30.36489819,32.31320816,28.31448706,-2.426562488,5.230999994,5.264051067,13.5723423,16.5714581,16.13087479,15.9646131,15.56819047,11.19634675,4.192485347,8.478296732,6.894904354,14.37610508,16.560328,16.47008009,15.3434088,16.05261291,12.83173005,0.519497764,0.97653572,0.809891265,1,1,1,1,0.922021698,41.0514495,-100.7471915,2015,NEH2
LH74/PHN82,MOH1_2_2018,N,17.6,731.1212129,0,2,202,87.66666667,51.66666667,50.66666667,4.419032262,0.120000001,6.56660792,4.995913726,0,0.865952386,4.867908623,7.318145406,3.629241153,136.9900001,0.840000004,71.60142667,150.6285707,0,7.793571472,145.6157139,39.85928573,112.0157138,18.39395777,18.46565301,20.1607481,20.70593221,19.87326009,21.97749135,18.06982858,17.46468943,16.31914076,19.5254839,22.76714298,27.16554273,29.60936822,31.6271427,32.32420578,29.51628185,29.85375934,27.04843165,7.99741943,14.14714282,16.43732974,18.81172612,21.79964249,20.71007941,19.44316189,19.21155699,15.91814144,7.992986492,11.1555316,14.00535673,16.26359619,18.7133926,18.51714259,16.54699664,16.60044059,13.86670431,0.872361758,1,1,1,1,1,1,0.995607144,38.89555425,-92.20964575,2018,MOH1
B14A/OH43,WIH2_2020,N,27.6625,675.7722478,3.25,11.625,273.5,141.125,72,70,1.142258063,7.375000167,3.772605813,4.528143625,15.91411821,3.015240613,2.848395651,6.559665308,3.073983535,35.40999997,73.75000167,42.96999988,163.850588,31.01764819,33.16764674,117.7699986,59.84176376,94.45823468,20.73953056,16.04352899,21.23354675,21.58093245,19.01370295,17.88573252,19.32013515,13.57540027,12.27254504,13.56999995,18.91099977,26.0938683,28.2322475,29.46647072,27.75422455,27.09322103,24.80509675,19.00189054,0.762580661,9.396999884,13.99892158,14.99589118,17.7452939,17.49807463,14.22893102,13.29211059,7.459399134,4.176897214,8.107987139,12.68677404,14.02444379,15.66411489,14.70790633,13.20588953,12.26960615,7.833960257,0.443168195,0.881928567,1,1,1,0.990384734,0.880973437,0.780679991,43.294786,-89.383968,2020,WIH2
LH195/PHZ51,GAH1_2017,Y,13.475,746.5674357,0,5.5,190,82.5,61.5,61,1.929687474,5.730000019,0.343252103,3.449286585,2.107618968,4.586772466,5.884115127,3.462793619,5.790337869,61.74999917,45.84000015,4.185237975,115.4628578,3.161428452,44.24761888,164.3961923,18.00285697,179.500474,16.80249013,20.13732326,20.17342047,19.27076224,21.20480144,16.6798163,18.15858085,19.37517402,17.73704587,23.5584375,24.76124978,28.73884546,29.02932191,29.79031757,30.11825943,30.88468736,33.04158726,32.39466959,8.654999979,9.073749959,13.81601286,15.94569083,16.85142871,20.07059283,21.0580027,22.24365102,22.03411694,9.935165979,10.3201674,13.6844889,14.81363998,15.5596332,17.10789698,17.95959829,19.61349988,19.1980032,0.8834375,1,1,1,1,1,1,1,31.50794425,-83.55854475,2017,GAH1
B14A/MO17,GAH1_2020,Y,18.375,684.5251074,7.5,17,187.5,100,65,64,4.279687563,0,6.08243138,3.811420537,2.267976227,2.530000055,3.98378478,1.741833346,2.910207357,136.950002,0,84.37571335,135.9278565,4.833571502,22.77000049,107.9378566,9.115000069,90.21642806,16.61263859,21.5972875,19.10636237,20.72286693,14.54687945,18.15584731,20.08605453,19.68634889,18.27781732,25.37343752,26.77166684,25.94144379,27.77824619,29.55357116,30.6518255,31.78195276,33.48178532,33.56322575,12.43875006,10.55666669,12.19035929,13.80720781,20.58059497,20.26111097,20.57386992,21.96838095,22.25456222,11.80508215,11.69113274,11.88989525,13.35432975,17.06708306,17.45646823,18.17996521,19.67032327,19.80166763,0.988537947,1,1,1,1,1,1,1,31.5079775,-83.558517,2020,GAH1
B14A/MO17,ILH1_2016,Y,16.85,774.8855108,0,2,268.5,134,74.5,73.5,2.976905237,4.388409027,2.266536067,5.61207631,2.384848472,3.596551307,3.312350719,4.357499975,4.793790319,93.71999985,46.35499933,33.46068128,180.4177266,4.628863606,41.73386359,104.1413657,28.32431801,148.2020453,18.82488241,16.77241452,21.32061235,20.18653607,20.74234538,18.07981042,18.8666989,17.85818253,16.07680721,18.05081144,19.20204525,23.0422997,29.42292662,27.90308728,26.97317812,29.60218573,29.15938829,28.17592877,4.960040295,8.531272602,10.4507586,17.10049505,15.99717794,16.84881478,19.41054858,18.84383108,17.09740687,6.781235125,7.969267807,10.17119166,15.41614171,14.29579798,14.15384892,16.51995977,16.04951253,14.84458937,0.666766271,0.897956159,0.946860721,1,1,1,1,0.999883117,40.0607245,-88.2338815,2016,ILH1
B37/MO17,INH1_2019,Y,26.16,859.8397363,4,2,241.5,129.25,64,61,4.638124973,1.291666667,4.254883356,1.873002707,7.542143106,0.579848493,2.745608418,1.194209184,2.037834084,148.4199991,7.75,53.11714339,53.83785783,14.64785763,6.669285808,98.22214476,12.45785718,61.58714233,19.82387961,19.183822,19.33565513,20.5079362,16.64856858,22.30931036,17.46113557,15.79330395,12.43542766,23.34687504,26.15000025,24.44131608,31.06458042,27.9682139,28.43625549,27.60941131,25.59340811,22.91422815,11.29093746,15.88166634,14.27159151,19.40569109,18.2715475,15.1189393,15.69895629,13.38685715,10.33005226,10.62626718,13.2428989,11.86638398,17.27971266,15.26406297,14.09359416,13.93027737,12.23653025,10.46761426,0.918526784,1,1,1,1,0.999060374,0.966691327,0.86252861,40.477063,-87.00020175,2019,INH1
PHW52/PHM49,WIH2_2017,Y,26.1,765.8752142,0,2,248,110,78.5,79.5,5.048709616,4.636666616,1.142383575,5.763857885,8.001590729,6.160048604,1.607776433,1.167726513,2.257555268,156.5099981,41.72999954,17.5799998,219.3963643,12.14409065,74.04090792,72.28863683,15.04409093,68.0204557,18.1690344,19.72049554,20.64727683,20.23287988,19.13163679,19.37493243,18.51401576,14.93340477,10.89478233,16.03129027,21.86555545,22.15746071,26.59689143,27.90045501,26.76799254,24.73062069,22.38533393,20.51274781,3.24419354,8.791111098,9.553497601,14.54337319,16.81037892,15.37831158,12.19271258,9.193202486,7.868866577,5.438218202,9.209131236,9.451203107,13.05708411,14.51682301,13.37610723,11.31306373,9.686333754,8.853113959,0.624158991,0.847976183,0.950288768,1,1,0.998699911,0.954544862,0.834596302,43.3246415,-89.33688775,2017,WIH2
F42/OH43,NYH3_2018,N,25.45,702.1595451,1,1.5,189,91.5,71.5,69,4.152903213,0.855714253,1.333281551,1.973054112,19.58384622,4.14286014,1.827699262,3.76173812,1.90156246,128.7399996,5.989999771,17.49230713,69.9676929,40.09153858,44.76538462,69.41461665,34.65000019,57.30153882,20.64383799,23.73438372,20.91517994,21.34827616,15.57480097,18.28181198,18.59806785,13.9987834,13.21485935,12.82806446,24.72714315,24.74142799,27.59651287,28.68307664,28.50629367,27.06434367,24.34345721,20.06623908,1.452258048,10.48999977,13.10088293,14.82547593,19.13846159,17.45270631,15.13507682,13.07327349,8.10410419,4.113027627,10.74522894,11.82730489,13.73068126,15.93834835,15.05075648,13.50240047,11.64767513,8.352187515,0.351670502,1,0.973040659,0.995029228,1,0.992439429,0.946636381,0.843044516,42.7261605,-76.6556765,2018,NYH3
PHN11_PHW65_0323/LH195,ONH1_2016,Y,32.35,653.2465062,0,1.5,226,125.5,88,85,1.979032247,2.105714291,0.92181366,1.439738287,4.720833318,2.435439396,4.62931563,1.31185227,2.043303741,61.34999967,29.48000008,13.31600007,60.28400005,10.99249999,28.54150001,172.0475013,11.37649985,61.38049932,20.24883872,21.56727634,23.77365349,22.41142308,19.3081847,20.61473607,17.12813691,15.31534219,11.6349499,10.49290321,16.47999988,25.01561457,25.51466922,28.22516696,27.99415914,27.31356147,24.49017951,20.3886015,-0.735806467,3.753571405,10.93050922,11.61184699,15.55325019,14.71775745,15.07244109,12.71620509,9.185787659,3.269306411,5.688768484,11.09209761,11.56175859,14.2216101,13.76399544,13.57642435,11.5133866,8.776899495,0.291105988,0.684668367,0.99891379,0.988093962,1,0.998165816,0.971212584,0.877977401,43.4997965,-80.451125,2016,ONH1
TX714/PHZ51,MOH1_2016,N,16.65,731.1212129,0,2,272.5,137.5,57,56,2.465483877,8.058000231,0.264259377,6.282521268,1.94553035,9.25680559,4.358907121,3.354664451,5.453130527,76.43000019,40.29000115,2.879999995,172.8372758,4.262727369,83.20363667,125.2090916,21.13363606,168.2240918,20.2309363,16.93509369,22.49829557,20.20959989,18.68177986,19.21408964,18.0090922,17.17714413,15.87534947,21.83193548,27.56600037,27.88644765,31.21215235,30.25795442,31.2505745,30.57423065,29.80077912,28.25339236,10.073871,16.74400005,16.26474463,19.86215984,19.98371223,20.49117413,20.76153791,19.91431794,17.56318368,9.497798547,14.24343349,14.21296425,17.47336946,17.12232598,17.8699151,17.65104862,16.90998551,15.09561117,0.937315665,1,1,1,1,1,1,0.999442641,38.8955475,-92.2072025,2016,MOH1
PHG39/PHN82,IAH3_2015,Y,20.1,729.8340276,0,1.5,271.5,128,65,64,1.888124991,2.913571392,3.784813995,6.971928843,0,3.257500064,1.487385228,2.541446469,4.507444947,60.41999972,40.78999949,55.43999982,241.6600003,0,32.57500064,50.31437471,24.68500039,138.7756267,19.80172794,20.03998334,15.9141292,20.68283491,21.69136486,21.24428636,20.63784564,18.68301758,14.92198489,14.64187506,16.6814285,21.6371088,27.61372247,30.87885427,30.3035625,28.596254,28.51656267,24.33389908,0.83250004,3.600714236,12.24542872,16.05178152,19.47364565,18.11006255,15.99319583,14.30373217,10.64901215,4.605131548,5.787499831,10.11465775,14.1164012,17.17624996,16.25391669,14.57670766,13.97583386,10.87542788,0.501462055,0.634540813,0.981270753,1,1,1,0.968879463,0.933929792,41.97585629,-92.24291804,2015,IAH3
B37/MO17,NCH1_2017,Y,17.2,731.1212129,0,10,224.5,121.5,65,64,5.929354779,4.097142833,0.297958702,3.860588722,6.673809642,5.437090039,2.513672686,1.67758051,4.140460835,183.8099982,28.67999983,4.023333254,115.8195228,10.90952401,51.84571517,65.15761944,9.68857149,128.3542859,16.84796118,19.66078799,22.20077414,19.20396089,15.77249108,20.54839894,18.7994723,19.26606379,16.40835168,26.07000006,23.57857159,28.17011276,29.72614366,31.01404729,30.48814813,32.54721675,31.95695904,30.43138246,13.64064524,11.25142826,15.69757802,18.87536398,22.57674573,19.84793622,22.28039625,21.2748593,20.81350234,12.56442422,10.48784987,14.26665949,16.36044911,18.79940835,17.21144066,19.38557496,18.57336573,17.65269876,0.998329492,1,1,1,1,1,1,1,35.29663725,-77.5668065,2017,NCH1
B73/PHM49,WIH2_2020,Y,24.05,669.3363216,2.5,0.5,261.5,125,74,72,1.142258063,7.375000167,3.772605813,4.528143625,15.91411821,3.015240613,2.848395651,6.559665308,3.073983535,35.40999997,73.75000167,42.96999988,163.850588,31.01764819,33.16764674,117.7699986,59.84176376,94.45823468,20.73953056,16.04352899,21.23354675,21.58093245,19.01370295,17.88573252,19.32013515,13.57540027,12.27254504,13.56999995,18.91099977,26.0938683,28.2322475,29.46647072,27.75422455,27.09322103,24.80509675,19.00189054,0.762580661,9.396999884,13.99892158,14.99589118,17.7452939,17.49807463,14.22893102,13.29211059,7.459399134,4.176897214,8.107987139,12.68677404,14.02444379,15.66411489,14.70790633,13.20588953,12.26960615,7.833960257,0.443168195,0.881928567,1,1,1,0.990384734,0.880973437,0.780679991,43.294786,-89.383968,2020,WIH2
LH82/PHB47,OHH1_2017,N,16.95,545.7665392,0,2,229,110,65,64,4.401935447,12.29571451,4.299880116,6.252045262,18.36299991,4.892395558,3.195317293,3.431958172,3.794688752,136.4599988,86.0700016,53.63949916,223.8204996,40.86499989,50.26800107,124.097,30.99400014,115.4320013,19.0647902,19.03427505,21.00226491,20.15032754,19.69555429,18.89580098,18.69837911,16.0400155,13.85510684,20.47903239,25.43142836,25.24002704,27.25803818,28.09541678,28.73270468,26.30456447,24.69395371,24.25720733,8.011935501,13.44999967,12.59882409,15.91673102,16.75358336,18.39824095,14.97688189,13.11535887,11.81284403,8.407228033,12.106522,11.63721293,13.8931373,14.6377479,15.63224373,13.07252875,11.66012039,11.13333271,0.85352535,1,1,1,1,0.996926048,1,0.96495674,39.855785,-83.66477375,2017,OHH1
B14A/OH43,ARH1_2018,N,18.95,500.715056,0,4.5,207,100.5,59.5,55,6.807499945,4.709999936,2.627776375,4.735912158,3.619166647,6.960178526,4.330437569,0.796285741,3.374677434,217.8399982,32.96999955,35.48928591,145.2942843,5.831428528,62.51428531,109.7978577,4.003571561,104.6150005,17.99706709,21.70226043,20.05949982,19.52680112,21.59397623,17.99264813,18.0574776,19.33215022,18.30424355,21.07062507,24.31857109,24.02168934,29.45279857,31.73095224,30.70692423,32.5717108,33.29521443,31.83741963,10.26718749,12.03571429,12.70205088,18.67412083,19.99154783,20.64677572,22.90335213,23.23585706,21.28834102,9.223277534,11.01036775,11.27832322,16.11267445,17.86206546,17.6775748,19.72770382,20.19469271,18.54368809,0.945725441,1,1,1,1,1,1,1,34.729679,-90.7603455,2018,ARH1
LH195/LH82,MNH1_2015,Y,16.9,736.9135464,1,1.5,203.5,91.5,75.5,75,2.676451665,6.10285713,1.587216104,4.707726326,2.093823531,4.685775359,5.935015669,2.223261507,2.198788145,82.97000162,42.71999991,19.59000013,155.007059,3.965294123,52.23235247,227.0947085,20.90117698,67.40117758,19.81693462,15.87546921,21.62818458,20.65236193,17.21434565,21.12123323,17.7408483,14.5374504,12.06297535,17.43387093,22.63000025,27.28921799,28.46423671,28.36529418,28.07899716,26.14089523,24.73259507,17.90095705,4.567419307,13.73428563,14.30007362,16.89716897,18.65411764,16.19745995,14.75643511,13.57280729,6.634647692,6.2838161,10.87437977,13.26905608,14.87023808,15.64114514,14.35392043,12.99006372,12.46836687,7.55733068,0.722983866,1,1,1,1,0.977703003,0.878626049,0.721229646,44.07038575,-93.53519625,2015,MNH1
B14A/MO17,ONH1_2017,Y,32.65,642.3054317,0,4.5,252.5,142.5,83,82.5,4.42290319,4.904999876,1.545173221,3.420435244,1.695375006,2.594700004,1.855534774,1.54565171,2.383111348,137.1099989,49.04999876,23.52600009,140.8034994,5.378000009,36.46150006,95.23350107,29.85300009,72.44250006,18.65662235,17.08545341,23.10813164,20.12586768,18.11232318,19.44819915,16.33652997,11.62209215,7.957733996,13.94322577,18.20700026,22.35689536,24.80045755,25.17183321,25.2296929,22.79396283,22.13957367,13.29532023,3.578387066,9.706999969,10.10387851,14.12185296,14.82349991,13.63261195,10.3904862,9.847475595,3.166289439,4.958212412,8.025894563,9.659097931,11.97096233,12.35740613,11.98311106,9.953455995,10.0654016,5.273375752,0.439723498,0.877642858,1,1,1,0.972410901,0.840292505,0.515578473,43.49546,-80.42596875,2017,ONH1
F42/MO17,TXH1_2015,N,10.4,743.3494726,0,2,173,88.5,70.5,68,2.435333351,0.886666695,4.529386736,2.992210444,0,5.407499953,3.236240411,4.528416659,2.205666663,73.06000052,5.320000172,54.16999972,113.7899998,0,59.48249948,89.11249819,24.54499996,66.1699999,13.38128519,15.80308406,13.73749678,19.48289484,22.46598899,19.96463979,19.54848583,19.57031498,18.03135075,19.61999995,26.26833312,25.8489028,26.4780255,30.37177098,28.79539756,31.9014052,33.48070828,34.35516661,6.122333375,12.74499997,15.39155332,13.69439061,15.83385423,15.9580683,20.41172374,21.45270844,23.93220836,7.516768444,12.28221354,13.06030889,12.7550996,15.35592881,14.67426974,18.11040569,19.30603111,20.37775841,0.822428569,1,0.992325397,0.994092815,1,1,1,0.999431249,30.54708625,-96.43393475,2015,TXH1
PHN11_OH43_0001/PHB47,DEH1_2017,Y,17.05,702.8031377,0,3,221,96,65,64,2.917187458,6.201428686,3.00780289,3.517983876,1.211428521,1.632751291,5.214259368,11.31934688,4.882730708,93.34999865,43.4100008,45.34571489,126.7790489,1.268571377,15.48333303,157.8533328,69.24809492,151.3147631,17.05647962,17.73228645,20.71096481,19.57386043,19.15556694,20.88592809,18.21237176,18.15756056,16.58607394,20.26624998,24.66142872,21.72245043,26.82298965,30.35071437,30.31148162,30.69555299,28.43090921,27.29702356,9.32593758,14.19571427,10.68752201,16.75855213,19.906349,19.88150788,21.21690322,18.72144455,17.91444491,8.690479953,12.08402314,9.787934269,14.12431868,17.15482568,17.14050735,17.94790556,15.63546309,14.74613823,0.907287956,1,0.959736116,1,1,1,1,1,38.67025825,-75.4333645,2017,DEH1
B14A/H95,MNH1_2019,Y,27.325,679.3120072,1,1.5,266.75,107,66.75,65,5.301249992,3.475999832,3.602993786,6.929571154,0.665000021,5.494791652,5.263070224,5.621187949,3.218817211,169.6399997,17.37999916,52.03749943,225.572501,0.665000021,65.93749982,237.3162515,64.04000057,97.09750019,20.08423158,23.23368454,18.89062728,19.10632096,20.66435087,19.89868527,15.01321032,12.57416254,8.931227934,18.84156254,30.07599983,22.64517247,27.8446756,25.93437445,26.98812485,23.63970818,22.67396729,11.50651745,7.590312487,16.46599998,13.06713844,17.85158404,15.20500028,15.88958326,13.39640844,11.73885282,1.693081995,7.690019481,15.3684929,10.60199808,14.93632352,12.89140505,13.69019131,11.26189256,10.71987293,4.447532915,0.811763395,1,1,1,1,0.985092269,0.878346274,0.404429721,44.0664117,-93.52500471,2019,MNH1
B37/MO17,ILH1_2018,Y,18.75,725.3288793,0,2,239.5,127.5,61.5,58.5,4.93870967,7.677000022,2.588106254,5.605117571,0.281428576,3.456349163,4.202656593,1.004543384,2.183824858,153.0999998,76.77000022,33.4678576,176.7721435,0.281428576,32.73642816,135.7042854,6.586428666,67.2342849,18.91812334,19.3164753,20.10278531,22.12028957,18.91592986,20.16297878,19.11980649,19.09856314,16.2127272,15.99580652,18.50399971,25.32625123,29.19453127,30.85535676,31.83740471,28.20358558,28.86124239,26.43877647,3.618387117,7.573000085,14.94700907,16.75211974,20.46500043,20.0205478,17.14982155,16.71822788,13.95248539,5.629456993,7.587936205,12.64486739,15.17263993,17.66017859,17.94105007,14.82889519,14.97382886,12.85823928,0.640783421,0.72660713,1,1,1,1,1,0.984431123,40.06300125,-88.2291765,2018,ILH1
PHB47/PHZ51,MNH1_2018,N,17.175,727.9032498,0,2,272.5,130,58.5,55,2.793871032,5.664285694,1.881383508,4.66962568,0.280777779,5.314848416,5.503097756,4.902593174,1.744490341,86.61000198,39.64999986,19.66333312,156.0266671,0.653333338,61.18466587,207.3246693,42.5680015,52.61600056,18.68617175,18.6483766,23.22190313,20.23498137,21.88409551,21.20453879,17.43849101,14.02805899,11.47763682,18.24580648,23.51142883,30.49568208,28.40295697,27.67288871,27.88288382,26.24424925,23.489937,17.2954947,6.62290317,13.35285704,16.1020056,17.07111629,16.25377796,15.7901465,14.83515609,12.42970144,6.347470975,7.12789267,11.15082684,15.42136783,14.91719499,14.1582049,14.10491894,13.08066536,11.20324133,7.126560519,0.79756912,1,1,1,1,0.978734696,0.910102722,0.699884152,44.07044721,-93.53494127,2018,MNH1
CG44/CGR01,KSH1_2016,N,13.7,789.0445484,0,2,175,60,91,91,0.381562503,5.593749881,9.031136959,3.981909994,0,0.897724769,5.011421387,3.322424253,5.670073263,12.2100001,44.74999905,140.9509078,148.5090918,0,8.374091108,139.438637,19.93454552,175.7722711,18.43315426,14.04582843,18.34613738,20.88446512,22.70328743,20.59441801,18.34986672,18.15379387,17.32510191,19.15124996,21.70124984,22.33901244,27.19377063,36.31272689,35.17540036,32.01078432,33.85633352,30.76895891,2.130625044,11.46499991,9.568238579,14.2621368,21.58727247,22.04353923,20.78061301,22.71134866,19.49139311,6.3158573,9.667291017,9.626890379,13.35418843,19.56599107,19.14397536,18.06824645,19.12054732,17.03744615,0.741573662,1,0.921279778,0.986042268,0.991287871,0.998977631,0.993550002,1,39.14480675,-96.62898225,2016,KSH1
CG119/CG108,SCH1_2020,N,15.89,731.1212129,1,5,95,35.5,59.5,58.5,6.726129055,12.61950016,14.6709951,2.000047064,2.505749965,4.425319405,2.268462711,6.18714998,5.023091868,208.5100007,84.13000107,163.6860008,61.50999924,5.011499929,39.68149965,62.57699943,33.64599986,155.4654979,20.36817608,19.66978326,14.75526058,19.85961082,19.96014466,19.24465486,19.87809105,16.40752662,15.64625104,22.32567731,25.33999968,25.31846332,29.19710574,32.4110003,31.66961065,33.32032281,31.92909988,30.24042268,7.936741977,12.70899997,16.31955663,18.65521183,21.09725013,21.1736526,21.46883008,21.19136654,20.48826235,8.963701593,11.76593586,13.23428606,15.98846211,18.75412521,18.42141037,19.32426,18.56023321,17.40294316,0.984170504,1,0.973950938,1,1,1,1,1,34.62225,-82.736661,2020,SCH1
B73/MO17,IAH4_2019,N,32.575,647.4541727,1.25,0.25,260.5,127,61.75,60.75,7.44874995,0,6.508814674,5.652572602,2.433809479,0.731547632,2.455795253,7.856419535,5.758725846,238.3599984,0,89.12928634,169.456428,4.779285618,8.60571444,106.5300014,62.81714391,173.1250012,18.61457558,24.25652275,18.80062453,19.64217675,17.01762246,21.29967345,16.82875041,12.82062273,10.73648339,20.72718754,29.98400002,24.57226332,29.58102216,28.11761892,27.58625519,26.21902431,25.70162766,18.66579105,8.655312385,16.39199963,13.30590142,18.52555793,18.42333308,15.4118289,14.78252205,14.57801647,7.354403302,8.719182336,15.28713381,11.55896644,16.12377034,15.4195504,13.79277779,12.9189296,12.78184671,8.051480754,0.866629464,1,1,1,1,0.996735112,0.969646609,0.721601517,42.03193798,-93.79333213,2019,IAH4
CG60/LH162,IAH1_2017,Y,16.05,739.4879169,1.5,2,151,71.5,65,64,3.40562493,4.965384584,4.756276119,1.833606587,3.814090996,2.221484887,3.670808328,1.81325484,2.347473118,108.9799978,64.54999959,71.28272616,63.78727258,4.177727374,22.83863677,118.9068186,13.7622725,72.03681816,16.19865167,17.41178014,18.84198651,22.07722619,19.57094626,20.6423577,19.65334879,19.12382584,16.87809105,17.11343735,15.37846162,22.95951679,28.09807267,26.50742381,30.27960591,29.79948923,26.92834941,26.37674051,5.413125027,4.923076978,11.46549016,14.16962528,11.61757578,16.65775237,16.66504091,13.38757222,12.41510662,6.530778339,5.768563812,10.45370215,13.71965113,11.94783378,15.64262598,15.39964617,12.71239892,12.1737806,0.629988832,0.555054952,0.946458762,1,1,1,1,0.998130952,41.19924609,-91.49402296,2017,IAH1
B37/OH43,NYH2_2020,Y,16.6,717.6057679,0,6,253.5,114.5,66.5,66.5,4.422257993,0,1.391731236,3.182357247,6.170888774,3.507901041,2.283490724,1.426918664,2.172175634,137.0899978,0,18.68266731,113.2706661,12.6093331,36.98266699,88.46933366,18.14666667,65.61600019,20.94267544,21.78244971,21.55666085,20.64321436,19.27786447,18.92984529,17.76882093,13.77968924,11.70490539,14.55447306,27.94977782,23.62933928,27.86541297,27.88688897,28.78672537,26.53302948,21.56675493,18.20507674,2.61195699,15.66431106,11.35573055,15.51025755,16.31100023,17.48208292,14.53826355,10.86377734,6.879177126,4.979415324,14.02697238,10.70801105,14.09392345,14.22879085,15.20067311,13.04971037,9.749522427,7.387680802,0.470065285,1,0.969822941,0.995242037,1,0.988859641,0.904446401,0.765938608,42.73230075,-76.65036275,2020,NYH2
PHB47/PHN82,KSH1_2016,N,14.2,801.2728081,0,2.5,180,77.5,92,92,0.381562503,5.593749881,9.031136959,3.981909994,0,0.897724769,5.011421387,3.322424253,5.670073263,12.2100001,44.74999905,140.9509078,148.5090918,0,8.374091108,139.438637,19.93454552,175.7722711,18.43315426,14.04582843,18.34613738,20.88446512,22.70328743,20.59441801,18.34986672,18.15379387,17.32510191,19.15124996,21.70124984,22.33901244,27.19377063,36.31272689,35.17540036,32.01078432,33.85633352,30.76895891,2.130625044,11.46499991,9.568238579,14.2621368,21.58727247,22.04353923,20.78061301,22.71134866,19.49139311,6.3158573,9.667291017,9.626890379,13.35418843,19.56599107,19.14397536,18.06824645,19.12054732,17.03744615,0.741573662,1,0.921279778,0.986042268,0.991287871,0.998977631,0.993550002,1,39.14480675,-96.62898225,2016,KSH1
PHN11_OH43_0001/PHB47,NYH1_2017,Y,17.7,731.1212129,0,2,229,110,65,64,4.758709581,4.139999986,2.953024942,5.715506232,4.320872878,2.701732063,2.616328443,1.022630585,3.614268439,147.519997,37.25999987,45.12618999,219.9223815,11.26857107,35.6957141,128.4247627,13.30476207,110.8900009,18.97444351,17.81005277,22.0763727,19.38397475,18.56141379,19.22534974,16.71382568,13.43506643,9.037548332,17.06967752,20.23333359,22.7745171,25.66488699,26.70396817,25.32691524,23.26007272,23.96840526,17.61119819,5.964193534,10.19,10.93717632,15.20362294,16.36293638,14.60656728,11.31793404,11.56685323,6.669544781,6.641127344,8.727253675,10.15270493,12.79474615,13.71935226,12.37567782,10.45035179,10.9124923,7.239151369,0.685760371,1,1,1,1,0.982493678,0.953634339,0.701363064,42.72880835,-76.6515625,2017,NYH1
B73/PHN82,INH1_2015,N,15.75,735.6263612,0,9,228.5,123.5,68,67.5,2.968064535,5.608750075,2.401797478,2.620596579,1.049062505,3.048312443,3.454130844,1.332533481,1.484370975,92.01000059,44.8700006,26.44312483,85.12437463,1.715625018,30.48312443,116.5724995,9.316249996,45.68062523,19.44608656,13.59046638,21.88315593,21.65689439,20.60130358,19.73326552,18.77560381,17.99738388,15.64927463,15.67580632,21.0562501,27.44396829,29.52449332,32.66781175,30.16981242,28.17317586,28.46934151,25.5406298,3.004516139,13.05249977,15.22068343,16.62214482,19.56843758,18.02818774,16.71489706,16.46563638,12.56847521,5.360930658,9.9438759,13.725819,15.26696414,18.11812466,16.1828721,14.63810214,14.67667849,11.95902497,0.609504607,1,1,1,1,1,1,0.986081101,40.477075,-87.000205,2015,INH1
W10004_0216/PHZ51,NEH3_2017,N,22.25,755.5777323,12.5,2,226.5,127,65,64,6.03471326,3.955444498,0.18882913,3.842009577,1.316296295,1.435570981,2.764433094,3.912023778,4.15136979,187.076111,38.21611161,1.987222274,117.8244439,3.948888885,12.8655555,93.99333183,27.38611089,126.3194449,18.53150537,21.70326166,24.15860034,20.80931081,18.66603313,19.02487726,18.75887595,17.51813417,15.15718003,20.20137986,23.21257118,30.13389904,30.13339279,32.06462927,32.76776237,28.39622898,27.87449379,27.0242909,7.908297486,10.26215086,15.17879712,16.87891665,20.62425956,20.98993062,16.95054818,15.08081369,13.75654417,8.47748899,10.0955543,14.95078719,15.67969265,18.3413362,18.75248222,14.77642402,13.79312874,13.00111339,0.783510626,0.953819441,1,1,1,1,1,0.993105158,41.162,-96.409,2017,NEH3
PHG80/PHZ51,NYH1_2017,N,19.15,731.1212129,0,7,234,106.5,77,73.5,4.758709581,4.139999986,2.953024942,5.715506232,4.320872878,2.701732063,2.616328443,1.022630585,3.614268439,147.519997,37.25999987,45.12618999,219.9223815,11.26857107,35.6957141,128.4247627,13.30476207,110.8900009,18.97444351,17.81005277,22.0763727,19.38397475,18.56141379,19.22534974,16.71382568,13.43506643,9.037548332,17.06967752,20.23333359,22.7745171,25.66488699,26.70396817,25.32691524,23.26007272,23.96840526,17.61119819,5.964193534,10.19,10.93717632,15.20362294,16.36293638,14.60656728,11.31793404,11.56685323,6.669544781,6.641127344,8.727253675,10.15270493,12.79474615,13.71935226,12.37567782,10.45035179,10.9124923,7.239151369,0.685760371,1,1,1,1,0.982493678,0.953634339,0.701363064,42.72880835,-76.6515625,2017,NYH1
PHG29/PHG47,MOH1_2_2020,N,15.3,731.1212129,0,1,209.5,82,51.5,50,2.765624954,8.119999743,10.23533287,1.900197364,6.862941181,7.496322061,3.61617108,2.901626778,3.303786197,88.49999854,40.59999871,96.12411712,56.39411764,8.455882353,68.01117661,117.8082348,21.52705885,101.3270584,18.75466287,21.25211372,22.58999711,20.28617166,20.64270943,17.48834951,18.15902921,17.2011884,14.69335169,22.18656257,30.76999931,28.84882905,30.74339714,30.90558787,31.2308437,28.74780649,29.21697892,24.17436303,12.23093753,19.21800041,17.30516703,20.0610583,19.70343171,21.50444419,18.15153395,17.40346693,12.7162556,10.41798935,16.99399986,15.18178367,17.42227064,17.30450979,18.37429674,15.5665539,15.53509051,11.41105442,0.936383936,1,1,1,1,1,0.996694042,0.965786214,38.8958275,-92.2071575,2020,MOH1
CG119/CG108,TXH1-Early_2018,Y,17.7,731.1212129,0,2,172.5,80.5,67,62,2.442333295,0.87833333,4.91741256,2.91095925,1.112321411,5.987347663,3.094033648,2.445309502,2.573656677,73.26999886,5.269999981,55.2178573,113.3721426,4.449285643,64.36357035,86.72785865,13.67714274,77.357857,13.4988633,14.49154552,13.92485348,19.6618496,19.390827,19.64184359,19.38410293,21.21373351,18.01258323,19.68933331,26.95833333,25.66614373,26.56996845,30.24238085,29.14372996,31.91805433,33.2644762,34.51160554,6.357666679,15.03999996,15.13755815,13.69055459,18.24071415,16.44843436,20.63070323,20.50154739,23.97494014,7.613570572,13.40715604,12.87528071,12.79536137,16.34410207,15.0664779,18.21233438,18.75919739,20.40606275,0.821476194,1,0.991620595,0.99408643,1,1,1,0.999013392,30.546318,-96.4329965,2018,TXH1-Early
2369/LH123HT,ONH1_2016,Y,29.5,640.3746539,0,2,234.5,121.5,87,84.5,1.979032247,2.105714291,0.92181366,1.439738287,4.720833318,2.435439396,4.62931563,1.31185227,2.043303741,61.34999967,29.48000008,13.31600007,60.28400005,10.99249999,28.54150001,172.0475013,11.37649985,61.38049932,20.24883872,21.56727634,23.77365349,22.41142308,19.3081847,20.61473607,17.12813691,15.31534219,11.6349499,10.49290321,16.47999988,25.01561457,25.51466922,28.22516696,27.99415914,27.31356147,24.49017951,20.3886015,-0.735806467,3.753571405,10.93050922,11.61184699,15.55325019,14.71775745,15.07244109,12.71620509,9.185787659,3.269306411,5.688768484,11.09209761,11.56175859,14.2216101,13.76399544,13.57642435,11.5133866,8.776899495,0.291105988,0.684668367,0.99891379,0.988093962,1,0.998165816,0.971212584,0.877977401,43.4997965,-80.451125,2016,ONH1
B37/H95,MNH1_2016,N,22.75,731.1212129,0,2,229,110,74,71,2.893225764,0.170000008,5.030425272,6.121705224,6.438583227,6.210954471,8.179238718,7.617170889,9.394742846,89.68999869,1.190000057,67.79499967,212.8530004,13.67999972,65.11499918,295.599999,62.20750045,287.315495,17.89673604,26.28611401,18.122652,20.29948324,15.80941307,17.87578139,16.93568638,15.29315111,12.15008877,17.5148386,25.45428576,24.53269911,27.63337014,28.14450006,28.70269129,27.15887183,24.8505404,22.53032632,6.338387108,9.824285678,13.68155402,15.81410535,17.82425013,18.42635015,16.92976579,13.57123889,11.50456607,6.871134867,10.90204251,11.6566452,13.98369248,15.05511886,15.68076391,14.22086787,11.86153057,10.26982602,0.734527645,1,1,1,1,0.999952477,0.98729881,0.936092645,44.06646925,-93.533648,2016,MNH1
TX777/LH195,GAH2_2020,Y,16.4,741.0968984,8.75,17.25,255.75,136,65.25,65.75,4.57387094,0.441111114,8.353941854,2.596292498,5.733571683,2.103095203,2.179001438,2.485142878,3.918548365,141.7899991,3.970000029,91.39071568,80.77428585,11.41500051,18.92785683,57.71499962,12.42571439,121.4749993,20.66171874,23.27184486,17.58943298,19.5164109,18.75300796,20.35385684,20.26001561,17.11426864,16.01109332,24.32935487,22.81222216,27.25049476,29.76903398,31.23452386,32.73428517,34.13891635,33.4245718,31.64458511,9.683548431,7.437777784,15.07002369,18.41195949,20.46821458,20.95039675,21.2406723,21.91714281,20.83905522,10.34437265,8.95024402,13.55540875,16.15181668,17.85136922,18.84234096,19.40061188,19.58004094,18.23728962,0.993479262,1,1,1,1,1,1,1,33.72355555,-83.30265185,2020,GAH2
PHN11_PHG47_0251/PHB47,NYH2_2017,Y,17.7,731.1212129,0,2,229,110,65,64,4.985806354,2.593333337,3.453715005,5.89688957,0.948070192,3.208418109,2.379655727,2.694333021,3.397972982,154.559997,23.34000003,55.2357889,222.9889478,1.763157895,41.81263091,117.7794744,23.637895,104.1910535,18.91896409,18.22902181,21.62310913,19.28169434,21.2024166,18.91678159,16.97406986,13.88043676,9.439494818,16.54903238,19.80111122,22.34881997,25.65461899,27.16105275,25.3148988,23.28803047,24.25146582,18.24460841,5.239677404,10.2422222,10.55939387,15.21770316,15.87359667,14.84504335,11.5614249,11.15398494,7.352427253,6.267898103,8.570747831,9.793885142,12.80097944,13.68904673,12.46138399,10.55155578,10.87663924,7.688896934,0.638917053,1,1,1,1,0.981507475,0.966916282,0.722284214,42.73248125,-76.65275025,2017,NYH2
TX779/LH195,TXH1-Early_2018,Y,11.3,755.5777323,0,2,250,97,74.5,75,2.442333295,0.87833333,4.91741256,2.91095925,1.112321411,5.987347663,3.094033648,2.445309502,2.573656677,73.26999886,5.269999981,55.2178573,113.3721426,4.449285643,64.36357035,86.72785865,13.67714274,77.357857,13.4988633,14.49154552,13.92485348,19.6618496,19.390827,19.64184359,19.38410293,21.21373351,18.01258323,19.68933331,26.95833333,25.66614373,26.56996845,30.24238085,29.14372996,31.91805433,33.2644762,34.51160554,6.357666679,15.03999996,15.13755815,13.69055459,18.24071415,16.44843436,20.63070323,20.50154739,23.97494014,7.613570572,13.40715604,12.87528071,12.79536137,16.34410207,15.0664779,18.21233438,18.75919739,20.40606275,0.821476194,1,0.991620595,0.99408643,1,1,1,0.999013392,30.546318,-96.4329965,2018,TXH1-Early
LH74/PHN82,TXH3_2020,N,8.67,1762.800178,0,2,201.295,78.105,59.5,58.75,3.45875001,5.345714297,0.996479651,4.090893152,11.37176514,0.055555557,3.334418123,0.880352915,2.226110039,110.6800003,37.42000008,12.08058808,124.9758839,22.74353027,0.450000013,88.32823513,3.714117541,69.00941121,15.8034201,18.34009743,21.30541133,19.40762275,20.16580067,20.62125497,19.02899565,16.94703156,18.75160362,25.77062485,24.00285694,27.63577502,29.95402965,30.19186265,32.38063702,33.36328143,35.03835301,35.63206825,14.19906271,12.24428552,13.92062761,17.60156859,18.33921522,21.14142164,21.88591696,25.71364726,24.34760913,12.60372436,11.20425028,13.29865333,15.96364287,16.27361839,18.69618421,19.4144726,21.47019646,20.81901077,0.989866069,1,1,1,1,0.99995416,0.999321567,0.998827006,30.53869475,-96.4274175,2020,TXH3
LH195/PHZ51,COH1_2017,N,25.20714286,664.0956389,0,10.35714286,228.9285714,106.6428571,72.71428571,71.42857143,3.393124943,0,0.001708684,0.360843908,0.891428554,3.560382097,1.42287895,1.565670675,1.770870451,108.5799982,0,0.02904762,12.29476177,1.600476163,43.78523833,56.48285717,21.02523811,53.20285701,22.26802993,25.65694836,25.9931063,24.2875628,21.26982858,19.37652668,19.65631787,15.92591012,11.99136935,20.38624986,26.27857154,29.00990249,30.95750085,32.84396765,29.24597739,27.87075516,24.49812031,17.64004964,4.676250031,9.955714362,11.44166305,13.33492254,15.64190474,14.2894836,11.55992968,8.650869984,2.505724526,7.387813889,11.22152513,12.97827389,14.53136664,16.23032426,14.11586508,12.58015619,10.40568176,6.007000116,0.859799101,1,1,1,1,0.978368119,0.882220332,0.653649732,40.64850025,-104.9997825,2017,COH1
PHW52/PHN82,MOH1_2_2020,N,17.52,731.1212129,0,0,214,85.2,56.4,53.8,2.765624954,8.119999743,10.23533287,1.900197364,6.862941181,7.496322061,3.61617108,2.901626778,3.303786197,88.49999854,40.59999871,96.12411712,56.39411764,8.455882353,68.01117661,117.8082348,21.52705885,101.3270584,18.75466287,21.25211372,22.58999711,20.28617166,20.64270943,17.48834951,18.15902921,17.2011884,14.69335169,22.18656257,30.76999931,28.84882905,30.74339714,30.90558787,31.2308437,28.74780649,29.21697892,24.17436303,12.23093753,19.21800041,17.30516703,20.0610583,19.70343171,21.50444419,18.15153395,17.40346693,12.7162556,10.41798935,16.99399986,15.18178367,17.42227064,17.30450979,18.37429674,15.5665539,15.53509051,11.41105442,0.936383936,1,1,1,1,1,0.996694042,0.965786214,38.8958275,-92.2071575,2020,MOH1
B73/PHN82,IAH2_2019,Y,20.9,732.4083981,1.5,1,218.5,108.5,65,64,1.624999978,4.994666719,7.633826981,4.023414549,10.53523836,1.22350002,2.763567443,7.261517829,4.773321835,51.99999928,74.92000079,126.7292866,144.3807149,31.60571507,12.2350002,103.2057142,58.23357121,145.3535721,19.40078695,15.59915857,17.73377221,20.37141966,18.69170743,21.11460887,19.04896103,16.46108124,13.94542613,15.78031255,14.78666655,21.30773964,26.90560141,30.4667857,29.3667858,27.70213024,26.0789087,24.69893011,1.823749996,4.276000045,9.222208134,15.06467224,19.71440506,18.17542877,16.74212177,15.32632928,13.45358666,5.188982368,5.371381143,9.150668224,13.41851256,17.10626668,15.79657396,14.44283917,13.04517908,11.92357614,0.546495539,0.532857125,0.866155154,0.998157434,1,1,1,0.956872449,42.06583499,-94.72067796,2019,IAH2
TX951/LH195,TXH1_2015,N,15.55,785.8265853,0,2,175,95,74.5,71.5,2.435333351,0.886666695,4.529386736,2.992210444,0,5.407499953,3.236240411,4.528416659,2.205666663,73.06000052,5.320000172,54.16999972,113.7899998,0,59.48249948,89.11249819,24.54499996,66.1699999,13.38128519,15.80308406,13.73749678,19.48289484,22.46598899,19.96463979,19.54848583,19.57031498,18.03135075,19.61999995,26.26833312,25.8489028,26.4780255,30.37177098,28.79539756,31.9014052,33.48070828,34.35516661,6.122333375,12.74499997,15.39155332,13.69439061,15.83385423,15.9580683,20.41172374,21.45270844,23.93220836,7.516768444,12.28221354,13.06030889,12.7550996,15.35592881,14.67426974,18.11040569,19.30603111,20.37775841,0.822428569,1,0.992325397,0.994092815,1,1,1,0.999431249,30.54708625,-96.43393475,2015,TXH1
PHW52/PHN82,NYH1_2018,N,22.3,731.1212129,0,1.5,232.5,89.5,67.5,66,4.394516057,1.637142931,0.546464292,3.461265884,6.062261837,4.338061718,2.067540981,1.177456758,2.359527655,136.2299978,11.46000051,7.340000123,113.5449994,14.95785693,45.27285745,83.63714323,15.50214277,71.28500016,21.14905797,19.51909583,22.50012197,20.49014312,17.37909559,18.62357236,17.54437735,14.42309006,11.11333684,16.43838702,24.34714304,24.48084385,28.4079325,28.47095262,28.85558784,26.25577716,21.21730113,17.53723965,4.181612903,13.18428578,11.78804566,16.02970596,18.15166677,17.53428468,14.37510127,9.649634667,6.532510054,6.046172102,11.82070517,11.18993529,14.50776692,15.35223703,15.26441478,12.8637381,9.179788733,7.084201569,0.564688941,0.946581643,0.98880424,0.99833546,1,0.984010821,0.898581807,0.740508559,42.72940418,-76.65161667,2018,NYH1
CG119/CG108,WIH1_2016,Y,15.45,789.0445484,0,5,241,127,65.5,67,2.076129018,1.94750002,4.430291291,4.068377178,0.606590927,8.204471101,6.520888551,7.285801826,4.413191112,64.35999957,23.37000024,50.66818307,153.9786358,1.017727305,87.41727302,222.4604529,58.95590957,134.9268184,19.92805462,20.9108026,19.53546339,20.65690042,18.97296773,19.76360502,17.50876714,15.21370917,12.23883056,16.70258062,17.57583312,27.08182728,26.49130857,27.22159082,28.35833875,27.6700069,25.1458901,22.98674642,3.327419363,4.990833327,14.04723809,14.47423798,17.58636334,16.7186736,17.17399145,14.32051147,12.5735533,5.875866612,6.419508974,12.98865398,12.92924289,14.50224274,14.72651534,14.55658067,12.23924581,10.7486024,0.621198161,0.7653869,1,1,1,0.999967803,0.998306277,0.970976554,43.05632525,-89.53194975,2016,WIH1
TX777/LH195,NYH2_2015,N,16.8,731.1212129,0,0.5,239.5,123,86,86,3.814193487,2.822857129,1.806874641,1.427310218,14.28882354,6.323155046,2.553769654,1.263651931,1.70374005,118.2399981,39.5199998,23.5252947,50.99705838,17.86235295,65.18176435,90.43176518,10.71352917,51.74117684,19.21827184,21.58410556,20.44972798,21.8367517,17.34067749,18.34945618,18.49425604,17.55625849,13.84215422,11.26903224,15.86071418,24.70888252,27.12764594,29.5805878,28.55383422,27.75922879,25.11594081,20.73318661,0.676451599,3.065714287,12.68317757,14.19692254,19.48862723,17.66257776,16.12899413,12.03346763,8.797239788,3.458861152,5.522653893,11.65565145,13.2498794,16.56577659,15.18766176,14.16580901,11.53845799,8.731216192,0.261509218,0.568112238,0.971160735,0.994106254,1,0.999864887,0.980226591,0.898542131,42.7324825,-76.65277775,2015,NYH2
PHW52/PHN82,OHH1_2016,N,19.15,737.557139,0,11,256.5,110,65,64,4.328064465,1.776000023,3.915145208,2.580740659,3.890757626,4.17049496,5.079069289,3.957741935,3.614594814,134.1699984,8.880000114,44.70363614,85.9177286,9.330454675,39.94818193,160.1854537,27.69772666,110.1186362,18.3437644,22.24283047,20.73146956,20.35982518,19.15233416,18.82824642,16.72048491,17.98730955,14.71797893,19.63580645,29.63200035,26.56953589,28.59263588,29.59106055,30.69283836,29.21689182,28.27188687,26.30588322,8.120967747,16.89599972,14.9739129,16.70528562,18.30318191,19.74443426,18.9160149,15.44500838,13.40262461,8.117657052,15.32722009,13.17028057,14.81678154,15.96857054,17.23303236,16.11713161,14.21502474,12.5845871,0.859331788,1,1,1,1,1,0.999172078,0.989049277,39.860924,-83.6755995,2016,OHH1
PHG80/PHZ51,MIH1_2016,N,19.8,700.2287673,0,2,237.5,127,61.5,61,3.213870927,0.372000003,1.277668238,2.072144594,0.204761899,2.382636341,6.277866916,3.129595251,4.115734243,99.62999874,1.860000014,16.77857134,74.4033328,0.614285696,24.34142835,217.3680916,23.88571438,123.5814282,20.04481233,22.69628944,22.57460654,21.19066928,19.62511718,19.41470496,17.43536011,14.16523572,12.41239439,17.74322581,29.20999985,25.57947765,28.1508514,27.23547651,30.32783564,28.27294529,26.6388532,22.50219404,5.299677434,16.33600006,11.90361174,14.70447611,15.74579377,17.52671,16.25511672,15.58650841,10.86825081,6.615827776,14.89908974,11.62365975,13.82943527,13.70908531,16.01583991,14.48649579,13.48265,10.09129455,0.734400922,1,1,1,1,0.999987733,0.99326559,0.936590208,42.41206675,-84.2952625,2016,MIH1
B14A/MO17,WIH1_2018,N,18.6325,701.6124914,0,2,213.25,112,69,72,1.609999989,7.097692302,4.543300024,5.384655594,12.90857152,6.684415526,1.835393967,1.490247701,3.282350194,49.90999967,92.26999992,56.1414287,188.537143,17.774286,73.52857079,76.14071582,18.50214262,100.642856,20.21844376,17.61529163,19.67186989,21.74517717,19.19342093,18.08513378,19.62003162,16.98075827,12.74863056,13.31193533,16.25923072,24.73561688,28.00164855,31.39095186,28.11097395,26.99453296,26.15077082,19.9357303,1.183225821,5.521538512,13.28283365,14.89542408,18.89249983,17.62870117,14.61713968,12.9208708,8.385953947,4.208379921,6.163069931,11.75441076,13.86262536,17.16453014,14.91796624,13.29691021,12.54059059,8.511099252,0.430714275,0.66777473,1,1,1,0.987929958,0.939058758,0.805939432,43.0544,-89.5317,2018,WIH1
B37/H95,NCH1_2015,Y,19.15,731.1212129,0,0,199.5,122,65,64,3.0140625,9.692856925,3.043308324,7.00027835,0,3.411347986,2.886716411,10.31533332,6.56176467,96.44999999,67.84999847,47.46470581,233.8535261,0,30.12176424,80.44058821,53.94764695,203.4147048,18.56641886,18.5514961,20.38733283,17.18369043,24.39251002,21.03629604,20.30189304,17.27178406,15.58503138,22.38312501,24.94999995,23.18034629,27.40244989,31.82117664,31.76743482,33.30845927,33.22968591,31.16039845,8.592187501,12.50999982,10.48535005,18.40286831,19.92058833,21.46261411,22.34001137,22.61282364,21.92468694,9.285127697,11.46773529,10.15801447,14.99239002,17.87088248,18.60652477,19.71826945,19.84422869,18.53531879,0.955334819,1,0.995809598,1,1,1,1,1,35.29657708,-77.5664625,2015,NCH1
CG119/CG108,SCH1_2018,N,13.74,731.1212129,0,3.5,168.5,91.5,55,58,5.509375073,3.372500002,5.775327928,7.728127661,4.71095229,3.130603142,3.123485158,2.01328566,5.79306447,176.3000023,26.98000002,97.60999952,245.6735731,5.415714213,31.8442854,83.93428482,10.53785687,179.5849986,18.64772365,19.28692877,21.1730546,18.16318131,18.84742333,19.2548603,19.994513,19.31783344,16.30139442,22.53906247,22.53374982,23.09020479,27.61870045,28.0654766,28.90856809,32.58479132,33.48333298,31.1168664,9.301562469,9.311250091,8.762400081,17.50665347,16.7615475,18.38295894,21.20797915,21.67128537,20.80767273,9.591191253,9.400074843,9.574505228,14.76793775,14.51962258,15.72381397,18.86169653,19.45105318,17.96288574,0.951841518,1,0.982626499,0.991514695,1,1,1,1,34.6223015,-82.7364835,2018,SCH1
PHN11_PHW65_0323/LH195,NYH1_2018,N,20.05,731.1212129,3,3.5,246,116,68,67.5,4.394516057,1.637142931,0.546464292,3.461265884,6.062261837,4.338061718,2.067540981,1.177456758,2.359527655,136.2299978,11.46000051,7.340000123,113.5449994,14.95785693,45.27285745,83.63714323,15.50214277,71.28500016,21.14905797,19.51909583,22.50012197,20.49014312,17.37909559,18.62357236,17.54437735,14.42309006,11.11333684,16.43838702,24.34714304,24.48084385,28.4079325,28.47095262,28.85558784,26.25577716,21.21730113,17.53723965,4.181612903,13.18428578,11.78804566,16.02970596,18.15166677,17.53428468,14.37510127,9.649634667,6.532510054,6.046172102,11.82070517,11.18993529,14.50776692,15.35223703,15.26441478,12.8637381,9.179788733,7.084201569,0.564688941,0.946581643,0.98880424,0.99833546,1,0.984010821,0.898581807,0.740508559,42.72940418,-76.65161667,2018,NYH1
PHG39/PHN82,NEH4_2015,N,15.1,787.1137705,0,2,245,120,65,58.5,2.821875036,0,3.668207424,2.0125769,1.951249957,2.654893884,1.684158262,0.190010425,1.166079967,90.30000114,0,33.89000034,59.04687595,1.951249957,28.04999942,59.1787506,1.401875056,35.09749981,18.84220009,27.31064491,20.41342533,20.52862815,19.03072298,18.81303122,18.33826559,17.15407273,12.68489203,24.01437524,30.79399948,29.66091772,30.90712841,30.81250072,28.65153035,29.50292414,26.73776808,20.93262179,13.35843744,15.59799976,18.4981335,19.26878801,20.26031268,17.34358901,16.24316685,11.04417556,7.09840123,11.80342709,15.44887437,16.14310254,17.09436255,17.53736601,15.18702607,15.25106182,11.88303257,8.618375536,0.931774556,1,1,1,1,0.97284651,0.984144349,0.784438609,41.16732275,-96.41663225,2015,NEH4
LH195/PHZ51,NCH1_2016,N,15.35,731.1212129,0.25,1.5,245,126,65,64,2.901562452,3.125714166,7.137907935,4.683034439,4.3177271,0.863030289,5.226283407,5.104181825,4.507668668,92.84999847,21.87999916,91.86318315,160.7736342,8.497726928,8.495454409,139.9318182,26.12772732,139.7377287,16.36857818,22.27138465,15.49498623,18.72849078,21.8793198,21.8664799,18.529992,18.05675722,17.32656161,20.86125001,25.58571407,25.68946269,27.1054564,30.20318166,31.0559697,32.42423852,33.59766701,33.26035177,7.692187494,8.212857212,14.27003911,16.07300028,18.02681784,18.80169681,21.2796372,22.62190931,22.7218182,8.383421821,10.43985322,12.46468669,13.95599298,16.17160042,16.99727481,18.83160592,19.980567,19.86697781,0.913761163,1,1,1,1,1,1,1,35.30015175,-77.57127825,2016,NCH1
CG44/CGR01,GAH2_2019,N,13.225,750.4289914,6.25,2.75,205.5,93.25,59,58,1.545000002,4.557500124,0.250380961,1.26115813,2.257142884,9.485350662,1.336144097,0.813952387,3.350460841,49.44000006,36.46000099,3.755714417,38.36428595,2.257142884,98.62571442,36.52428579,4.78428575,103.8642861,18.18435833,18.19265985,22.8847832,21.24247432,23.3434718,16.19739035,20.40643492,19.78647718,19.94823177,21.36937484,23.13125002,27.34691779,30.77499698,32.53285762,28.60028574,32.70957317,33.58714258,33.18838734,7.029687526,9.771250069,11.28150206,17.20030934,17.5714283,19.08651926,20.35438482,22.40104739,20.7990781,8.377064876,9.945548605,12.20340126,16.01551644,17.09277291,15.89283108,18.47046504,19.81563867,18.90725155,0.94271205,0.94334821,1,1,1,1,1,1,33.7204165,-83.308125,2019,GAH2
B14A/H95,OHH1_2019,Y,23.6,693.7928411,0,0,272,136,58,57.5,4.521875016,5.601428505,9.492184188,3.677677905,1.565714342,0.385974026,1.865305095,1.659047621,1.751738837,144.7000005,39.20999953,109.352857,105.4928564,2.907142963,4.24571429,67.73714224,11.40714287,52.9257135,18.88405965,17.49267101,16.84002865,20.33907461,18.24357363,21.92391064,17.3234713,16.43535432,12.68824739,23.69781238,23.04428564,25.93387695,30.64626114,27.23428535,29.13649368,27.63471609,28.40205787,24.22775882,12.37312506,13.01428563,16.54052476,19.15377674,17.29857152,16.61116873,15.68739982,14.41860554,10.15227039,11.09781511,10.85645158,13.41085782,16.95249079,14.39118839,15.00214972,13.92115805,13.81574558,10.76649669,0.952522323,1,1,1,1,1,1,0.923664697,39.85685125,-83.67122475,2019,OHH1
B97/PHB47,ONH1_2017,Y,17.7,731.1212129,0,2,229,110,65,64,4.42290319,4.904999876,1.545173221,3.420435244,1.695375006,2.594700004,1.855534774,1.54565171,2.383111348,137.1099989,49.04999876,23.52600009,140.8034994,5.378000009,36.46150006,95.23350107,29.85300009,72.44250006,18.65662235,17.08545341,23.10813164,20.12586768,18.11232318,19.44819915,16.33652997,11.62209215,7.957733996,13.94322577,18.20700026,22.35689536,24.80045755,25.17183321,25.2296929,22.79396283,22.13957367,13.29532023,3.578387066,9.706999969,10.10387851,14.12185296,14.82349991,13.63261195,10.3904862,9.847475595,3.166289439,4.958212412,8.025894563,9.659097931,11.97096233,12.35740613,11.98311106,9.953455995,10.0654016,5.273375752,0.439723498,0.877642858,1,1,1,0.972410901,0.840292505,0.515578473,43.49546,-80.42596875,2017,ONH1
2369/LH123HT,NYH1_2017,N,17.7,731.1212129,0,12.5,259,125,83.5,80.5,4.758709581,4.139999986,2.953024942,5.715506232,4.320872878,2.701732063,2.616328443,1.022630585,3.614268439,147.519997,37.25999987,45.12618999,219.9223815,11.26857107,35.6957141,128.4247627,13.30476207,110.8900009,18.97444351,17.81005277,22.0763727,19.38397475,18.56141379,19.22534974,16.71382568,13.43506643,9.037548332,17.06967752,20.23333359,22.7745171,25.66488699,26.70396817,25.32691524,23.26007272,23.96840526,17.61119819,5.964193534,10.19,10.93717632,15.20362294,16.36293638,14.60656728,11.31793404,11.56685323,6.669544781,6.641127344,8.727253675,10.15270493,12.79474615,13.71935226,12.37567782,10.45035179,10.9124923,7.239151369,0.685760371,1,1,1,1,0.982493678,0.953634339,0.701363064,42.72880835,-76.6515625,2017,NYH1
B73/PHZ51,NCH1_2017,N,17.47083333,731.1212129,0,2.333333333,232.625,111.5416667,65,64,5.929354779,4.097142833,0.297958702,3.860588722,6.673809642,5.437090039,2.513672686,1.67758051,4.140460835,183.8099982,28.67999983,4.023333254,115.8195228,10.90952401,51.84571517,65.15761944,9.68857149,128.3542859,16.84796118,19.66078799,22.20077414,19.20396089,15.77249108,20.54839894,18.7994723,19.26606379,16.40835168,26.07000006,23.57857159,28.17011276,29.72614366,31.01404729,30.48814813,32.54721675,31.95695904,30.43138246,13.64064524,11.25142826,15.69757802,18.87536398,22.57674573,19.84793622,22.28039625,21.2748593,20.81350234,12.56442422,10.48784987,14.26665949,16.36044911,18.79940835,17.21144066,19.38557496,18.57336573,17.65269876,0.998329492,1,1,1,1,1,1,1,35.29663725,-77.5668065,2017,NCH1
WF9/H95,OHH1_2017,Y,17.7,731.1212129,0,2,229,110,65,64,4.401935447,12.29571451,4.299880116,6.252045262,18.36299991,4.892395558,3.195317293,3.431958172,3.794688752,136.4599988,86.0700016,53.63949916,223.8204996,40.86499989,50.26800107,124.097,30.99400014,115.4320013,19.0647902,19.03427505,21.00226491,20.15032754,19.69555429,18.89580098,18.69837911,16.0400155,13.85510684,20.47903239,25.43142836,25.24002704,27.25803818,28.09541678,28.73270468,26.30456447,24.69395371,24.25720733,8.011935501,13.44999967,12.59882409,15.91673102,16.75358336,18.39824095,14.97688189,13.11535887,11.81284403,8.407228033,12.106522,11.63721293,13.8931373,14.6377479,15.63224373,13.07252875,11.66012039,11.13333271,0.85352535,1,1,1,1,0.996926048,1,0.96495674,39.855785,-83.66477375,2017,OHH1
B97/PHB47,MOH1_2017,Y,17.5,731.1212129,0,2,232.5,116.5,63.5,63,8.937741737,9.40166688,2.512230721,3.318030003,5.035714369,1.794490762,1.996986524,1.220079397,1.67255761,277.0699939,56.41000128,33.26619119,103.9014299,11.93095259,15.87761924,65.30142803,7.334762096,51.25476209,18.72482054,18.08832916,22.62422694,21.00800173,18.77514496,19.93438148,19.70533138,19.36646121,17.34329115,21.92032254,25.32999992,25.47495036,29.30087203,30.46650729,32.25412016,29.92026774,28.22145964,28.04827898,10.06000005,15.27666648,12.99827088,17.39768618,19.78222205,21.21359122,18.70404881,16.33857143,14.9717184,9.612847321,12.76903024,11.94928206,15.49761919,17.12130987,18.67277384,16.20463701,14.48208578,13.92850008,0.915472353,1,1,1,1,1,1,0.999239796,38.89264,-92.2057525,2017,MOH1
PHN11_PHW65_0323/LH195,DEH1_2018,N,20.04,722.1109162,0,2,191.4,88.4,67.2,66,3.413225795,4.724545566,2.007753279,2.760624154,0.287142856,8.862777665,3.915865231,4.933581623,5.971971652,105.8099996,51.97000122,28.2621423,90.35856978,0.861428567,79.76499898,101.102142,26.37928568,184.7400021,18.24738333,20.30334785,18.96061465,21.19242313,20.3949075,18.85770366,17.73482038,14.47844699,15.08372737,17.38161278,18.28454564,22.01469092,28.14795471,32.28714262,31.68230149,32.09286912,30.42106803,28.79790015,6.703871004,7.41363637,12.85857977,17.97497576,22.0019049,21.31992057,22.76420594,22.26141136,20.21526036,6.825711165,7.366383816,10.38385741,15.21158117,19.10753111,18.47850441,19.35879976,18.34204267,16.58274325,0.781601378,0.839058448,0.989425295,1,1,1,1,1,38.65164475,-75.44913625,2018,DEH1
PHN11_PHG47_0251/PHB47,COH1_2017,N,24.55,615.9181344,3.25,5.5,216,95.75,69.5,68,3.393124943,0,0.001708684,0.360843908,0.891428554,3.560382097,1.42287895,1.565670675,1.770870451,108.5799982,0,0.02904762,12.29476177,1.600476163,43.78523833,56.48285717,21.02523811,53.20285701,22.26802993,25.65694836,25.9931063,24.2875628,21.26982858,19.37652668,19.65631787,15.92591012,11.99136935,20.38624986,26.27857154,29.00990249,30.95750085,32.84396765,29.24597739,27.87075516,24.49812031,17.64004964,4.676250031,9.955714362,11.44166305,13.33492254,15.64190474,14.2894836,11.55992968,8.650869984,2.505724526,7.387813889,11.22152513,12.97827389,14.53136664,16.23032426,14.11586508,12.58015619,10.40568176,6.007000116,0.859799101,1,1,1,1,0.978368119,0.882220332,0.653649732,40.64850025,-104.9997825,2017,COH1
WF9/H95,WIH2_2017,Y,20.8,749.1418061,0,2,267.5,126.5,71.5,79,5.048709616,4.636666616,1.142383575,5.763857885,8.001590729,6.160048604,1.607776433,1.167726513,2.257555268,156.5099981,41.72999954,17.5799998,219.3963643,12.14409065,74.04090792,72.28863683,15.04409093,68.0204557,18.1690344,19.72049554,20.64727683,20.23287988,19.13163679,19.37493243,18.51401576,14.93340477,10.89478233,16.03129027,21.86555545,22.15746071,26.59689143,27.90045501,26.76799254,24.73062069,22.38533393,20.51274781,3.24419354,8.791111098,9.553497601,14.54337319,16.81037892,15.37831158,12.19271258,9.193202486,7.868866577,5.438218202,9.209131236,9.451203107,13.05708411,14.51682301,13.37610723,11.31306373,9.686333754,8.853113959,0.624158991,0.847976183,0.950288768,1,1,0.998699911,0.954544862,0.834596302,43.3246415,-89.33688775,2017,WIH2
B37/H95,ONH2_2016,N,22.05,732.4083981,7.5,16,268,122.5,76.5,71,1.435483875,1.740833327,1.463802716,3.022687524,0.150999999,1.134659085,3.046446673,1.693503778,2.765116665,44.50000012,20.88999993,18.84600039,117.1590009,0.150999999,12.25349994,101.0444998,13.16149993,84.26899996,19.72563927,22.19747464,21.68954048,21.77365896,18.98664827,19.92678304,16.69906166,15.68152671,12.9072029,14.10741935,17.58083336,26.00758685,26.04894451,27.78099985,28.79287246,28.2480382,25.9224786,23.75348014,4.257419363,7.13166666,15.03828811,14.1477789,17.72699971,17.33924119,18.24672102,15.95494667,14.17526013,5.131346137,6.986841243,12.85116395,12.65171997,14.84296497,15.26027205,15.31782021,13.26534606,11.67621189,0.511244241,0.799851209,1,1,1,1,1,0.975829282,42.4530035,-81.88279875,2016,ONH2
TX714/TX779,IAH1_2020,Y,20.28333333,731.1212129,0.166666667,2.166666667,229,110,65,64,1.688064506,6.196000195,3.0793737,6.533057926,1.271428551,2.673269776,1.85421064,0.708456624,3.755616013,52.32999969,61.96000195,37.23499918,213.6221428,2.198571375,25.9085708,60.11785651,6.012142782,115.3728583,19.46953177,15.04660187,20.64247086,20.31598349,21.99207742,21.09552252,19.7297914,19.80455556,15.11692591,15.87290319,18.70700045,25.72176895,28.50674309,31.92999949,30.87921407,28.61147391,29.37327705,24.63079501,3.348387095,9.753000152,14.65929334,17.38633346,19.85714286,19.28849194,17.27261165,15.46819038,11.83183106,5.5584858,8.125456457,12.65757338,15.09801966,17.89357117,17.09078834,15.12121856,14.7539709,11.47694483,0.621440085,0.927035726,1,1,1,0.998514142,0.992713009,0.918334154,41.19774214,-91.48767072,2020,IAH1
F42/H95,IAH1_2019,Y,22.9,719.5365458,0,4.5,214,102,65,64,8.157187574,0.75333335,7.315577374,1.144389074,0.212857144,0.731688293,3.103679801,5.185721735,4.918979992,261.0300024,4.5200001,87.30642721,32.26642813,0.212857144,8.04857122,121.5035704,46.39999972,147.9399989,18.01904646,22.72114833,18.53868323,20.84617194,19.20093738,21.91428985,16.4832458,14.23349405,11.00878768,22.30999994,27.52999973,24.52617789,31.4481278,28.63047609,29.47870132,27.11002697,25.00731411,20.46577188,10.93062501,14.96333329,14.91684483,20.02766766,18.36452364,16.34071412,15.67686671,13.06746994,9.592819484,10.11779152,13.58137929,12.09039624,17.73903178,15.5681627,15.08353594,13.70818638,12.14295105,9.387875541,0.879263394,1,1,1,1,0.994329881,0.928985237,0.797752907,41.1992562,-91.4941418,2019,IAH1
B37/H95,NCH1_2016,N,14.95,731.1212129,2,3.5,214.5,108,65,64,2.901562452,3.125714166,7.137907935,4.683034439,4.3177271,0.863030289,5.226283407,5.104181825,4.507668668,92.84999847,21.87999916,91.86318315,160.7736342,8.497726928,8.495454409,139.9318182,26.12772732,139.7377287,16.36857818,22.27138465,15.49498623,18.72849078,21.8793198,21.8664799,18.529992,18.05675722,17.32656161,20.86125001,25.58571407,25.68946269,27.1054564,30.20318166,31.0559697,32.42423852,33.59766701,33.26035177,7.692187494,8.212857212,14.27003911,16.07300028,18.02681784,18.80169681,21.2796372,22.62190931,22.7218182,8.383421821,10.43985322,12.46468669,13.95599298,16.17160042,16.99727481,18.83160592,19.980567,19.86697781,0.913761163,1,1,1,1,1,1,1,35.30015175,-77.57127825,2016,NCH1
2369/LH123HT,ARH1_2017,N,13,642.9490243,0,2,195.6,126.4,71,71,3.058125025,3.532857077,9.871688678,6.405160528,0.516363615,5.988171668,5.119232493,3.102318153,5.34158356,97.86000079,24.72999954,132.0327285,211.6218184,0.569545432,54.36818138,136.8913653,16.08272713,165.5890903,17.13974981,16.55343887,20.38424011,18.76225527,22.81364793,19.06964508,19.53553475,19.77193111,17.12972935,24.60906261,23.96000045,24.77057006,28.06605652,30.35469691,31.5146664,31.30577636,32.78459133,30.91587993,11.9175,14.17857156,11.8445801,17.60850246,18.97249995,21.30615642,21.39979275,22.50533316,21.62237538,11.1639709,11.77578055,11.22655186,14.97537354,16.74359516,18.41041141,18.33049426,19.54768126,18.22457608,1,1,1,1,1,1,1,1,34.7272515,-90.76032575,2017,ARH1
B37/MO17,NYH1_2019,Y,24.4,680.9209887,31.5,2.5,272.1666667,161.6666667,73,72,3.742499989,3.13750004,5.753824184,3.193184694,5.054999975,4.679644987,3.141734315,2.115619262,4.095645999,119.7599996,25.10000032,83.05615347,110.7876916,10.59692295,60.83538484,169.67846,49.66846142,126.1984601,19.31204623,22.90652502,19.40556432,20.09548462,19.54416251,18.43271946,14.78687504,11.82668111,8.218362691,18.69937494,22.85875034,22.9010546,27.51683221,28.25012823,26.24284011,22.02988517,19.80082275,11.00573521,7.845625035,10.06374997,12.28813039,16.10263177,16.07333343,14.39934908,10.67406786,8.357505336,1.635690852,7.6395284,9.775213808,10.49055945,14.05854059,14.39300596,12.73828549,9.762895495,8.676471021,3.980466677,0.838560269,0.991875008,1,1,1,0.934962266,0.800347462,0.399612352,42.7288875,-76.65152084,2019,NYH1
WF9/H95,NEH2_2015,N,14.5,758.1521028,0,1,229,110,94,92,1.358750008,3.755999994,3.031264216,1.286090902,0.286666671,1.657187527,3.751759362,0.157499999,0.616713691,43.48000026,37.55999994,66.29000026,43.49999976,0.860000014,16.57187527,117.6431233,0.944999993,18.99062441,19.53783247,19.98656282,18.8528682,23.65152674,23.21232343,22.7312118,19.62767813,21.61948185,18.20728239,15.03874992,23.15200024,18.66927583,30.14561768,32.37510385,32.60862507,30.36489819,32.31320816,28.31448706,-2.426562488,5.230999994,5.264051067,13.5723423,16.5714581,16.13087479,15.9646131,15.56819047,11.19634675,4.192485347,8.478296732,6.894904354,14.37610508,16.560328,16.47008009,15.3434088,16.05261291,12.83173005,0.519497764,0.97653572,0.809891265,1,1,1,1,0.922021698,41.0514495,-100.7471915,2015,NEH2
W10001_0022/PHB47,OHH1_2015,N,13.5,766.5188068,0,0.5,242.5,113,62,62.5,4.820000016,2.056666652,1.801667061,2.430255425,2.070588264,2.75488235,3.664772063,1.623969288,1.874022108,149.4200005,12.33999991,20.27235275,82.00588303,2.23529414,26.29176468,128.0200007,12.16764697,57.18411674,17.71339239,20.831882,20.85048625,20.93566426,20.28419298,19.59839119,17.66236547,17.23782846,14.83481447,16.95064511,28.03666687,26.64173705,29.01382079,31.07970569,30.59522857,27.99762273,26.69097183,23.34659959,5.9283871,15.42166694,14.66308043,16.74801267,19.23764672,18.74322206,16.69895781,13.90980629,10.26308727,6.580773377,14.04730329,13.19467995,15.08203889,17.16864649,16.69143216,14.53513226,12.92347397,10.29932856,0.672569122,1,1,1,1,1,0.994932126,0.947361455,39.855785,-83.66477375,2015,OHH1
PHN11_PHW65_0323/LH195,WIH1_2015,N,40.9,762.6572511,0,0,261.5,135,65,64,4.730000059,9.059999784,2.430610682,6.190059866,3.242812514,1.739310909,2.563222068,2.582604527,2.064862235,151.3600019,54.3599987,32.30062549,198.0887501,6.485625029,21.11437514,113.2525011,35.42937557,62.48000012,19.32367544,22.19104989,23.8972515,19.04105101,21.62804324,20.72553659,16.09255797,13.7227876,9.595561915,19.95718755,28.15000025,26.05326099,28.85932006,29.07385437,26.51056077,24.82739399,20.18089026,14.51549808,8.517187543,15.30499983,11.82802944,17.48783518,16.48010375,14.49615378,12.31509137,8.581945626,2.680440183,8.558350873,13.98301754,11.81015597,15.26183828,14.95581898,12.98753542,11.68123469,8.628108428,5.087550731,0.777276777,1,1,1,1,0.929186389,0.833919484,0.505939954,43.05511725,-89.528525,2015,WIH1
B37/OH43,MOH1_2_2018,N,18.6,731.1212129,0,2,246.3333333,112.6666667,56.33333333,54.33333333,4.419032262,0.120000001,6.56660792,4.995913726,0,0.865952386,4.867908623,7.318145406,3.629241153,136.9900001,0.840000004,71.60142667,150.6285707,0,7.793571472,145.6157139,39.85928573,112.0157138,18.39395777,18.46565301,20.1607481,20.70593221,19.87326009,21.97749135,18.06982858,17.46468943,16.31914076,19.5254839,22.76714298,27.16554273,29.60936822,31.6271427,32.32420578,29.51628185,29.85375934,27.04843165,7.99741943,14.14714282,16.43732974,18.81172612,21.79964249,20.71007941,19.44316189,19.21155699,15.91814144,7.992986492,11.1555316,14.00535673,16.26359619,18.7133926,18.51714259,16.54699664,16.60044059,13.86670431,0.872361758,1,1,1,1,1,1,0.995607144,38.89555425,-92.20964575,2018,MOH1
B37/OH43,IAH2_2019,Y,23.8,706.0211008,1.5,1.5,240,111,65,64,1.624999978,4.994666719,7.633826981,4.023414549,10.53523836,1.22350002,2.763567443,7.261517829,4.773321835,51.99999928,74.92000079,126.7292866,144.3807149,31.60571507,12.2350002,103.2057142,58.23357121,145.3535721,19.40078695,15.59915857,17.73377221,20.37141966,18.69170743,21.11460887,19.04896103,16.46108124,13.94542613,15.78031255,14.78666655,21.30773964,26.90560141,30.4667857,29.3667858,27.70213024,26.0789087,24.69893011,1.823749996,4.276000045,9.222208134,15.06467224,19.71440506,18.17542877,16.74212177,15.32632928,13.45358666,5.188982368,5.371381143,9.150668224,13.41851256,17.10626668,15.79657396,14.44283917,13.04517908,11.92357614,0.546495539,0.532857125,0.866155154,0.998157434,1,1,1,0.956872449,42.06583499,-94.72067796,2019,IAH2
LH198/PHZ51,MIH1_2017,Y,24.7,687.3569149,0,2,97,47,64.5,65.5,2.651290334,1.642500043,0.365195355,3.685889798,0.022982455,0.462972321,1.745768067,1.924198947,6.215848807,82.19000036,13.14000034,4.417894763,131.6678931,0.068947365,5.871578781,77.40789432,25.15789459,187.919471,20.75480046,19.52619267,24.47429891,19.89055103,21.94334328,22.12060477,17.47908742,14.76431364,9.641321864,18.99677434,22.1187501,26.44652255,27.49693157,27.7329823,27.82492569,25.37386911,24.10071042,20.63989867,5.961290348,11.91874993,11.36318641,16.0503933,16.08877179,14.96255052,12.27657104,9.93890341,8.936309075,7.303217139,10.01258026,11.86785018,14.06113521,14.11607898,13.75096176,11.67659513,10.59348898,9.148775778,0.770126733,1,1,1,1,0.999072621,0.949278334,0.816440377,42.68116575,-84.49434125,2017,MIH1
B73/PHM49,ILH1_2018,Y,15.7,745.2802504,0,2,233.5,108,60,58,4.93870967,7.677000022,2.588106254,5.605117571,0.281428576,3.456349163,4.202656593,1.004543384,2.183824858,153.0999998,76.77000022,33.4678576,176.7721435,0.281428576,32.73642816,135.7042854,6.586428666,67.2342849,18.91812334,19.3164753,20.10278531,22.12028957,18.91592986,20.16297878,19.11980649,19.09856314,16.2127272,15.99580652,18.50399971,25.32625123,29.19453127,30.85535676,31.83740471,28.20358558,28.86124239,26.43877647,3.618387117,7.573000085,14.94700907,16.75211974,20.46500043,20.0205478,17.14982155,16.71822788,13.95248539,5.629456993,7.587936205,12.64486739,15.17263993,17.66017859,17.94105007,14.82889519,14.97382886,12.85823928,0.640783421,0.72660713,1,1,1,1,1,0.984431123,40.06300125,-88.2291765,2018,ILH1
B37/MO17,WIH1_2018,Y,20.506,757.6887161,0,2,278.2,139.8,70,67.2,1.609999989,7.097692302,4.543300024,5.384655594,12.90857152,6.684415526,1.835393967,1.490247701,3.282350194,49.90999967,92.26999992,56.1414287,188.537143,17.774286,73.52857079,76.14071582,18.50214262,100.642856,20.21844376,17.61529163,19.67186989,21.74517717,19.19342093,18.08513378,19.62003162,16.98075827,12.74863056,13.31193533,16.25923072,24.73561688,28.00164855,31.39095186,28.11097395,26.99453296,26.15077082,19.9357303,1.183225821,5.521538512,13.28283365,14.89542408,18.89249983,17.62870117,14.61713968,12.9208708,8.385953947,4.208379921,6.163069931,11.75441076,13.86262536,17.16453014,14.91796624,13.29691021,12.54059059,8.511099252,0.430714275,0.66777473,1,1,1,0.987929958,0.939058758,0.805939432,43.0544,-89.5317,2018,WIH1
B37/MO17,NYH1_2018,N,21.25,731.1212129,6,6.5,246,129,68.5,66,4.394516057,1.637142931,0.546464292,3.461265884,6.062261837,4.338061718,2.067540981,1.177456758,2.359527655,136.2299978,11.46000051,7.340000123,113.5449994,14.95785693,45.27285745,83.63714323,15.50214277,71.28500016,21.14905797,19.51909583,22.50012197,20.49014312,17.37909559,18.62357236,17.54437735,14.42309006,11.11333684,16.43838702,24.34714304,24.48084385,28.4079325,28.47095262,28.85558784,26.25577716,21.21730113,17.53723965,4.181612903,13.18428578,11.78804566,16.02970596,18.15166677,17.53428468,14.37510127,9.649634667,6.532510054,6.046172102,11.82070517,11.18993529,14.50776692,15.35223703,15.26441478,12.8637381,9.179788733,7.084201569,0.564688941,0.946581643,0.98880424,0.99833546,1,0.984010821,0.898581807,0.740508559,42.72940418,-76.65161667,2018,NYH1
CG119/CG108,WIH2_2018,N,29.05714286,759.8070552,13.57142857,2,264.1428571,142.1428571,68.14285714,67,3.144193572,1.768571428,3.785071194,5.164846227,1.715952385,3.402224049,3.044948822,9.615599338,3.371772616,97.47000074,12.38,46.28142902,179.8699983,4.560714279,37.70642883,131.4821453,73.47714479,101.7171416,19.25733411,21.12108299,21.47525877,21.2745393,18.31717262,18.53021556,18.66070884,13.62580315,11.37185475,15.52870961,24.66571426,26.09170284,28.23486864,27.86595249,27.65838755,26.70641136,24.92152362,17.96867439,3.195161297,12.95000008,13.88902894,15.13385395,17.40500012,17.0648215,13.77097062,13.5657747,6.887165117,5.289841082,11.57195132,12.6458491,14.08946858,14.71699087,14.50107081,12.89356629,12.23397282,7.279203781,0.580092163,1,1,1,1,0.981419113,0.932006969,0.73866365,43.38075,-89.38645,2018,WIH2
B14A/OH43,ONH2_2019,Y,17.7,731.1212129,3.5,6,250.5,116,58.5,53,3.148749955,1.707142813,2.884788786,4.447732757,0.559615387,2.381315681,1.591062148,2.963873616,2.693056068,100.7599986,11.94999969,28.24076917,155.5976948,1.398461539,27.51692318,83.67846091,41.8892306,82.50307587,19.66548085,22.32332843,21.1459014,19.53903082,19.21471346,16.24443645,13.80926932,11.15414419,7.415876262,21.25437486,24.3300002,28.12065395,27.65940311,26.58807711,26.0777262,22.19925608,19.8977064,9.549499144,11.33624993,14.43999985,17.94791472,17.45486711,16.31807709,16.95925516,13.13253797,10.95349597,1.834706344,9.515816833,11.92539607,15.12217856,14.69848405,13.62366511,13.69445237,10.64536319,9.344594814,3.453371008,0.985803572,1,1,1,1,0.93986372,0.838029257,0.289255913,42.45221275,-81.881844,2019,ONH2
F42/MO17,DEH1_2019,N,20.475,713.7442122,0,11.75,218.75,104.75,57.75,57,4.885483834,0.129999995,2.22754366,2.838879743,7.092619056,13.09007943,2.376059147,7.246095167,5.291338731,151.4499989,1.169999957,29.41999924,87.75142762,13.32785715,117.8107149,70.17642808,38.82285679,163.7607149,18.09422633,22.52754413,19.09832956,21.10549391,16.87992425,18.38683534,17.43790908,14.47643482,15.18822094,17.49129031,20.55777783,23.08374535,28.61102885,30.70333358,31.53571423,31.96636291,30.10673826,28.44137569,7.04516129,9.184444467,14.30050877,18.34149326,20.74333359,21.70119062,22.68293302,22.03347627,19.57253904,6.992168387,8.735510177,11.41430501,15.6056687,17.71122979,18.59296506,19.259015,18.07354239,16.13042035,0.769815656,0.948412699,0.988507504,1,1,1,1,1,38.670675,-75.433225,2019,DEH1
PHB47/PHZ51,ARH2_2017,Y,15.55,731.1212129,0,2,188,68.5,63,62,2.789999995,15.83285686,4.776016413,2.853949028,1.142500003,5.651818152,3.905948255,2.4430325,4.688621725,89.27999985,110.829998,61.6427269,88.95863769,3.003181826,52.42863608,105.2449988,13.33772746,145.3472735,17.14489296,19.09436907,20.93439511,19.65670258,19.84409681,19.1211903,18.81176407,19.65259997,17.546866,23.65656266,24.55142866,25.38541455,28.9612549,32.40098458,30.84565692,31.84241473,32.83627249,30.20087953,12.07343751,12.16142872,12.7110645,18.0477898,21.78734854,20.24410098,21.87781566,22.25639174,20.26112908,10.83878158,11.22094165,11.88579938,15.62584547,19.09416656,17.54487895,18.8103181,19.27693671,17.25265116,0.991674107,1,0.97315368,1,1,1,1,1,35.67418125,-90.0752695,2017,ARH2
TX714/PHZ51,IAH3_2015,Y,19.1,718.8929531,0,3.5,283,160.5,65,64,1.888124991,2.913571392,3.784813995,6.971928843,0,3.257500064,1.487385228,2.541446469,4.507444947,60.41999972,40.78999949,55.43999982,241.6600003,0,32.57500064,50.31437471,24.68500039,138.7756267,19.80172794,20.03998334,15.9141292,20.68283491,21.69136486,21.24428636,20.63784564,18.68301758,14.92198489,14.64187506,16.6814285,21.6371088,27.61372247,30.87885427,30.3035625,28.596254,28.51656267,24.33389908,0.83250004,3.600714236,12.24542872,16.05178152,19.47364565,18.11006255,15.99319583,14.30373217,10.64901215,4.605131548,5.787499831,10.11465775,14.1164012,17.17624996,16.25391669,14.57670766,13.97583386,10.87542788,0.501462055,0.634540813,0.981270753,1,1,1,0.968879463,0.933929792,41.97585629,-92.24291804,2015,IAH3
F42/H95,ONH2_2016,N,21.15,754.2905471,1,6.5,248,125,79,74,1.435483875,1.740833327,1.463802716,3.022687524,0.150999999,1.134659085,3.046446673,1.693503778,2.765116665,44.50000012,20.88999993,18.84600039,117.1590009,0.150999999,12.25349994,101.0444998,13.16149993,84.26899996,19.72563927,22.19747464,21.68954048,21.77365896,18.98664827,19.92678304,16.69906166,15.68152671,12.9072029,14.10741935,17.58083336,26.00758685,26.04894451,27.78099985,28.79287246,28.2480382,25.9224786,23.75348014,4.257419363,7.13166666,15.03828811,14.1477789,17.72699971,17.33924119,18.24672102,15.95494667,14.17526013,5.131346137,6.986841243,12.85116395,12.65171997,14.84296497,15.26027205,15.31782021,13.26534606,11.67621189,0.511244241,0.799851209,1,1,1,1,1,0.975829282,42.4530035,-81.88279875,2016,ONH2
PHN11_PHW65_0323/LH195,SCH1_2018,N,14.84333333,731.1212129,0,2,206,110.3333333,59.66666667,63,5.509375073,3.372500002,5.775327928,7.728127661,4.71095229,3.130603142,3.123485158,2.01328566,5.79306447,176.3000023,26.98000002,97.60999952,245.6735731,5.415714213,31.8442854,83.93428482,10.53785687,179.5849986,18.64772365,19.28692877,21.1730546,18.16318131,18.84742333,19.2548603,19.994513,19.31783344,16.30139442,22.53906247,22.53374982,23.09020479,27.61870045,28.0654766,28.90856809,32.58479132,33.48333298,31.1168664,9.301562469,9.311250091,8.762400081,17.50665347,16.7615475,18.38295894,21.20797915,21.67128537,20.80767273,9.591191253,9.400074843,9.574505228,14.76793775,14.51962258,15.72381397,18.86169653,19.45105318,17.96288574,0.951841518,1,0.982626499,0.991514695,1,1,1,1,34.6223015,-82.7364835,2018,SCH1
W10005_0107/PHB47,ARH2_2016,N,13,731.1212129,0,2,179.5,113,62,59,5.780937422,12.26500018,3.712120208,7.0222886,1.105000019,0.295568184,1.931287914,1.454696927,6.280835692,184.9899975,73.59000111,50.67409075,233.2059098,2.210000038,2.364545475,51.29727264,7.656817956,194.7059064,17.76457119,17.22719622,20.14058537,19.80644481,18.88262117,19.79738723,18.69440654,19.88854878,15.60714355,21.02781257,25.69833342,24.88224707,27.55747889,33.1628785,33.38017045,32.40728063,33.71248445,31.37684753,8.517187547,14.13833332,13.26693003,16.75834882,22.79151535,23.21522755,22.56353312,22.95024234,22.3752492,8.626308124,12.37618007,11.75818796,14.46644855,19.89189903,20.24263088,19.43024202,20.23735303,18.81126952,0.958649555,1,1,1,1,1,1,1,35.838614,-90.66530155,2016,ARH2
B73/PHM49,ILH1_2015,Y,11.35,727.9032498,0,0,242.5,127.5,70.5,69,4.343437491,1.296153843,7.654899739,5.34311295,3.674999952,2.467291633,4.647268051,0.712819956,1.951907909,138.9899997,16.84999996,99.86750055,177.342501,7.349999905,22.2056247,144.0256246,5.039375113,60.06187434,19.4076893,20.21820178,17.58012378,22.59231729,17.35775694,20.12242863,18.79551315,20.37165926,16.80998738,15.69375022,16.27615364,23.81483975,28.77428317,30.28249967,31.91701372,28.65899596,28.4854072,27.09877011,2.916875011,4.602307732,13.93389792,16.26044709,20.47749984,20.41381959,17.79543547,15.77196732,14.62672175,5.339800043,5.921635642,11.53105666,14.7484369,17.37999976,18.17178164,15.31569586,14.44648847,13.36421336,0.599162964,0.636840646,1,1,1,1,1,0.99828125,40.05982425,-88.23397575,2015,ILH1
PHG80/PHZ51,ARH1_2017,N,15.8,761.3700659,0,2,212.1,106.7,68,65,3.058125025,3.532857077,9.871688678,6.405160528,0.516363615,5.988171668,5.119232493,3.102318153,5.34158356,97.86000079,24.72999954,132.0327285,211.6218184,0.569545432,54.36818138,136.8913653,16.08272713,165.5890903,17.13974981,16.55343887,20.38424011,18.76225527,22.81364793,19.06964508,19.53553475,19.77193111,17.12972935,24.60906261,23.96000045,24.77057006,28.06605652,30.35469691,31.5146664,31.30577636,32.78459133,30.91587993,11.9175,14.17857156,11.8445801,17.60850246,18.97249995,21.30615642,21.39979275,22.50533316,21.62237538,11.1639709,11.77578055,11.22655186,14.97537354,16.74359516,18.41041141,18.33049426,19.54768126,18.22457608,1,1,1,1,1,1,1,1,34.7272515,-90.76032575,2017,ARH1
PHP02/PHB47,NEH3_2015,N,13.9,778.7470665,0,1,229,110,62,58,3.231250057,0.918000031,0.565093977,1.286692195,3.19749999,1.391136354,0.258061221,1.474667183,0.155891338,103.4000018,4.590000153,6.150000095,39.04749978,4.720000029,15.30249989,11.17999983,14.52874985,4.648125023,21.79127574,25.69442635,22.86725485,21.82271665,15.26317632,20.59079,20.06412842,16.27968968,13.53861776,24.28750017,32.64599991,30.58771447,32.67731329,28.91593772,29.87238656,30.80707127,25.39031645,21.32018275,9.278749934,13.0079998,13.8828633,15.7826582,17.05531204,14.62710229,13.18313307,8.87540479,3.334017086,10.46257825,15.28330691,14.45465852,16.22005678,15.0938879,14.496454,14.53020136,10.90039565,7.851747396,0.909587052,1,1,1,1,0.965712824,0.862507779,0.80953931,41.15824525,-101.9872958,2015,NEH3
B73/PHN82,SCH1_2018,N,15.55,731.1212129,0,2,171.5,93.5,60,63,5.509375073,3.372500002,5.775327928,7.728127661,4.71095229,3.130603142,3.123485158,2.01328566,5.79306447,176.3000023,26.98000002,97.60999952,245.6735731,5.415714213,31.8442854,83.93428482,10.53785687,179.5849986,18.64772365,19.28692877,21.1730546,18.16318131,18.84742333,19.2548603,19.994513,19.31783344,16.30139442,22.53906247,22.53374982,23.09020479,27.61870045,28.0654766,28.90856809,32.58479132,33.48333298,31.1168664,9.301562469,9.311250091,8.762400081,17.50665347,16.7615475,18.38295894,21.20797915,21.67128537,20.80767273,9.591191253,9.400074843,9.574505228,14.76793775,14.51962258,15.72381397,18.86169653,19.45105318,17.96288574,0.951841518,1,0.982626499,0.991514695,1,1,1,1,34.6223015,-82.7364835,2018,SCH1
CG60/LH162,WIH2_2017,Y,17.1,805.4561601,0,2,223,101.25,67.75,67.75,5.048709616,4.636666616,1.142383575,5.763857885,8.001590729,6.160048604,1.607776433,1.167726513,2.257555268,156.5099981,41.72999954,17.5799998,219.3963643,12.14409065,74.04090792,72.28863683,15.04409093,68.0204557,18.1690344,19.72049554,20.64727683,20.23287988,19.13163679,19.37493243,18.51401576,14.93340477,10.89478233,16.03129027,21.86555545,22.15746071,26.59689143,27.90045501,26.76799254,24.73062069,22.38533393,20.51274781,3.24419354,8.791111098,9.553497601,14.54337319,16.81037892,15.37831158,12.19271258,9.193202486,7.868866577,5.438218202,9.209131236,9.451203107,13.05708411,14.51682301,13.37610723,11.31306373,9.686333754,8.853113959,0.624158991,0.847976183,0.950288768,1,1,0.998699911,0.954544862,0.834596302,43.3246415,-89.33688775,2017,WIH2
F42/MO17,NCH1_2020,N,17.1,708.5954713,11.25,0.25,238.4375,110,65,64,3.811250031,6.583749771,1.870150701,7.593384547,0.8842857,2.636686467,3.330713381,6.121142871,7.323433169,121.960001,52.66999817,29.28357046,255.9407139,2.652857099,23.48571392,94.03142862,30.32857149,227.0264283,17.79310012,18.2030313,21.90311614,16.62410426,22.73441878,20.97653859,20.54309533,18.15988809,15.65141399,21.6678125,23.21999979,23.34870433,27.04964214,28.2173808,30.95634976,33.07043217,33.2972859,31.24656685,8.082812505,11.53125006,9.51933213,18.09668861,18.19142909,20.58560522,22.1124513,22.85800005,21.91055295,8.88590596,10.34544598,9.896418393,14.69404398,15.249625,17.76881847,19.50312724,19.99035698,18.5620876,0.935200903,1,0.995619773,1,1,1,1,1,35.30009892,-77.57131746,2020,NCH1
PHW52/PHN82,ONH2_2017,N,23.35,904.8912194,0,1.5,221.5,93,43,39.5,3.566774253,5.816000056,0.640467161,2.602850346,0.276190468,0.553043346,1.774150425,1.832219351,2.40528059,110.5700018,58.16000056,8.999047586,96.02571482,0.552380936,6.918571438,78.70857161,24.06619065,72.98142847,18.8542372,16.74867072,24.21291039,19.37094181,21.19715784,20.84705237,17.61151759,14.253685,9.927824707,15.7532257,18.68899984,23.40262829,26.34974997,26.59380949,26.86065013,24.57225317,22.91748616,20.00596815,5.764838726,10.96000004,12.03359118,16.18007827,16.63301581,15.91920336,13.14574071,11.27177775,10.10650586,6.141928302,8.38660306,10.68394655,13.52521671,13.7753985,13.64998718,11.58821465,10.41552723,9.107414304,0.598502303,0.966571423,1,1,1,0.999084662,0.956230826,0.8300025,42.45293025,-81.8827315,2017,ONH2
PHG39/PHN82,MNH1_2020,N,26.5,710.5262491,0,0,230,124,73,68,0.943005099,6.546073051,4.140359128,4.707487639,0.452236841,2.543512757,5.928901117,4.270615044,2.501087783,29.23315806,64.90105435,50.61684199,155.384737,0.714736844,28.61736839,219.2994748,34.34473765,76.93105461,20.83516212,15.73399946,19.74828467,20.97522671,19.78574355,20.20086134,18.41063051,15.8353279,12.84776632,15.708455,18.53155205,25.82840423,28.49526052,29.92499944,28.21992409,26.52185226,25.93987928,19.74067922,2.261239378,9.186207707,13.99244036,16.68286788,19.34447405,16.90528318,15.09377646,14.30914312,8.593217323,5.370680578,7.953384306,12.46596379,14.77865871,16.66236577,14.75116185,13.25288188,13.01752467,8.666130292,0.622613994,0.838417993,1,1,1,0.988450437,0.93066422,0.780758993,44.06907839,-93.53263028,2020,MNH1
B14A/H95,NEH2_2018,Y,15.35,764.5880289,0,2,291.5,115,65,64,1.223548393,0.707272736,4.763911635,2.422660693,9.359230876,1.187769238,2.22139935,1.060615372,2.655643509,37.93000019,7.780000091,61.58923048,72.52538565,18.71846175,11.03461544,72.02230704,6.795384554,82.07230774,19.8632896,17.86074517,17.24350838,22.63499015,18.62862352,21.21286184,19.62237806,18.45252819,16.56870138,17.6919355,17.47909086,23.04657186,30.81178887,30.82346183,31.15499996,29.41523597,30.138927,26.57117624,3.026129,6.979090886,13.86801705,18.31582591,19.94076905,19.05673485,17.52505525,17.69200753,12.69636803,6.275299993,6.965919572,11.10889174,16.66188215,17.38211544,17.1119836,15.61857368,16.09025205,12.68735507,0.68033411,0.762240243,1,1,1,0.996687975,0.997695055,0.910447978,41.38042275,-96.55988375,2018,NEH2
B37/OH43,ILH1_2019,Y,20.1,769.0931773,0,0,251,116.5,62,60.5,3.922903261,5.481666605,1.00366755,4.244691953,0.864761892,1.289377346,1.227411081,2.864647074,2.116070648,121.6100011,32.88999963,10.01785682,147.0385723,1.34571428,11.77428573,45.42428628,20.70571404,64.49999962,18.80145381,19.65322081,22.67392072,19.84274881,20.61125065,20.0231267,19.28032854,15.59344345,14.97056188,19.78774188,27.49499989,27.66771062,28.39175175,31.90428638,30.86753304,28.53869606,27.75133519,26.64299619,8.822580737,16.11666648,15.73801632,17.44140675,20.6435711,19.81749468,16.71837596,16.74759351,14.38373492,8.392897398,14.01107102,13.933587,15.08804109,18.28423173,17.40393302,14.78980986,14.45116262,13.1086535,0.871382484,1,1,1,1,1,1,0.979387755,40.0587105,-88.2298385,2019,ILH1
B73/PHZ51,OHH1_2017,N,19.15,731.7648055,0,2,229,110,65,64,4.401935447,12.29571451,4.299880116,6.252045262,18.36299991,4.892395558,3.195317293,3.431958172,3.794688752,136.4599988,86.0700016,53.63949916,223.8204996,40.86499989,50.26800107,124.097,30.99400014,115.4320013,19.0647902,19.03427505,21.00226491,20.15032754,19.69555429,18.89580098,18.69837911,16.0400155,13.85510684,20.47903239,25.43142836,25.24002704,27.25803818,28.09541678,28.73270468,26.30456447,24.69395371,24.25720733,8.011935501,13.44999967,12.59882409,15.91673102,16.75358336,18.39824095,14.97688189,13.11535887,11.81284403,8.407228033,12.106522,11.63721293,13.8931373,14.6377479,15.63224373,13.07252875,11.66012039,11.13333271,0.85352535,1,1,1,1,0.996926048,1,0.96495674,39.855785,-83.66477375,2017,OHH1
F42/H95,GAH2_2017,Y,17.7,731.1212129,0,2,229,110,65,64,5.215806507,2.59000005,0.877047008,6.976424555,36.66571527,11.68990473,2.766634194,6.717714339,5.237281131,161.6900017,18.13000035,10.98809533,219.4985743,69.630002,116.6428568,77.55666748,33.5885717,162.3557151,18.59375843,20.97986943,21.98193589,18.54567619,14.33990901,17.7663424,19.78523868,18.86354985,17.57616326,25.93516134,24.17571449,30.47339418,29.31252372,29.52904774,29.72980419,32.72601502,32.10511542,30.76784952,12.17225799,9.938571385,16.15324828,18.06353156,20.43476164,19.51114297,21.20992787,20.86352373,19.95543778,11.90954616,10.38538115,15.45655397,15.75249851,16.98190469,16.63412837,18.90169131,18.47155665,17.41241638,0.999631335,0.985714285,1,1,1,1,1,1,33.727145,-83.29821525,2017,GAH2
B14A/OH43,WIH1_2018,Y,19.3625,815.496205,0,2,253.5,112.75,67,65,1.609999989,7.097692302,4.543300024,5.384655594,12.90857152,6.684415526,1.835393967,1.490247701,3.282350194,49.90999967,92.26999992,56.1414287,188.537143,17.774286,73.52857079,76.14071582,18.50214262,100.642856,20.21844376,17.61529163,19.67186989,21.74517717,19.19342093,18.08513378,19.62003162,16.98075827,12.74863056,13.31193533,16.25923072,24.73561688,28.00164855,31.39095186,28.11097395,26.99453296,26.15077082,19.9357303,1.183225821,5.521538512,13.28283365,14.89542408,18.89249983,17.62870117,14.61713968,12.9208708,8.385953947,4.208379921,6.163069931,11.75441076,13.86262536,17.16453014,14.91796624,13.29691021,12.54059059,8.511099252,0.430714275,0.66777473,1,1,1,0.987929958,0.939058758,0.805939432,43.0544,-89.5317,2018,WIH1
PB80/PHZ51,SDH1_2015,N,21.45,677.7030257,0,3.5,183.5,95.5,73,68.5,1.890000034,2.68444448,2.847212523,0.928406021,1.08916667,1.213193166,1.12388612,3.994558873,0.570569385,58.59000105,24.16000032,33.86000057,31.14874977,1.720000006,12.77624983,39.02562428,27.90249949,17.65812508,21.16446504,23.3864585,24.03054242,23.94878495,21.74335716,21.42490048,20.60212775,16.27746828,15.18579983,19.04290341,22.5888888,27.20826416,30.46229654,29.54760476,31.86073879,31.47770382,29.48664523,24.89733582,4.208709664,8.468888919,11.69082143,14.25969647,14.29062517,16.06534098,14.02269822,14.11578116,6.942900096,6.807516906,9.210660666,12.27390437,14.67606113,14.18888263,15.81431879,15.00552731,14.17539039,9.834808296,0.77025346,0.983690483,1,1,1,0.983472358,0.961069402,0.950039755,44.208745,-102.928745,2015,SDH1
B73/TX779,GAH1_2020,N,20.63,734.9827686,0,2,202.5,92.5,68,68,4.279687563,0,6.08243138,3.811420537,2.267976227,2.530000055,3.98378478,1.741833346,2.910207357,136.950002,0,84.37571335,135.9278565,4.833571502,22.77000049,107.9378566,9.115000069,90.21642806,16.61263859,21.5972875,19.10636237,20.72286693,14.54687945,18.15584731,20.08605453,19.68634889,18.27781732,25.37343752,26.77166684,25.94144379,27.77824619,29.55357116,30.6518255,31.78195276,33.48178532,33.56322575,12.43875006,10.55666669,12.19035929,13.80720781,20.58059497,20.26111097,20.57386992,21.96838095,22.25456222,11.80508215,11.69113274,11.88989525,13.35432975,17.06708306,17.45646823,18.17996521,19.67032327,19.80166763,0.988537947,1,1,1,1,1,1,1,31.5079775,-83.558517,2020,GAH1
LH195/LH82,ARH2_2016,N,13.3,731.1212129,0,2,180,100.5,64,64,5.780937422,12.26500018,3.712120208,7.0222886,1.105000019,0.295568184,1.931287914,1.454696927,6.280835692,184.9899975,73.59000111,50.67409075,233.2059098,2.210000038,2.364545475,51.29727264,7.656817956,194.7059064,17.76457119,17.22719622,20.14058537,19.80644481,18.88262117,19.79738723,18.69440654,19.88854878,15.60714355,21.02781257,25.69833342,24.88224707,27.55747889,33.1628785,33.38017045,32.40728063,33.71248445,31.37684753,8.517187547,14.13833332,13.26693003,16.75834882,22.79151535,23.21522755,22.56353312,22.95024234,22.3752492,8.626308124,12.37618007,11.75818796,14.46644855,19.89189903,20.24263088,19.43024202,20.23735303,18.81126952,0.958649555,1,1,1,1,1,1,1,35.838614,-90.66530155,2016,ARH2
PHG80/PHZ51,IAH4_2017,N,17.7,731.1212129,0,2,229,110,65,64,3.054193612,4.63857133,5.654282844,2.356146022,0.145000003,0.823262634,3.029939984,2.506485397,3.022032747,94.68000197,32.46999931,92.55000019,79.81000018,0.290000005,7.931363713,110.0431818,17.65818187,91.79227275,19.60434628,22.37855189,18.81628808,21.46940114,22.42332305,21.26952374,19.1513695,15.94205759,15.34138578,17.83935482,25.21428544,21.76755785,28.88340452,30.88984893,30.99338411,28.30609907,26.26622464,25.93438806,4.952580655,10.13999993,10.24708413,15.02150207,17.47128796,18.07608078,15.80662465,13.87026602,12.51354651,6.575243948,10.82301274,9.649960621,14.3656457,16.22810104,16.57398155,14.36597852,12.57546566,12.06214068,0.727396317,1,0.910082199,1,1,1,1,0.987168831,41.99455432,-93.69030947,2017,IAH4
B14A/OH43,WIH1_2019,Y,26.1,686.0697297,0,0,240.835,120,77,76,3.104193578,4.990909143,3.989206625,5.063632664,7.174102343,5.657788874,3.979490855,4.117971668,7.043559998,96.23000091,54.90000057,56.46538491,184.9676922,7.656153606,56.9199983,170.6046141,43.34153838,211.8461548,19.32800511,20.47989629,21.14585761,19.94081469,20.4834897,19.00171798,17.70480678,14.70759561,11.13260624,14.4303226,19.6027272,23.71186264,26.54399323,29.1737175,29.51828996,25.99775321,22.10125555,19.22207941,3.044193574,6.375454621,11.90649765,15.02653282,17.46782019,18.4264638,14.78313726,11.24849031,9.42963116,4.974875238,7.497369644,10.75801096,13.26663909,15.42227287,16.03343447,12.80151602,10.12875121,8.730340077,0.520449311,0.882272729,0.994529143,0.999440504,1,0.998245342,0.92932789,0.792629622,43.060857,-89.494068,2019,WIH1
B73/MO17,TXH3_2019,Y,9.43,785.247352,0,0,211,89,70,69.5,1.71448275,0.072857141,3.656594302,9.095434564,0.409285716,1.207678571,5.355850783,1.246142852,1.574419343,49.71999974,0.50999999,52.00785631,328.2121388,0.592857139,9.661428571,146.4478573,6.531428533,47.51499965,15.42805705,20.52131135,18.76898834,18.57032559,21.42349659,18.85281525,20.14881361,21.03072751,19.84089234,18.45000007,25.76428577,24.43254944,27.27586732,31.09000002,32.37866099,32.72435205,34.04471448,34.98200776,6.826206914,10.35000004,10.67963154,14.78766739,18.65857179,21.85071427,21.02442735,21.79614282,22.6049739,7.457816468,11.1589152,10.85119479,13.46630403,16.91193677,19.11412105,18.84765314,19.77807102,20.01419559,0.749667494,1,0.945308164,1,1,1,1,0.999698925,30.546318,-96.4329965,2019,TXH3
B14A/H95,WIH1_2015,Y,35.5,747.2110283,0,10.5,266.5,145,65,64,4.730000059,9.059999784,2.430610682,6.190059866,3.242812514,1.739310909,2.563222068,2.582604527,2.064862235,151.3600019,54.3599987,32.30062549,198.0887501,6.485625029,21.11437514,113.2525011,35.42937557,62.48000012,19.32367544,22.19104989,23.8972515,19.04105101,21.62804324,20.72553659,16.09255797,13.7227876,9.595561915,19.95718755,28.15000025,26.05326099,28.85932006,29.07385437,26.51056077,24.82739399,20.18089026,14.51549808,8.517187543,15.30499983,11.82802944,17.48783518,16.48010375,14.49615378,12.31509137,8.581945626,2.680440183,8.558350873,13.98301754,11.81015597,15.26183828,14.95581898,12.98753542,11.68123469,8.628108428,5.087550731,0.777276777,1,1,1,1,0.929186389,0.833919484,0.505939954,43.05511725,-89.528525,2015,WIH1
TX714/PHZ51,MNH1_2015,Y,15.75,741.4186947,3,3.5,266,166,76.5,75.5,2.676451665,6.10285713,1.587216104,4.707726326,2.093823531,4.685775359,5.935015669,2.223261507,2.198788145,82.97000162,42.71999991,19.59000013,155.007059,3.965294123,52.23235247,227.0947085,20.90117698,67.40117758,19.81693462,15.87546921,21.62818458,20.65236193,17.21434565,21.12123323,17.7408483,14.5374504,12.06297535,17.43387093,22.63000025,27.28921799,28.46423671,28.36529418,28.07899716,26.14089523,24.73259507,17.90095705,4.567419307,13.73428563,14.30007362,16.89716897,18.65411764,16.19745995,14.75643511,13.57280729,6.634647692,6.2838161,10.87437977,13.26905608,14.87023808,15.64114514,14.35392043,12.99006372,12.46836687,7.55733068,0.722983866,1,1,1,1,0.977703003,0.878626049,0.721229646,44.07038575,-93.53519625,2015,MNH1
B73/PHN82,ARH2_2016,N,13.05,731.1212129,0,2,206.5,128.5,65,63.5,5.780937422,12.26500018,3.712120208,7.0222886,1.105000019,0.295568184,1.931287914,1.454696927,6.280835692,184.9899975,73.59000111,50.67409075,233.2059098,2.210000038,2.364545475,51.29727264,7.656817956,194.7059064,17.76457119,17.22719622,20.14058537,19.80644481,18.88262117,19.79738723,18.69440654,19.88854878,15.60714355,21.02781257,25.69833342,24.88224707,27.55747889,33.1628785,33.38017045,32.40728063,33.71248445,31.37684753,8.517187547,14.13833332,13.26693003,16.75834882,22.79151535,23.21522755,22.56353312,22.95024234,22.3752492,8.626308124,12.37618007,11.75818796,14.46644855,19.89189903,20.24263088,19.43024202,20.23735303,18.81126952,0.958649555,1,1,1,1,1,1,1,35.838614,-90.66530155,2016,ARH2
LH195/PHN37,ONH1_2017,Y,30.2,634.5823203,0,2,252.5,115,79.5,79,4.42290319,4.904999876,1.545173221,3.420435244,1.695375006,2.594700004,1.855534774,1.54565171,2.383111348,137.1099989,49.04999876,23.52600009,140.8034994,5.378000009,36.46150006,95.23350107,29.85300009,72.44250006,18.65662235,17.08545341,23.10813164,20.12586768,18.11232318,19.44819915,16.33652997,11.62209215,7.957733996,13.94322577,18.20700026,22.35689536,24.80045755,25.17183321,25.2296929,22.79396283,22.13957367,13.29532023,3.578387066,9.706999969,10.10387851,14.12185296,14.82349991,13.63261195,10.3904862,9.847475595,3.166289439,4.958212412,8.025894563,9.659097931,11.97096233,12.35740613,11.98311106,9.953455995,10.0654016,5.273375752,0.439723498,0.877642858,1,1,1,0.972410901,0.840292505,0.515578473,43.49546,-80.42596875,2017,ONH1
B37/H95,GAH1_2018,N,15.655,806.0997527,0,1.5,212.5,102.5,63,60.5,4.231249915,1.934999943,5.575464231,3.801027214,1.067857163,3.256190501,3.932246866,3.816857059,2.685023025,135.3999973,11.60999966,76.79571342,135.0185695,1.516428607,29.30571451,107.1921429,19.08428529,83.23571379,16.89130574,18.83037901,19.9789379,20.32622599,17.16636637,17.47509449,19.98058203,18.77657547,18.35496912,25.6268748,28.56500022,25.46428012,27.96417186,30.5753573,30.54857133,31.9994497,33.07128549,33.68336431,12.70062498,14.46999963,11.35988473,14.27301998,20.47928579,20.42444427,20.68398901,21.82542842,22.30905548,11.99291119,13.91639365,11.33534042,13.63652225,17.52732154,17.4865078,18.33967815,19.36985553,19.8838857,0.988973219,1,1,1,1,1,1,1,31.50582525,-83.55515025,2018,GAH1
TX777/LH195,DEH1_2020,N,31.6125,660.9696176,0,5.125,246.875,138.75,71.25,70.375,3.884838689,2.918749928,0.484801506,3.712682555,3.963928495,10.54878945,3.680508849,4.08975176,5.319973187,120.4299994,23.34999943,5.74999997,113.1935704,6.565714155,94.92928366,102.5935729,23.16642891,164.6128593,19.34389959,17.33862388,21.23126246,20.37262205,20.84469896,18.13380163,16.82964191,15.50064315,15.14081803,17.43483888,21.1624999,25.02143811,29.01024665,32.25440507,31.30417669,31.95048154,29.3682824,28.21514964,6.792903194,12.85250008,15.40184434,18.86790491,21.28607132,21.93053571,22.84339264,21.06525136,19.30786859,6.86665098,10.04482466,12.64072343,16.02028347,18.72161765,18.60397455,19.32804006,17.22313801,15.91003144,0.79362904,0.982098209,1,1,1,1,1,1,38.628981,-75.46566025,2020,DEH1
WF9/H95,MIH1_2017,Y,17.7,731.1212129,0,2,229,110,65,64,2.651290334,1.642500043,0.365195355,3.685889798,0.022982455,0.462972321,1.745768067,1.924198947,6.215848807,82.19000036,13.14000034,4.417894763,131.6678931,0.068947365,5.871578781,77.40789432,25.15789459,187.919471,20.75480046,19.52619267,24.47429891,19.89055103,21.94334328,22.12060477,17.47908742,14.76431364,9.641321864,18.99677434,22.1187501,26.44652255,27.49693157,27.7329823,27.82492569,25.37386911,24.10071042,20.63989867,5.961290348,11.91874993,11.36318641,16.0503933,16.08877179,14.96255052,12.27657104,9.93890341,8.936309075,7.303217139,10.01258026,11.86785018,14.06113521,14.11607898,13.75096176,11.67659513,10.59348898,9.148775778,0.770126733,1,1,1,1,0.999072621,0.949278334,0.816440377,42.68116575,-84.49434125,2017,MIH1
PHB47/PHZ51,ILH1_2015,Y,12.25,728.5468424,0,0,255,117.5,68.5,67.5,4.343437491,1.296153843,7.654899739,5.34311295,3.674999952,2.467291633,4.647268051,0.712819956,1.951907909,138.9899997,16.84999996,99.86750055,177.342501,7.349999905,22.2056247,144.0256246,5.039375113,60.06187434,19.4076893,20.21820178,17.58012378,22.59231729,17.35775694,20.12242863,18.79551315,20.37165926,16.80998738,15.69375022,16.27615364,23.81483975,28.77428317,30.28249967,31.91701372,28.65899596,28.4854072,27.09877011,2.916875011,4.602307732,13.93389792,16.26044709,20.47749984,20.41381959,17.79543547,15.77196732,14.62672175,5.339800043,5.921635642,11.53105666,14.7484369,17.37999976,18.17178164,15.31569586,14.44648847,13.36421336,0.599162964,0.636840646,1,1,1,1,1,0.99828125,40.05982425,-88.23397575,2015,ILH1
F42/OH43,ARH1_2017,N,13.5,763.3008437,0,2,233.65,123.8,71,65,3.058125025,3.532857077,9.871688678,6.405160528,0.516363615,5.988171668,5.119232493,3.102318153,5.34158356,97.86000079,24.72999954,132.0327285,211.6218184,0.569545432,54.36818138,136.8913653,16.08272713,165.5890903,17.13974981,16.55343887,20.38424011,18.76225527,22.81364793,19.06964508,19.53553475,19.77193111,17.12972935,24.60906261,23.96000045,24.77057006,28.06605652,30.35469691,31.5146664,31.30577636,32.78459133,30.91587993,11.9175,14.17857156,11.8445801,17.60850246,18.97249995,21.30615642,21.39979275,22.50533316,21.62237538,11.1639709,11.77578055,11.22655186,14.97537354,16.74359516,18.41041141,18.33049426,19.54768126,18.22457608,1,1,1,1,1,1,1,1,34.7272515,-90.76032575,2017,ARH1
CG44/CGR01,ARH1_2016,N,16.3,791.6189189,1,4,158.5,100.5,64,62,12.62656226,6.052222146,7.859593922,4.411032368,3.769999921,0.095833332,1.834913509,2.950363528,2.931715563,404.0499923,54.46999931,101.1431819,160.496816,7.539999843,0.824999988,46.86636396,14.75181764,90.88318244,16.40757677,14.40289243,17.41332625,19.31399891,17.48165414,22.15918181,19.7781726,18.25208951,17.22596404,20.37124979,20.08666674,25.25253507,26.30445415,29.50681779,32.27019592,33.22074717,33.17606868,32.75999986,8.53968759,10.04999993,14.84655054,15.67568893,20.10318184,20.90335237,23.01320039,23.46584116,23.35664232,8.376579132,8.623890092,12.4075181,13.38568101,16.80499981,18.57005087,20.09384313,20.24603027,19.89808151,0.932198657,0.999841266,1,1,1,1,1,1,34.72952,-90.7603555,2016,ARH1
TX714/PHZ51,INH1_2016,N,18.9,696.3672116,3.5,6,279,147,65,64.5,3.034516148,1.382857186,3.106568823,3.966270256,3.500454469,6.752636371,3.451172643,3.198528118,3.024422797,94.07000059,9.680000305,31.26000059,138.8759105,3.500454469,67.52636371,113.8927274,21.6654544,92.62590972,17.63328649,23.97511796,20.66441577,20.1236558,19.9706746,19.39149484,18.14527656,15.98533716,14.62820237,18.74516109,26.31142807,27.84898846,28.12893417,28.20272714,29.14504538,29.16779001,27.95564941,27.07739093,7.950322636,11.69428553,16.31817922,16.10606538,16.8522731,18.34872752,18.58889605,17.50284626,15.03841012,7.677100472,11.91689015,14.24288378,14.4184555,14.68521604,15.7994256,15.9329094,14.92238151,13.51734692,0.852649763,1,1,1,1,1,1,0.996102814,40.4787595,-86.98982,2016,INH1
PHG80/PHZ51,SDH1_2015,N,22.05,658.3952472,0,1.5,182,93,74.5,74,1.890000034,2.68444448,2.847212523,0.928406021,1.08916667,1.213193166,1.12388612,3.994558873,0.570569385,58.59000105,24.16000032,33.86000057,31.14874977,1.720000006,12.77624983,39.02562428,27.90249949,17.65812508,21.16446504,23.3864585,24.03054242,23.94878495,21.74335716,21.42490048,20.60212775,16.27746828,15.18579983,19.04290341,22.5888888,27.20826416,30.46229654,29.54760476,31.86073879,31.47770382,29.48664523,24.89733582,4.208709664,8.468888919,11.69082143,14.25969647,14.29062517,16.06534098,14.02269822,14.11578116,6.942900096,6.807516906,9.210660666,12.27390437,14.67606113,14.18888263,15.81431879,15.00552731,14.17539039,9.834808296,0.77025346,0.983690483,1,1,1,0.983472358,0.961069402,0.950039755,44.208745,-102.928745,2015,SDH1
F42/H95,ONH2_2019,N,38.25,666.2470771,6,30.5,286,149,60,57.5,3.148749955,1.707142813,2.884788786,4.447732757,0.559615387,2.381315681,1.591062148,2.963873616,2.693056068,100.7599986,11.94999969,28.24076917,155.5976948,1.398461539,27.51692318,83.67846091,41.8892306,82.50307587,19.66548085,22.32332843,21.1459014,19.53903082,19.21471346,16.24443645,13.80926932,11.15414419,7.415876262,21.25437486,24.3300002,28.12065395,27.65940311,26.58807711,26.0777262,22.19925608,19.8977064,9.549499144,11.33624993,14.43999985,17.94791472,17.45486711,16.31807709,16.95925516,13.13253797,10.95349597,1.834706344,9.515816833,11.92539607,15.12217856,14.69848405,13.62366511,13.69445237,10.64536319,9.344594814,3.453371008,0.985803572,1,1,1,1,0.93986372,0.838029257,0.289255913,42.45221275,-81.881844,2019,ONH2
CG60/LH162,ARH2_2016,Y,17.7,731.1212129,0,2,162,104,56.5,55,5.780937422,12.26500018,3.712120208,7.0222886,1.105000019,0.295568184,1.931287914,1.454696927,6.280835692,184.9899975,73.59000111,50.67409075,233.2059098,2.210000038,2.364545475,51.29727264,7.656817956,194.7059064,17.76457119,17.22719622,20.14058537,19.80644481,18.88262117,19.79738723,18.69440654,19.88854878,15.60714355,21.02781257,25.69833342,24.88224707,27.55747889,33.1628785,33.38017045,32.40728063,33.71248445,31.37684753,8.517187547,14.13833332,13.26693003,16.75834882,22.79151535,23.21522755,22.56353312,22.95024234,22.3752492,8.626308124,12.37618007,11.75818796,14.46644855,19.89189903,20.24263088,19.43024202,20.23735303,18.81126952,0.958649555,1,1,1,1,1,1,1,35.838614,-90.66530155,2016,ARH2
PHW52/PHN82,COH1_2017,N,30.45,598.0584393,0,9.125,220.125,90.5,76.25,74.5,3.393124943,0,0.001708684,0.360843908,0.891428554,3.560382097,1.42287895,1.565670675,1.770870451,108.5799982,0,0.02904762,12.29476177,1.600476163,43.78523833,56.48285717,21.02523811,53.20285701,22.26802993,25.65694836,25.9931063,24.2875628,21.26982858,19.37652668,19.65631787,15.92591012,11.99136935,20.38624986,26.27857154,29.00990249,30.95750085,32.84396765,29.24597739,27.87075516,24.49812031,17.64004964,4.676250031,9.955714362,11.44166305,13.33492254,15.64190474,14.2894836,11.55992968,8.650869984,2.505724526,7.387813889,11.22152513,12.97827389,14.53136664,16.23032426,14.11586508,12.58015619,10.40568176,6.007000116,0.859799101,1,1,1,1,0.978368119,0.882220332,0.653649732,40.64850025,-104.9997825,2017,COH1
TX714/PHZ51,GAH2_2016,N,13.2,731.1212129,0,2,237,189,58,53.5,1.486129045,0,7.316392826,2.079782856,1.718421064,1.264671045,2.43256314,4.61773679,3.235456168,46.07000041,0,60.50999928,55.97210474,3.436842128,10.11736836,67.31736801,23.15894711,100.2847377,20.21189387,22.87583466,19.10112302,21.34036575,17.85876091,19.83818451,18.50479945,15.9975398,17.29687983,27.80677426,30.50400009,32.06010812,34.2138269,34.93842035,34.86282896,34.62455114,33.33373696,32.80003392,13.8351613,16.55600014,19.35906305,20.32019684,22.9621054,21.76434208,22.04984942,22.29670187,20.14649938,13.32566871,15.60302283,17.72531793,18.78372546,20.36638125,19.89190838,19.9091667,19.70080105,18.42340329,1,1,1,1,1,1,1,1,33.717295,-83.3110275,2016,GAH2
B73/PHN82,TXH1-Late_2018,N,11.35,760.7264732,0,2,237.5,89,61,61,3.579375003,7.22999986,0.880950212,3.393996506,5.74642872,3.619146949,3.455600496,0.428285708,2.278709721,114.5400001,43.37999916,11.7107143,109.309285,11.49285744,35.41714406,87.15857094,2.141428539,70.64000136,15.18905504,16.98149872,20.4111462,19.99876216,15.81608334,20.1152116,19.58230121,16.39417859,18.61523184,25.42156261,25.48166672,24.9240565,29.86096768,30.55928573,31.11103384,33.47173554,33.67857067,35.62923946,13.73406251,14.7233332,12.14174484,16.97683375,21.17380969,19.92907914,21.60030195,24.8844286,24.53525352,12.24876106,12.9546326,11.47321097,15.6369769,17.86869493,17.49319399,19.34856645,20.63058471,20.90474588,0.995234379,0.961607144,1,1,1,0.999944236,0.999152383,0.999033412,30.546318,-96.4329965,2018,TXH1-Late
B73/PHM49,TXH2_2020,N,14.825,753.6469545,0,2,180.34,56.535,72,72.25,2.284333333,0,4.621906019,2.982124861,1.655000005,6.689114015,2.894056698,2.615892851,2.528400138,68.53,0,55.88714266,111.3664289,1.655000005,70.91857161,82.98143064,12.87071426,76.16571382,13.91343843,13.3863348,15.08661116,19.80328892,19.03358821,19.2160028,19.61198116,21.5690046,17.9190584,20.02266652,27.17999992,26.59088772,26.49063582,29.80749984,29.13094588,32.17534358,33.00407163,34.57616138,6.794333295,17.20400028,15.22554111,13.60666406,17.96904786,16.63267817,20.78659354,19.79317827,24.13923583,7.901247141,14.27292515,13.36557264,12.73068931,16.08957262,15.12192719,18.39831967,18.39239984,20.46927813,0.821357143,1,0.992404768,0.99375244,1,1,1,0.999043315,30.53825625,-96.42790225,2020,TXH2
W10004_0216/PHZ51,NEH1_2015,N,14.55,792.2625115,0,2,295,135,65,58,2.959062506,0.753999996,4.745632833,2.187040691,0.179999996,3.601448917,1.548000793,0.057812502,1.589214364,94.69000018,3.769999981,46.84999943,63.50812512,0.239999995,39.12187557,55.49499987,0.586250016,47.85812447,19.07194562,25.84699936,20.00593662,19.96245842,20.96463704,17.86296284,18.31175333,17.30405645,12.3794141,23.74906254,30.51399994,29.13009987,30.74148671,30.73750019,28.43858622,29.13031746,26.88374984,20.12342532,13.19218739,15.46999989,18.04036499,19.18092822,19.11281252,17.33248289,15.92131484,11.1533021,6.525200269,11.64481375,15.25955733,15.68336601,16.96891106,16.93845514,15.07345461,14.95183393,12.01070089,8.15887847,0.924598212,1,1,1,1,0.96969665,0.982957588,0.758540943,41.290979,-96.41664325,2015,NEH1
B14A/H95,KSH1_2018,Y,15.45,801.2728081,33.75,9,229,110,65,64,0.123225804,1.309000027,2.835063753,1.245921432,6.190769489,0.847777789,5.121826591,3.691923017,0.576771715,3.819999933,13.09000027,33.35999966,37.39923182,6.190769489,7.630000105,140.8584615,22.1515381,17.82230777,23.1370286,19.20606413,23.76917973,25.01946837,21.72317813,23.99633906,18.76579115,18.12170014,19.24157322,22.75709664,20.771,27.08892973,34.13484851,36.79923102,35.27700868,33.17677556,30.51957897,31.48973893,3.915806478,6.778999925,10.75682887,16.60383588,18.26846137,18.37008543,18.87125761,16.15291204,15.043086,8.255034949,8.267600828,11.90551203,16.73972083,17.84021903,17.73256873,17.54545708,15.43757555,15.43621363,0.847615199,0.789999991,1,1,1,1,1,0.970122947,37.810107,-100.775188,2018,KSH1
PHG39/TX205,WIH1_2015,Y,31.7,731.1212129,0,0,267.5,146.5,65,64,4.730000059,9.059999784,2.430610682,6.190059866,3.242812514,1.739310909,2.563222068,2.582604527,2.064862235,151.3600019,54.3599987,32.30062549,198.0887501,6.485625029,21.11437514,113.2525011,35.42937557,62.48000012,19.32367544,22.19104989,23.8972515,19.04105101,21.62804324,20.72553659,16.09255797,13.7227876,9.595561915,19.95718755,28.15000025,26.05326099,28.85932006,29.07385437,26.51056077,24.82739399,20.18089026,14.51549808,8.517187543,15.30499983,11.82802944,17.48783518,16.48010375,14.49615378,12.31509137,8.581945626,2.680440183,8.558350873,13.98301754,11.81015597,15.26183828,14.95581898,12.98753542,11.68123469,8.628108428,5.087550731,0.777276777,1,1,1,1,0.929186389,0.833919484,0.505939954,43.05511725,-89.528525,2015,WIH1
F42/MO17,MOH1_2_2018,N,18.4,731.1212129,0,2,233,95.66666667,55,52.33333333,4.419032262,0.120000001,6.56660792,4.995913726,0,0.865952386,4.867908623,7.318145406,3.629241153,136.9900001,0.840000004,71.60142667,150.6285707,0,7.793571472,145.6157139,39.85928573,112.0157138,18.39395777,18.46565301,20.1607481,20.70593221,19.87326009,21.97749135,18.06982858,17.46468943,16.31914076,19.5254839,22.76714298,27.16554273,29.60936822,31.6271427,32.32420578,29.51628185,29.85375934,27.04843165,7.99741943,14.14714282,16.43732974,18.81172612,21.79964249,20.71007941,19.44316189,19.21155699,15.91814144,7.992986492,11.1555316,14.00535673,16.26359619,18.7133926,18.51714259,16.54699664,16.60044059,13.86670431,0.872361758,1,1,1,1,1,1,0.995607144,38.89555425,-92.20964575,2018,MOH1
LH195/PHZ51,WIH2_2015,N,36.125,744.9584541,0,0,247.5,132.75,65,64,3.126774188,2.655000041,4.103605878,5.336067251,1.868823528,3.142847566,3.066358713,6.463272165,3.426278957,96.92999983,15.93000025,53.58117651,186.0694135,5.435882344,36.03705852,132.4747064,52.80117733,103.4994124,19.63646212,20.57311455,21.5892617,21.07111177,18.36300238,19.20517036,18.54583572,13.68038168,11.37476292,15.6409678,24.97666677,26.11823115,28.09529077,27.51588227,27.91298604,26.4469062,23.95331443,17.63645543,3.355806466,13.62666686,13.88922494,15.17788174,17.2276475,16.92946091,13.73434519,12.63733902,6.343913375,5.370860554,11.93138906,12.65256426,14.04290221,14.43586033,14.57588984,12.76646014,11.49482956,7.023163717,0.588214292,1,1,1,1,0.979783322,0.914260835,0.715230077,43.3264485,-89.33359975,2015,WIH2
2369/LH123HT,MOH1_1_2018,N,18.025,731.1212129,0,2,250.5,128.75,56.5,55.75,4.419032262,0.120000001,6.56660792,4.995913726,0,0.865952386,4.867908623,7.318145406,3.629241153,136.9900001,0.840000004,71.60142667,150.6285707,0,7.793571472,145.6157139,39.85928573,112.0157138,18.39395777,18.46565301,20.1607481,20.70593221,19.87326009,21.97749135,18.06982858,17.46468943,16.31914076,19.5254839,22.76714298,27.16554273,29.60936822,31.6271427,32.32420578,29.51628185,29.85375934,27.04843165,7.99741943,14.14714282,16.43732974,18.81172612,21.79964249,20.71007941,19.44316189,19.21155699,15.91814144,7.992986492,11.1555316,14.00535673,16.26359619,18.7133926,18.51714259,16.54699664,16.60044059,13.86670431,0.872361758,1,1,1,1,1,1,0.995607144,38.89791675,-92.20952075,2018,MOH1
PHN11_PHW65_0323/LH195,IAH3_2015,Y,22.5,694.4364337,0.5,1,258.5,133.5,65,64,1.888124991,2.913571392,3.784813995,6.971928843,0,3.257500064,1.487385228,2.541446469,4.507444947,60.41999972,40.78999949,55.43999982,241.6600003,0,32.57500064,50.31437471,24.68500039,138.7756267,19.80172794,20.03998334,15.9141292,20.68283491,21.69136486,21.24428636,20.63784564,18.68301758,14.92198489,14.64187506,16.6814285,21.6371088,27.61372247,30.87885427,30.3035625,28.596254,28.51656267,24.33389908,0.83250004,3.600714236,12.24542872,16.05178152,19.47364565,18.11006255,15.99319583,14.30373217,10.64901215,4.605131548,5.787499831,10.11465775,14.1164012,17.17624996,16.25391669,14.57670766,13.97583386,10.87542788,0.501462055,0.634540813,0.981270753,1,1,1,0.968879463,0.933929792,41.97585629,-92.24291804,2015,IAH3
B14A/H95,MIH1_2018,Y,25.45,680.2773961,0,4.5,224,108.5,68.5,66,5.012258064,1.858571376,2.303311915,3.259516918,0,1.604151199,2.926198314,4.215530212,2.830074039,155.38,13.00999963,29.79071396,101.4421425,0,18.16214306,122.3414291,36.1057143,85.34142821,19.78619528,22.4124418,25.08845985,20.26124585,21.4032747,19.63779009,17.59687557,14.64655727,11.33533343,19.08258061,24.4042857,26.50594484,29.85917276,29.20761908,28.94024759,27.00181445,23.87253837,17.74080494,7.633548365,11.57000004,11.5577044,16.90410614,16.77238059,17.0588351,14.06431329,11.77329027,6.160183734,7.985580948,11.08545818,11.96011996,15.51317333,15.06763476,15.11768347,13.15911947,11.00371024,6.94989994,0.750656678,0.993928569,1,1,1,0.982067155,0.951173414,0.716707841,42.689234,-84.49755575,2018,MIH1
LH198/PHZ51,MOH1_2017,N,16.275,731.1212129,0.75,5.75,258.75,127,62.25,61.5,8.937741737,9.40166688,2.512230721,3.318030003,5.035714369,1.794490762,1.996986524,1.220079397,1.67255761,277.0699939,56.41000128,33.26619119,103.9014299,11.93095259,15.87761924,65.30142803,7.334762096,51.25476209,18.72482054,18.08832916,22.62422694,21.00800173,18.77514496,19.93438148,19.70533138,19.36646121,17.34329115,21.92032254,25.32999992,25.47495036,29.30087203,30.46650729,32.25412016,29.92026774,28.22145964,28.04827898,10.06000005,15.27666648,12.99827088,17.39768618,19.78222205,21.21359122,18.70404881,16.33857143,14.9717184,9.612847321,12.76903024,11.94928206,15.49761919,17.12130987,18.67277384,16.20463701,14.48208578,13.92850008,0.915472353,1,1,1,1,1,1,0.999239796,38.89264,-92.2057525,2017,MOH1
TX951/LH195,MOH2_2015,N,18.75,731.1212129,0,0.5,247.5,132.5,75.5,74,3.914838722,3.534545422,2.891676029,5.446623968,2.505882375,1.1137255,5.068586465,0.980448186,4.011119538,121.3600004,38.87999964,35.23176398,173.6929392,5.011764751,10.0235295,148.9223525,6.487058864,124.3447057,19.08701148,18.12534948,17.16717858,21.59629129,16.88945411,20.34516158,18.32895435,19.90608894,16.95494386,18.756129,18.24727275,23.87322904,29.02836507,30.59176479,31.93248319,30.27285599,28.73220747,28.34062618,6.152580692,8.059091026,15.30129973,17.80114352,21.94705907,21.39261428,20.17023127,17.40519331,17.20941189,7.288196993,7.58478923,12.05891064,15.51775091,18.26941193,18.66254873,17.2518739,15.21359182,14.97078901,0.75554147,0.814935086,1,1,1,1,1,1,38.89807917,-92.2079,2015,MOH2
PHP02/PHB47,GAH1_2016,N,13.9,693.1492485,3,2.5,205,90,55,55,6.466250051,4.395000041,0.566421492,2.549627568,3.17469698,5.859943136,4.096967014,2.330999996,2.476261007,206.9200016,35.16000032,6.21000006,86.0200003,9.52409094,52.42727233,105.6731797,11.65499998,76.76409122,15.95696127,18.25385642,20.33100053,20.74024209,20.01064868,19.54302735,19.38198769,19.26953352,18.21451922,23.62687498,22.98249984,28.56134937,29.4983659,33.37075638,32.62719045,33.25026907,34.51499955,33.94928126,11.29749997,10.47000009,15.64744728,16.2846205,20.78287862,20.61269551,21.56927107,22.51809092,22.40467728,10.53971422,9.962440438,14.36481163,15.11313475,19.02952924,18.56859265,19.26668195,20.34390963,19.99415841,0.993928569,1,1,1,1,1,1,1,31.5079175,-83.55854775,2016,GAH1
PHG29/PHG47,IAH3_2017,Y,15.7,756.8649175,0,2,229,110,65,64,4.153750014,4.476666673,3.404720357,2.207347727,0.783636364,2.628276904,1.892687593,2.328876272,1.794257086,132.9200004,67.1500001,54.03954627,78.33863542,1.567272728,28.02681865,71.85545488,19.05045461,54.69545453,16.14493189,17.75127989,18.89303832,22.07985964,20.54923199,20.99384486,19.81852315,17.22919489,15.64326955,15.84312499,15.5066665,21.42652578,27.714982,28.45522753,29.90074383,27.6545798,25.64720852,25.13760955,4.41906251,4.141333344,9.782295063,13.56526933,16.05901469,16.6123348,14.8096002,12.74600627,11.28191352,5.818880471,5.62230391,9.387130072,13.2881535,14.4256186,15.3843105,13.65871261,11.89796048,11.29223634,0.568604913,0.570380948,0.879734313,1,1,1,1,0.979205627,41.9758706,-92.24318881,2017,IAH3
LH195/PHN37,ONH1_2016,N,27.95,646.81058,0,2,226.5,118.5,84.5,80.5,1.979032247,2.105714291,0.92181366,1.439738287,4.720833318,2.435439396,4.62931563,1.31185227,2.043303741,61.34999967,29.48000008,13.31600007,60.28400005,10.99249999,28.54150001,172.0475013,11.37649985,61.38049932,20.24883872,21.56727634,23.77365349,22.41142308,19.3081847,20.61473607,17.12813691,15.31534219,11.6349499,10.49290321,16.47999988,25.01561457,25.51466922,28.22516696,27.99415914,27.31356147,24.49017951,20.3886015,-0.735806467,3.753571405,10.93050922,11.61184699,15.55325019,14.71775745,15.07244109,12.71620509,9.185787659,3.269306411,5.688768484,11.09209761,11.56175859,14.2216101,13.76399544,13.57642435,11.5133866,8.776899495,0.291105988,0.684668367,0.99891379,0.988093962,1,0.998165816,0.971212584,0.877977401,43.4997965,-80.451125,2016,ONH1
B14A/MO17,NCH1_2017,N,15.65,731.1212129,0,10.5,217,106.5,65,64,5.929354779,4.097142833,0.297958702,3.860588722,6.673809642,5.437090039,2.513672686,1.67758051,4.140460835,183.8099982,28.67999983,4.023333254,115.8195228,10.90952401,51.84571517,65.15761944,9.68857149,128.3542859,16.84796118,19.66078799,22.20077414,19.20396089,15.77249108,20.54839894,18.7994723,19.26606379,16.40835168,26.07000006,23.57857159,28.17011276,29.72614366,31.01404729,30.48814813,32.54721675,31.95695904,30.43138246,13.64064524,11.25142826,15.69757802,18.87536398,22.57674573,19.84793622,22.28039625,21.2748593,20.81350234,12.56442422,10.48784987,14.26665949,16.36044911,18.79940835,17.21144066,19.38557496,18.57336573,17.65269876,0.998329492,1,1,1,1,1,1,1,35.29663725,-77.5668065,2017,NCH1
B14A/H95,INH1_2018,Y,20.575,897.1037488,1,2,250.5,125.5,65,63.5,2.767096756,4.68454543,2.7337539,2.608245307,0.180000007,3.094468228,3.412660528,0.546071422,1.653962344,85.77999943,51.52999973,31.28214284,86.61642764,0.256428582,29.52071404,116.6621433,3.926428522,50.80214219,18.97651723,17.84080185,18.4751702,21.91502565,21.1577316,19.53552192,18.82147066,19.16946561,15.73843824,16.02451609,18.1199998,25.33039297,28.95851984,31.36964308,31.15694425,28.16765345,28.4284546,26.00206774,3.260645186,6.861818249,15.08608447,16.0398559,19.18499974,18.88806934,16.73005964,15.8360335,13.18834038,5.572938243,7.259226835,12.75390782,14.76719288,17.27732141,17.05840253,14.63863294,14.40004061,12.39915253,0.613732714,0.707012975,1,1,1,1,1,0.979968538,40.4787825,-86.9898145,2018,INH1
PHB47/PHZ51,NEH4_2015,N,14.36666667,796.3385981,0,2,253.3333333,120,65,53.66666667,2.821875036,0,3.668207424,2.0125769,1.951249957,2.654893884,1.684158262,0.190010425,1.166079967,90.30000114,0,33.89000034,59.04687595,1.951249957,28.04999942,59.1787506,1.401875056,35.09749981,18.84220009,27.31064491,20.41342533,20.52862815,19.03072298,18.81303122,18.33826559,17.15407273,12.68489203,24.01437524,30.79399948,29.66091772,30.90712841,30.81250072,28.65153035,29.50292414,26.73776808,20.93262179,13.35843744,15.59799976,18.4981335,19.26878801,20.26031268,17.34358901,16.24316685,11.04417556,7.09840123,11.80342709,15.44887437,16.14310254,17.09436255,17.53736601,15.18702607,15.25106182,11.88303257,8.618375536,0.931774556,1,1,1,1,0.97284651,0.984144349,0.784438609,41.16732275,-96.41663225,2015,NEH4
LH195/PHZ51,IAH1_2015,Y,19.5,723.0763052,2,9,275.5,145.25,65,64,1.566451638,2.213076954,8.402418557,1.323463692,0.084411761,2.297359398,2.93999255,2.37101191,2.732793763,48.56000078,28.7700004,122.1399999,43.52999979,0.168823523,22.82352863,100.1182349,16.67000003,83.81294001,20.43214903,18.85811498,14.63317728,22.31276759,19.14227258,22.20806523,19.83862588,18.33763158,15.0581957,16.08774191,16.64538457,21.84697853,28.7334183,30.26852911,31.30747052,29.05105531,29.39636272,24.66946357,1.839032284,4.865384661,13.12892854,16.86768962,20.05941139,18.05705196,16.3929614,15.43749916,11.17229855,5.447129731,6.098188577,10.48240964,14.99632473,17.16639266,16.72884186,14.96924927,14.77137221,11.30644361,0.593087559,0.682994502,0.988452545,1,1,0.997626801,1,0.896934674,41.9980952,-93.69336973,2015,IAH1
F42/H95,TXH3_2020,N,11.525,764.9098253,0,2,239.395,87.63,62,60.75,3.45875001,5.345714297,0.996479651,4.090893152,11.37176514,0.055555557,3.334418123,0.880352915,2.226110039,110.6800003,37.42000008,12.08058808,124.9758839,22.74353027,0.450000013,88.32823513,3.714117541,69.00941121,15.8034201,18.34009743,21.30541133,19.40762275,20.16580067,20.62125497,19.02899565,16.94703156,18.75160362,25.77062485,24.00285694,27.63577502,29.95402965,30.19186265,32.38063702,33.36328143,35.03835301,35.63206825,14.19906271,12.24428552,13.92062761,17.60156859,18.33921522,21.14142164,21.88591696,25.71364726,24.34760913,12.60372436,11.20425028,13.29865333,15.96364287,16.27361839,18.69618421,19.4144726,21.47019646,20.81901077,0.989866069,1,1,1,1,0.99995416,0.999321567,0.998827006,30.53869475,-96.4274175,2020,TXH3
PHN11_PHG47_0251/PHB47,WIH2_2017,Y,19.3,763.3008437,0,2,237.5,103.5,74,74,5.048709616,4.636666616,1.142383575,5.763857885,8.001590729,6.160048604,1.607776433,1.167726513,2.257555268,156.5099981,41.72999954,17.5799998,219.3963643,12.14409065,74.04090792,72.28863683,15.04409093,68.0204557,18.1690344,19.72049554,20.64727683,20.23287988,19.13163679,19.37493243,18.51401576,14.93340477,10.89478233,16.03129027,21.86555545,22.15746071,26.59689143,27.90045501,26.76799254,24.73062069,22.38533393,20.51274781,3.24419354,8.791111098,9.553497601,14.54337319,16.81037892,15.37831158,12.19271258,9.193202486,7.868866577,5.438218202,9.209131236,9.451203107,13.05708411,14.51682301,13.37610723,11.31306373,9.686333754,8.853113959,0.624158991,0.847976183,0.950288768,1,1,0.998699911,0.954544862,0.834596302,43.3246415,-89.33688775,2017,WIH2
PHN11_OH43_0001/PHB47,MIH1_2016,Y,19,672.5542847,0,1.5,236.5,116.5,61,60.5,3.213870927,0.372000003,1.277668238,2.072144594,0.204761899,2.382636341,6.277866916,3.129595251,4.115734243,99.62999874,1.860000014,16.77857134,74.4033328,0.614285696,24.34142835,217.3680916,23.88571438,123.5814282,20.04481233,22.69628944,22.57460654,21.19066928,19.62511718,19.41470496,17.43536011,14.16523572,12.41239439,17.74322581,29.20999985,25.57947765,28.1508514,27.23547651,30.32783564,28.27294529,26.6388532,22.50219404,5.299677434,16.33600006,11.90361174,14.70447611,15.74579377,17.52671,16.25511672,15.58650841,10.86825081,6.615827776,14.89908974,11.62365975,13.82943527,13.70908531,16.01583991,14.48649579,13.48265,10.09129455,0.734400922,1,1,1,1,0.999987733,0.99326559,0.936590208,42.41206675,-84.2952625,2016,MIH1
PB80/PHZ51,TXH1_2015,N,10.675,752.6815655,0,2,179.5,88.25,67.25,66.25,2.435333351,0.886666695,4.529386736,2.992210444,0,5.407499953,3.236240411,4.528416659,2.205666663,73.06000052,5.320000172,54.16999972,113.7899998,0,59.48249948,89.11249819,24.54499996,66.1699999,13.38128519,15.80308406,13.73749678,19.48289484,22.46598899,19.96463979,19.54848583,19.57031498,18.03135075,19.61999995,26.26833312,25.8489028,26.4780255,30.37177098,28.79539756,31.9014052,33.48070828,34.35516661,6.122333375,12.74499997,15.39155332,13.69439061,15.83385423,15.9580683,20.41172374,21.45270844,23.93220836,7.516768444,12.28221354,13.06030889,12.7550996,15.35592881,14.67426974,18.11040569,19.30603111,20.37775841,0.822428569,1,0.992325397,0.994092815,1,1,1,0.999431249,30.54708625,-96.43393475,2015,TXH1
PHB47/PHN82,NEH3_2015,N,13.5,786.4701779,0,0,229,110,65,64,3.231250057,0.918000031,0.565093977,1.286692195,3.19749999,1.391136354,0.258061221,1.474667183,0.155891338,103.4000018,4.590000153,6.150000095,39.04749978,4.720000029,15.30249989,11.17999983,14.52874985,4.648125023,21.79127574,25.69442635,22.86725485,21.82271665,15.26317632,20.59079,20.06412842,16.27968968,13.53861776,24.28750017,32.64599991,30.58771447,32.67731329,28.91593772,29.87238656,30.80707127,25.39031645,21.32018275,9.278749934,13.0079998,13.8828633,15.7826582,17.05531204,14.62710229,13.18313307,8.87540479,3.334017086,10.46257825,15.28330691,14.45465852,16.22005678,15.0938879,14.496454,14.53020136,10.90039565,7.851747396,0.909587052,1,1,1,1,0.965712824,0.862507779,0.80953931,41.15824525,-101.9872958,2015,NEH3
B73/PHM49,TXH3_2019,N,10.67,803.7570756,0,0,220,86.5,71,70,1.71448275,0.072857141,3.656594302,9.095434564,0.409285716,1.207678571,5.355850783,1.246142852,1.574419343,49.71999974,0.50999999,52.00785631,328.2121388,0.592857139,9.661428571,146.4478573,6.531428533,47.51499965,15.42805705,20.52131135,18.76898834,18.57032559,21.42349659,18.85281525,20.14881361,21.03072751,19.84089234,18.45000007,25.76428577,24.43254944,27.27586732,31.09000002,32.37866099,32.72435205,34.04471448,34.98200776,6.826206914,10.35000004,10.67963154,14.78766739,18.65857179,21.85071427,21.02442735,21.79614282,22.6049739,7.457816468,11.1589152,10.85119479,13.46630403,16.91193677,19.11412105,18.84765314,19.77807102,20.01419559,0.749667494,1,0.945308164,1,1,1,1,0.999698925,30.546318,-96.4329965,2019,TXH3
TX714/TX779,GAH2_2020,Y,15.575,755.255936,0.5,44.25,236.25,138.5,65.25,63.75,4.57387094,0.441111114,8.353941854,2.596292498,5.733571683,2.103095203,2.179001438,2.485142878,3.918548365,141.7899991,3.970000029,91.39071568,80.77428585,11.41500051,18.92785683,57.71499962,12.42571439,121.4749993,20.66171874,23.27184486,17.58943298,19.5164109,18.75300796,20.35385684,20.26001561,17.11426864,16.01109332,24.32935487,22.81222216,27.25049476,29.76903398,31.23452386,32.73428517,34.13891635,33.4245718,31.64458511,9.683548431,7.437777784,15.07002369,18.41195949,20.46821458,20.95039675,21.2406723,21.91714281,20.83905522,10.34437265,8.95024402,13.55540875,16.15181668,17.85136922,18.84234096,19.40061188,19.58004094,18.23728962,0.993479262,1,1,1,1,1,1,1,33.72355555,-83.30265185,2020,GAH2
LH198/PHZ51,DEH1_2015,Y,18.75,721.4673236,0,0,251,114.5,64,62.5,2.877187484,6.848000002,1.658122271,2.899811139,0.533124998,6.398055441,4.542065261,4.666333417,5.694818618,92.06999949,68.48000002,26.86312445,94.40374921,0.778750002,57.58249897,115.8581242,26.73625046,176.5393772,18.09789148,17.20138936,20.11151884,21.0089777,21.53492481,19.24730516,17.70191113,15.05628078,15.14846735,16.82656264,19.24400005,20.72376954,27.68890342,31.56656283,31.86354174,32.09465687,30.43364003,29.09395151,6.265937505,9.858999991,10.7453803,17.67876376,20.38750017,21.35659703,22.77220607,22.28250884,20.56647162,6.521960329,8.412914767,9.229957748,14.85993723,17.9770315,18.58170739,19.36170697,18.35807444,16.86736745,0.750435273,0.870857151,0.962682184,1,1,1,1,1,38.62935675,-75.4656925,2015,DEH1
B14A/H95,MOH1_2016,N,18.4,731.1212129,0.5,1.5,257.5,127.5,59,58,2.465483877,8.058000231,0.264259377,6.282521268,1.94553035,9.25680559,4.358907121,3.354664451,5.453130527,76.43000019,40.29000115,2.879999995,172.8372758,4.262727369,83.20363667,125.2090916,21.13363606,168.2240918,20.2309363,16.93509369,22.49829557,20.20959989,18.68177986,19.21408964,18.0090922,17.17714413,15.87534947,21.83193548,27.56600037,27.88644765,31.21215235,30.25795442,31.2505745,30.57423065,29.80077912,28.25339236,10.073871,16.74400005,16.26474463,19.86215984,19.98371223,20.49117413,20.76153791,19.91431794,17.56318368,9.497798547,14.24343349,14.21296425,17.47336946,17.12232598,17.8699151,17.65104862,16.90998551,15.09561117,0.937315665,1,1,1,1,1,1,0.999442641,38.8955475,-92.2072025,2016,MOH1
B73/MO17,ILH1_2015,Y,11.65,708.5954713,0,2,265,135,70,69,4.343437491,1.296153843,7.654899739,5.34311295,3.674999952,2.467291633,4.647268051,0.712819956,1.951907909,138.9899997,16.84999996,99.86750055,177.342501,7.349999905,22.2056247,144.0256246,5.039375113,60.06187434,19.4076893,20.21820178,17.58012378,22.59231729,17.35775694,20.12242863,18.79551315,20.37165926,16.80998738,15.69375022,16.27615364,23.81483975,28.77428317,30.28249967,31.91701372,28.65899596,28.4854072,27.09877011,2.916875011,4.602307732,13.93389792,16.26044709,20.47749984,20.41381959,17.79543547,15.77196732,14.62672175,5.339800043,5.921635642,11.53105666,14.7484369,17.37999976,18.17178164,15.31569586,14.44648847,13.36421336,0.599162964,0.636840646,1,1,1,1,1,0.99828125,40.05982425,-88.23397575,2015,ILH1
B37/OH43,GAH2_2017,N,17.5,736.2699538,35,3,164,110,55,55,5.215806507,2.59000005,0.877047008,6.976424555,36.66571527,11.68990473,2.766634194,6.717714339,5.237281131,161.6900017,18.13000035,10.98809533,219.4985743,69.630002,116.6428568,77.55666748,33.5885717,162.3557151,18.59375843,20.97986943,21.98193589,18.54567619,14.33990901,17.7663424,19.78523868,18.86354985,17.57616326,25.93516134,24.17571449,30.47339418,29.31252372,29.52904774,29.72980419,32.72601502,32.10511542,30.76784952,12.17225799,9.938571385,16.15324828,18.06353156,20.43476164,19.51114297,21.20992787,20.86352373,19.95543778,11.90954616,10.38538115,15.45655397,15.75249851,16.98190469,16.63412837,18.90169131,18.47155665,17.41241638,0.999631335,0.985714285,1,1,1,1,1,1,33.727145,-83.29821525,2017,GAH2
PB80/PHZ51,ARH1_2017,N,12.8,644.2362096,0,2,217.15,105.4,68.5,68.5,3.058125025,3.532857077,9.871688678,6.405160528,0.516363615,5.988171668,5.119232493,3.102318153,5.34158356,97.86000079,24.72999954,132.0327285,211.6218184,0.569545432,54.36818138,136.8913653,16.08272713,165.5890903,17.13974981,16.55343887,20.38424011,18.76225527,22.81364793,19.06964508,19.53553475,19.77193111,17.12972935,24.60906261,23.96000045,24.77057006,28.06605652,30.35469691,31.5146664,31.30577636,32.78459133,30.91587993,11.9175,14.17857156,11.8445801,17.60850246,18.97249995,21.30615642,21.39979275,22.50533316,21.62237538,11.1639709,11.77578055,11.22655186,14.97537354,16.74359516,18.41041141,18.33049426,19.54768126,18.22457608,1,1,1,1,1,1,1,1,34.7272515,-90.76032575,2017,ARH1
PHW52/PHM49,NYH1_2018,Y,21.35,731.1212129,0.5,3,226.5,100,67,67,4.394516057,1.637142931,0.546464292,3.461265884,6.062261837,4.338061718,2.067540981,1.177456758,2.359527655,136.2299978,11.46000051,7.340000123,113.5449994,14.95785693,45.27285745,83.63714323,15.50214277,71.28500016,21.14905797,19.51909583,22.50012197,20.49014312,17.37909559,18.62357236,17.54437735,14.42309006,11.11333684,16.43838702,24.34714304,24.48084385,28.4079325,28.47095262,28.85558784,26.25577716,21.21730113,17.53723965,4.181612903,13.18428578,11.78804566,16.02970596,18.15166677,17.53428468,14.37510127,9.649634667,6.532510054,6.046172102,11.82070517,11.18993529,14.50776692,15.35223703,15.26441478,12.8637381,9.179788733,7.084201569,0.564688941,0.946581643,0.98880424,0.99833546,1,0.984010821,0.898581807,0.740508559,42.72940418,-76.65161667,2018,NYH1
LH74/PHN82,OHH1_2015,N,13.7,775.5291034,0,0,234,107,61,63,4.820000016,2.056666652,1.801667061,2.430255425,2.070588264,2.75488235,3.664772063,1.623969288,1.874022108,149.4200005,12.33999991,20.27235275,82.00588303,2.23529414,26.29176468,128.0200007,12.16764697,57.18411674,17.71339239,20.831882,20.85048625,20.93566426,20.28419298,19.59839119,17.66236547,17.23782846,14.83481447,16.95064511,28.03666687,26.64173705,29.01382079,31.07970569,30.59522857,27.99762273,26.69097183,23.34659959,5.9283871,15.42166694,14.66308043,16.74801267,19.23764672,18.74322206,16.69895781,13.90980629,10.26308727,6.580773377,14.04730329,13.19467995,15.08203889,17.16864649,16.69143216,14.53513226,12.92347397,10.29932856,0.672569122,1,1,1,1,1,0.994932126,0.947361455,39.855785,-83.66477375,2015,OHH1
B73/MO17,MIH1_2016,N,20.4,693.1492485,0,20.5,229,132,64,63.5,3.213870927,0.372000003,1.277668238,2.072144594,0.204761899,2.382636341,6.277866916,3.129595251,4.115734243,99.62999874,1.860000014,16.77857134,74.4033328,0.614285696,24.34142835,217.3680916,23.88571438,123.5814282,20.04481233,22.69628944,22.57460654,21.19066928,19.62511718,19.41470496,17.43536011,14.16523572,12.41239439,17.74322581,29.20999985,25.57947765,28.1508514,27.23547651,30.32783564,28.27294529,26.6388532,22.50219404,5.299677434,16.33600006,11.90361174,14.70447611,15.74579377,17.52671,16.25511672,15.58650841,10.86825081,6.615827776,14.89908974,11.62365975,13.82943527,13.70908531,16.01583991,14.48649579,13.48265,10.09129455,0.734400922,1,1,1,1,0.999987733,0.99326559,0.936590208,42.41206675,-84.2952625,2016,MIH1
LH195/LH82,NCH1_2017,N,16.25,731.1212129,0,1.5,176,86,65,64,5.929354779,4.097142833,0.297958702,3.860588722,6.673809642,5.437090039,2.513672686,1.67758051,4.140460835,183.8099982,28.67999983,4.023333254,115.8195228,10.90952401,51.84571517,65.15761944,9.68857149,128.3542859,16.84796118,19.66078799,22.20077414,19.20396089,15.77249108,20.54839894,18.7994723,19.26606379,16.40835168,26.07000006,23.57857159,28.17011276,29.72614366,31.01404729,30.48814813,32.54721675,31.95695904,30.43138246,13.64064524,11.25142826,15.69757802,18.87536398,22.57674573,19.84793622,22.28039625,21.2748593,20.81350234,12.56442422,10.48784987,14.26665949,16.36044911,18.79940835,17.21144066,19.38557496,18.57336573,17.65269876,0.998329492,1,1,1,1,1,1,1,35.29663725,-77.5668065,2017,NCH1
F42/H95,ILH1_2019,N,16.9,829.5908833,0,0,232.5,143,63,61,3.922903261,5.481666605,1.00366755,4.244691953,0.864761892,1.289377346,1.227411081,2.864647074,2.116070648,121.6100011,32.88999963,10.01785682,147.0385723,1.34571428,11.77428573,45.42428628,20.70571404,64.49999962,18.80145381,19.65322081,22.67392072,19.84274881,20.61125065,20.0231267,19.28032854,15.59344345,14.97056188,19.78774188,27.49499989,27.66771062,28.39175175,31.90428638,30.86753304,28.53869606,27.75133519,26.64299619,8.822580737,16.11666648,15.73801632,17.44140675,20.6435711,19.81749468,16.71837596,16.74759351,14.38373492,8.392897398,14.01107102,13.933587,15.08804109,18.28423173,17.40393302,14.78980986,14.45116262,13.1086535,0.871382484,1,1,1,1,1,1,0.979387755,40.0587105,-88.2298385,2019,ILH1
F42/MO17,MOH2_2015,N,15.35,731.1212129,0,0,217.5,105,74,71,3.914838722,3.534545422,2.891676029,5.446623968,2.505882375,1.1137255,5.068586465,0.980448186,4.011119538,121.3600004,38.87999964,35.23176398,173.6929392,5.011764751,10.0235295,148.9223525,6.487058864,124.3447057,19.08701148,18.12534948,17.16717858,21.59629129,16.88945411,20.34516158,18.32895435,19.90608894,16.95494386,18.756129,18.24727275,23.87322904,29.02836507,30.59176479,31.93248319,30.27285599,28.73220747,28.34062618,6.152580692,8.059091026,15.30129973,17.80114352,21.94705907,21.39261428,20.17023127,17.40519331,17.20941189,7.288196993,7.58478923,12.05891064,15.51775091,18.26941193,18.66254873,17.2518739,15.21359182,14.97078901,0.75554147,0.814935086,1,1,1,1,1,1,38.89807917,-92.2079,2015,MOH2
PHB47/PHZ51,ONH1_2017,N,22.9,692.1838595,0,5.25,248.25,118.75,70.5,70,4.42290319,4.904999876,1.545173221,3.420435244,1.695375006,2.594700004,1.855534774,1.54565171,2.383111348,137.1099989,49.04999876,23.52600009,140.8034994,5.378000009,36.46150006,95.23350107,29.85300009,72.44250006,18.65662235,17.08545341,23.10813164,20.12586768,18.11232318,19.44819915,16.33652997,11.62209215,7.957733996,13.94322577,18.20700026,22.35689536,24.80045755,25.17183321,25.2296929,22.79396283,22.13957367,13.29532023,3.578387066,9.706999969,10.10387851,14.12185296,14.82349991,13.63261195,10.3904862,9.847475595,3.166289439,4.958212412,8.025894563,9.659097931,11.97096233,12.35740613,11.98311106,9.953455995,10.0654016,5.273375752,0.439723498,0.877642858,1,1,1,0.972410901,0.840292505,0.515578473,43.49546,-80.42596875,2017,ONH1
B73/PHN82,TXH2_2020,N,16.625,753.9687508,0,2,191.77,61.595,67.25,69,2.284333333,0,4.621906019,2.982124861,1.655000005,6.689114015,2.894056698,2.615892851,2.528400138,68.53,0,55.88714266,111.3664289,1.655000005,70.91857161,82.98143064,12.87071426,76.16571382,13.91343843,13.3863348,15.08661116,19.80328892,19.03358821,19.2160028,19.61198116,21.5690046,17.9190584,20.02266652,27.17999992,26.59088772,26.49063582,29.80749984,29.13094588,32.17534358,33.00407163,34.57616138,6.794333295,17.20400028,15.22554111,13.60666406,17.96904786,16.63267817,20.78659354,19.79317827,24.13923583,7.901247141,14.27292515,13.36557264,12.73068931,16.08957262,15.12192719,18.39831967,18.39239984,20.46927813,0.821357143,1,0.992404768,0.99375244,1,1,1,0.999043315,30.53825625,-96.42790225,2020,TXH2
B73/PHZ51,TXH1_2015,N,10.8,740.7751021,0,2,171.5,95.5,67,66,2.435333351,0.886666695,4.529386736,2.992210444,0,5.407499953,3.236240411,4.528416659,2.205666663,73.06000052,5.320000172,54.16999972,113.7899998,0,59.48249948,89.11249819,24.54499996,66.1699999,13.38128519,15.80308406,13.73749678,19.48289484,22.46598899,19.96463979,19.54848583,19.57031498,18.03135075,19.61999995,26.26833312,25.8489028,26.4780255,30.37177098,28.79539756,31.9014052,33.48070828,34.35516661,6.122333375,12.74499997,15.39155332,13.69439061,15.83385423,15.9580683,20.41172374,21.45270844,23.93220836,7.516768444,12.28221354,13.06030889,12.7550996,15.35592881,14.67426974,18.11040569,19.30603111,20.37775841,0.822428569,1,0.992325397,0.994092815,1,1,1,0.999431249,30.54708625,-96.43393475,2015,TXH1
PHW52/PHN82,DEH1_2019,Y,20.925,708.273675,0,0.75,237.5,111,59.75,58.75,4.885483834,0.129999995,2.22754366,2.838879743,7.092619056,13.09007943,2.376059147,7.246095167,5.291338731,151.4499989,1.169999957,29.41999924,87.75142762,13.32785715,117.8107149,70.17642808,38.82285679,163.7607149,18.09422633,22.52754413,19.09832956,21.10549391,16.87992425,18.38683534,17.43790908,14.47643482,15.18822094,17.49129031,20.55777783,23.08374535,28.61102885,30.70333358,31.53571423,31.96636291,30.10673826,28.44137569,7.04516129,9.184444467,14.30050877,18.34149326,20.74333359,21.70119062,22.68293302,22.03347627,19.57253904,6.992168387,8.735510177,11.41430501,15.6056687,17.71122979,18.59296506,19.259015,18.07354239,16.13042035,0.769815656,0.948412699,0.988507504,1,1,1,1,1,38.670675,-75.433225,2019,DEH1
W10004_0216/PHZ51,MOH2_2015,N,14.6,731.1212129,0,0,270,145,71,71,3.914838722,3.534545422,2.891676029,5.446623968,2.505882375,1.1137255,5.068586465,0.980448186,4.011119538,121.3600004,38.87999964,35.23176398,173.6929392,5.011764751,10.0235295,148.9223525,6.487058864,124.3447057,19.08701148,18.12534948,17.16717858,21.59629129,16.88945411,20.34516158,18.32895435,19.90608894,16.95494386,18.756129,18.24727275,23.87322904,29.02836507,30.59176479,31.93248319,30.27285599,28.73220747,28.34062618,6.152580692,8.059091026,15.30129973,17.80114352,21.94705907,21.39261428,20.17023127,17.40519331,17.20941189,7.288196993,7.58478923,12.05891064,15.51775091,18.26941193,18.66254873,17.2518739,15.21359182,14.97078901,0.75554147,0.814935086,1,1,1,1,1,1,38.89807917,-92.2079,2015,MOH2
B73/MO17,TXH3_2020,N,10.37666667,1075.657794,0,2,246.8033333,103.7166667,62.66666667,60.83333333,3.45875001,5.345714297,0.996479651,4.090893152,11.37176514,0.055555557,3.334418123,0.880352915,2.226110039,110.6800003,37.42000008,12.08058808,124.9758839,22.74353027,0.450000013,88.32823513,3.714117541,69.00941121,15.8034201,18.34009743,21.30541133,19.40762275,20.16580067,20.62125497,19.02899565,16.94703156,18.75160362,25.77062485,24.00285694,27.63577502,29.95402965,30.19186265,32.38063702,33.36328143,35.03835301,35.63206825,14.19906271,12.24428552,13.92062761,17.60156859,18.33921522,21.14142164,21.88591696,25.71364726,24.34760913,12.60372436,11.20425028,13.29865333,15.96364287,16.27361839,18.69618421,19.4144726,21.47019646,20.81901077,0.989866069,1,1,1,1,0.99995416,0.999321567,0.998827006,30.53869475,-96.4274175,2020,TXH3
LH74/PHN82,NEH1_2015,N,14.05,794.8368819,0,2,200,100,65,57,2.959062506,0.753999996,4.745632833,2.187040691,0.179999996,3.601448917,1.548000793,0.057812502,1.589214364,94.69000018,3.769999981,46.84999943,63.50812512,0.239999995,39.12187557,55.49499987,0.586250016,47.85812447,19.07194562,25.84699936,20.00593662,19.96245842,20.96463704,17.86296284,18.31175333,17.30405645,12.3794141,23.74906254,30.51399994,29.13009987,30.74148671,30.73750019,28.43858622,29.13031746,26.88374984,20.12342532,13.19218739,15.46999989,18.04036499,19.18092822,19.11281252,17.33248289,15.92131484,11.1533021,6.525200269,11.64481375,15.25955733,15.68336601,16.96891106,16.93845514,15.07345461,14.95183393,12.01070089,8.15887847,0.924598212,1,1,1,1,0.96969665,0.982957588,0.758540943,41.290979,-96.41664325,2015,NEH1
F42/H95,SCH1_2018,N,15.29,731.1212129,0,2,196.5,110,65,63.5,5.509375073,3.372500002,5.775327928,7.728127661,4.71095229,3.130603142,3.123485158,2.01328566,5.79306447,176.3000023,26.98000002,97.60999952,245.6735731,5.415714213,31.8442854,83.93428482,10.53785687,179.5849986,18.64772365,19.28692877,21.1730546,18.16318131,18.84742333,19.2548603,19.994513,19.31783344,16.30139442,22.53906247,22.53374982,23.09020479,27.61870045,28.0654766,28.90856809,32.58479132,33.48333298,31.1168664,9.301562469,9.311250091,8.762400081,17.50665347,16.7615475,18.38295894,21.20797915,21.67128537,20.80767273,9.591191253,9.400074843,9.574505228,14.76793775,14.51962258,15.72381397,18.86169653,19.45105318,17.96288574,0.951841518,1,0.982626499,0.991514695,1,1,1,1,34.6223015,-82.7364835,2018,SCH1
B37/MO17,GAH2_2020,N,14.975,713.4224159,13.25,21.75,266,131.5,63.25,61.75,4.57387094,0.441111114,8.353941854,2.596292498,5.733571683,2.103095203,2.179001438,2.485142878,3.918548365,141.7899991,3.970000029,91.39071568,80.77428585,11.41500051,18.92785683,57.71499962,12.42571439,121.4749993,20.66171874,23.27184486,17.58943298,19.5164109,18.75300796,20.35385684,20.26001561,17.11426864,16.01109332,24.32935487,22.81222216,27.25049476,29.76903398,31.23452386,32.73428517,34.13891635,33.4245718,31.64458511,9.683548431,7.437777784,15.07002369,18.41195949,20.46821458,20.95039675,21.2406723,21.91714281,20.83905522,10.34437265,8.95024402,13.55540875,16.15181668,17.85136922,18.84234096,19.40061188,19.58004094,18.23728962,0.993479262,1,1,1,1,1,1,1,33.72355555,-83.30265185,2020,GAH2
B37/H95,NCH1_2018,Y,17.85,731.1212129,1,2,215.5,107,56,55,4.157741868,0,6.852651043,4.101575565,0.281428576,2.753968325,7.265916583,9.606714405,8.963617552,128.8899979,0,78.76714403,125.545715,0.410714286,22.4842863,196.6735732,49.18571489,277.8721441,19.15814344,24.86455965,15.13897653,19.38558293,23.18458939,19.6068393,18.38664919,15.55735787,15.52161696,22.42709686,23.6650002,25.05504787,28.99162569,32.21999972,32.77589287,33.41271207,32.57228504,30.53730396,9.272903273,8.262500107,16.63082339,19.21430847,20.43714251,21.48106165,22.41052549,22.8214047,21.52269578,9.383610038,9.710722454,13.07063738,16.1524193,18.32857112,19.12847726,19.83450897,19.67052049,18.05632483,0.990449307,1,1,1,1,1,1,1,35.6667825,-78.492372,2018,NCH1
PHB47/PHZ51,KSH1_2015,N,12.86666667,768.0205229,0,2,229,110,84,82,0.688124985,3.518749885,2.537239536,4.634326915,6.340784251,4.013516285,5.753010874,3.95559662,1.81791271,22.01999953,28.14999908,47.40176476,147.1705882,9.165882307,38.18235242,161.646473,23.74705871,56.35529401,19.48910828,20.34062409,19.21958791,21.30664108,18.00351726,18.80818483,18.60066932,17.86718078,18.78253622,17.69406253,22.96750021,19.85221485,29.31892792,29.11705877,31.41670577,31.16760655,30.50505886,29.96204923,3.297187492,8.938749969,8.792561365,16.998743,18.09705929,19.84989561,20.1377744,20.03282345,17.06836811,6.184738542,9.476230158,8.381520189,15.38816616,15.61697663,17.65547515,17.65556265,17.32458654,15.75670183,0.6778125,1,0.850138809,1,1,1,1,0.98304554,39.21641775,-96.60482225,2015,KSH1
CG119/CG108,DEH1_2019,N,19.38,716.1898642,0,12.2,202.2,97.6,56.6,55,4.885483834,0.129999995,2.22754366,2.838879743,7.092619056,13.09007943,2.376059147,7.246095167,5.291338731,151.4499989,1.169999957,29.41999924,87.75142762,13.32785715,117.8107149,70.17642808,38.82285679,163.7607149,18.09422633,22.52754413,19.09832956,21.10549391,16.87992425,18.38683534,17.43790908,14.47643482,15.18822094,17.49129031,20.55777783,23.08374535,28.61102885,30.70333358,31.53571423,31.96636291,30.10673826,28.44137569,7.04516129,9.184444467,14.30050877,18.34149326,20.74333359,21.70119062,22.68293302,22.03347627,19.57253904,6.992168387,8.735510177,11.41430501,15.6056687,17.71122979,18.59296506,19.259015,18.07354239,16.13042035,0.769815656,0.948412699,0.988507504,1,1,1,1,1,38.670675,-75.433225,2019,DEH1
F42/MO17,IAH1_2017,Y,17.45,733.0519907,2,2,208,104,65,64,3.40562493,4.965384584,4.756276119,1.833606587,3.814090996,2.221484887,3.670808328,1.81325484,2.347473118,108.9799978,64.54999959,71.28272616,63.78727258,4.177727374,22.83863677,118.9068186,13.7622725,72.03681816,16.19865167,17.41178014,18.84198651,22.07722619,19.57094626,20.6423577,19.65334879,19.12382584,16.87809105,17.11343735,15.37846162,22.95951679,28.09807267,26.50742381,30.27960591,29.79948923,26.92834941,26.37674051,5.413125027,4.923076978,11.46549016,14.16962528,11.61757578,16.65775237,16.66504091,13.38757222,12.41510662,6.530778339,5.768563812,10.45370215,13.71965113,11.94783378,15.64262598,15.39964617,12.71239892,12.1737806,0.629988832,0.555054952,0.946458762,1,1,1,1,0.998130952,41.19924609,-91.49402296,2017,IAH1
B73/MO17,KSH1_2016,Y,16.1,776.1726961,0,1,145,70,87,87,0.381562503,5.593749881,9.031136959,3.981909994,0,0.897724769,5.011421387,3.322424253,5.670073263,12.2100001,44.74999905,140.9509078,148.5090918,0,8.374091108,139.438637,19.93454552,175.7722711,18.43315426,14.04582843,18.34613738,20.88446512,22.70328743,20.59441801,18.34986672,18.15379387,17.32510191,19.15124996,21.70124984,22.33901244,27.19377063,36.31272689,35.17540036,32.01078432,33.85633352,30.76895891,2.130625044,11.46499991,9.568238579,14.2621368,21.58727247,22.04353923,20.78061301,22.71134866,19.49139311,6.3158573,9.667291017,9.626890379,13.35418843,19.56599107,19.14397536,18.06824645,19.12054732,17.03744615,0.741573662,1,0.921279778,0.986042268,0.991287871,0.998977631,0.993550002,1,39.14480675,-96.62898225,2016,KSH1
PHG80/PHZ51,ARH1_2016,N,16.8,789.0445484,0,2,194,117,69,68,12.62656226,6.052222146,7.859593922,4.411032368,3.769999921,0.095833332,1.834913509,2.950363528,2.931715563,404.0499923,54.46999931,101.1431819,160.496816,7.539999843,0.824999988,46.86636396,14.75181764,90.88318244,16.40757677,14.40289243,17.41332625,19.31399891,17.48165414,22.15918181,19.7781726,18.25208951,17.22596404,20.37124979,20.08666674,25.25253507,26.30445415,29.50681779,32.27019592,33.22074717,33.17606868,32.75999986,8.53968759,10.04999993,14.84655054,15.67568893,20.10318184,20.90335237,23.01320039,23.46584116,23.35664232,8.376579132,8.623890092,12.4075181,13.38568101,16.80499981,18.57005087,20.09384313,20.24603027,19.89808151,0.932198657,0.999841266,1,1,1,1,1,1,34.72952,-90.7603555,2016,ARH1
W10001_0022/PHB47,ARH2_2017,Y,17.7,731.1212129,0,2,229,110,65,64,2.789999995,15.83285686,4.776016413,2.853949028,1.142500003,5.651818152,3.905948255,2.4430325,4.688621725,89.27999985,110.829998,61.6427269,88.95863769,3.003181826,52.42863608,105.2449988,13.33772746,145.3472735,17.14489296,19.09436907,20.93439511,19.65670258,19.84409681,19.1211903,18.81176407,19.65259997,17.546866,23.65656266,24.55142866,25.38541455,28.9612549,32.40098458,30.84565692,31.84241473,32.83627249,30.20087953,12.07343751,12.16142872,12.7110645,18.0477898,21.78734854,20.24410098,21.87781566,22.25639174,20.26112908,10.83878158,11.22094165,11.88579938,15.62584547,19.09416656,17.54487895,18.8103181,19.27693671,17.25265116,0.991674107,1,0.97315368,1,1,1,1,1,35.67418125,-90.0752695,2017,ARH2
B73/PHN82,COH1_2017,N,40.825,563.1435398,2.75,2.75,224.25,108,78.5,75,3.393124943,0,0.001708684,0.360843908,0.891428554,3.560382097,1.42287895,1.565670675,1.770870451,108.5799982,0,0.02904762,12.29476177,1.600476163,43.78523833,56.48285717,21.02523811,53.20285701,22.26802993,25.65694836,25.9931063,24.2875628,21.26982858,19.37652668,19.65631787,15.92591012,11.99136935,20.38624986,26.27857154,29.00990249,30.95750085,32.84396765,29.24597739,27.87075516,24.49812031,17.64004964,4.676250031,9.955714362,11.44166305,13.33492254,15.64190474,14.2894836,11.55992968,8.650869984,2.505724526,7.387813889,11.22152513,12.97827389,14.53136664,16.23032426,14.11586508,12.58015619,10.40568176,6.007000116,0.859799101,1,1,1,1,0.978368119,0.882220332,0.653649732,40.64850025,-104.9997825,2017,COH1
B73/PHN82,SCH1_2019,N,17.075,731.1212129,0.5,2,218.44,87.63,56.5,57.5,3.522580645,3.026666641,1.832071666,3.15534991,1.497023807,2.439880971,1.838213127,1.715047598,2.162465429,109.2,18.15999985,19.94999987,97.87357193,2.846428582,21.92714303,50.9164284,9.481428444,67.0364283,18.2238054,19.24788825,19.83816148,19.9388592,17.79349522,20.88775084,19.93011295,20.19525604,17.6553152,24.08129043,27.55666669,26.86360264,30.30302253,30.15095266,31.81823454,32.87501498,31.84457125,32.33357145,10.7222581,15.88833332,14.78977791,18.33498627,20.49666657,19.48954379,21.18366564,19.1694286,20.16504603,10.62715993,13.88239503,13.27455789,16.3672742,17.32380961,17.64580353,19.00989067,17.48787314,18.15917061,0.967315668,1,1,1,1,1,1,1,34.62248225,-82.73756775,2019,SCH1
LH195/LH82,DEH1_2017,Y,23.925,703.7685266,0,5.25,213,102.25,67.5,67.25,2.917187458,6.201428686,3.00780289,3.517983876,1.211428521,1.632751291,5.214259368,11.31934688,4.882730708,93.34999865,43.4100008,45.34571489,126.7790489,1.268571377,15.48333303,157.8533328,69.24809492,151.3147631,17.05647962,17.73228645,20.71096481,19.57386043,19.15556694,20.88592809,18.21237176,18.15756056,16.58607394,20.26624998,24.66142872,21.72245043,26.82298965,30.35071437,30.31148162,30.69555299,28.43090921,27.29702356,9.32593758,14.19571427,10.68752201,16.75855213,19.906349,19.88150788,21.21690322,18.72144455,17.91444491,8.690479953,12.08402314,9.787934269,14.12431868,17.15482568,17.14050735,17.94790556,15.63546309,14.74613823,0.907287956,1,0.959736116,1,1,1,1,1,38.67025825,-75.4333645,2017,DEH1
PHW52/PHM49,NYH3_2015,Y,21.85,731.1212129,0,2,238,117.5,78,78.5,4.268387075,0,1.234803629,3.315485905,3.744705864,3.708743319,2.034738589,2.091907533,2.160160663,132.3199993,0,17.66999944,111.4647067,9.843529393,38.42352946,75.35117763,21.49235322,65.37235311,20.95885717,21.76160183,22.01003167,20.47654391,19.37507164,18.84800849,18.09954582,14.25866518,12.17165493,15.21516129,28.41399994,23.9726608,27.94852153,28.22411762,29.00645443,26.88612691,22.65429039,19.02039094,3.206451565,16.00799999,11.62235867,15.61032629,16.7502941,17.72633694,14.88804443,11.60832066,7.356588233,5.349626667,14.38734971,10.95773449,14.17183136,14.61937489,15.41213998,13.31670354,10.34569698,7.707711279,0.504331792,1,0.97267375,0.996219796,1,0.995345527,0.95775528,0.812032548,42.7233625,-76.6555945,2015,NYH3
F42/MO17,SCH1_2018,N,14.765,731.1212129,0,1.5,215.5,124.5,62.5,65.5,5.509375073,3.372500002,5.775327928,7.728127661,4.71095229,3.130603142,3.123485158,2.01328566,5.79306447,176.3000023,26.98000002,97.60999952,245.6735731,5.415714213,31.8442854,83.93428482,10.53785687,179.5849986,18.64772365,19.28692877,21.1730546,18.16318131,18.84742333,19.2548603,19.994513,19.31783344,16.30139442,22.53906247,22.53374982,23.09020479,27.61870045,28.0654766,28.90856809,32.58479132,33.48333298,31.1168664,9.301562469,9.311250091,8.762400081,17.50665347,16.7615475,18.38295894,21.20797915,21.67128537,20.80767273,9.591191253,9.400074843,9.574505228,14.76793775,14.51962258,15.72381397,18.86169653,19.45105318,17.96288574,0.951841518,1,0.982626499,0.991514695,1,1,1,1,34.6223015,-82.7364835,2018,SCH1
LH74/PHN82,IAH1_2015,Y,18.5,729.190435,0,3,266.5,133.5,65,64,1.566451638,2.213076954,8.402418557,1.323463692,0.084411761,2.297359398,2.93999255,2.37101191,2.732793763,48.56000078,28.7700004,122.1399999,43.52999979,0.168823523,22.82352863,100.1182349,16.67000003,83.81294001,20.43214903,18.85811498,14.63317728,22.31276759,19.14227258,22.20806523,19.83862588,18.33763158,15.0581957,16.08774191,16.64538457,21.84697853,28.7334183,30.26852911,31.30747052,29.05105531,29.39636272,24.66946357,1.839032284,4.865384661,13.12892854,16.86768962,20.05941139,18.05705196,16.3929614,15.43749916,11.17229855,5.447129731,6.098188577,10.48240964,14.99632473,17.16639266,16.72884186,14.96924927,14.77137221,11.30644361,0.593087559,0.682994502,0.988452545,1,1,0.997626801,1,0.896934674,41.9980952,-93.69336973,2015,IAH1
B14A/OH43,MNH1_2015,N,16.85,731.7648055,3.5,12,243.5,127.5,73.5,73.5,2.676451665,6.10285713,1.587216104,4.707726326,2.093823531,4.685775359,5.935015669,2.223261507,2.198788145,82.97000162,42.71999991,19.59000013,155.007059,3.965294123,52.23235247,227.0947085,20.90117698,67.40117758,19.81693462,15.87546921,21.62818458,20.65236193,17.21434565,21.12123323,17.7408483,14.5374504,12.06297535,17.43387093,22.63000025,27.28921799,28.46423671,28.36529418,28.07899716,26.14089523,24.73259507,17.90095705,4.567419307,13.73428563,14.30007362,16.89716897,18.65411764,16.19745995,14.75643511,13.57280729,6.634647692,6.2838161,10.87437977,13.26905608,14.87023808,15.64114514,14.35392043,12.99006372,12.46836687,7.55733068,0.722983866,1,1,1,1,0.977703003,0.878626049,0.721229646,44.07038575,-93.53519625,2015,MNH1
LH198/PHZ51,MIH1_2016,N,17,734.9827686,0,2,237.5,118,62,61.5,3.213870927,0.372000003,1.277668238,2.072144594,0.204761899,2.382636341,6.277866916,3.129595251,4.115734243,99.62999874,1.860000014,16.77857134,74.4033328,0.614285696,24.34142835,217.3680916,23.88571438,123.5814282,20.04481233,22.69628944,22.57460654,21.19066928,19.62511718,19.41470496,17.43536011,14.16523572,12.41239439,17.74322581,29.20999985,25.57947765,28.1508514,27.23547651,30.32783564,28.27294529,26.6388532,22.50219404,5.299677434,16.33600006,11.90361174,14.70447611,15.74579377,17.52671,16.25511672,15.58650841,10.86825081,6.615827776,14.89908974,11.62365975,13.82943527,13.70908531,16.01583991,14.48649579,13.48265,10.09129455,0.734400922,1,1,1,1,0.999987733,0.99326559,0.936590208,42.41206675,-84.2952625,2016,MIH1
CG60/LH162,GAH1_2017,N,12.7,554.1332432,0,4,135,55,51,51,1.929687474,5.730000019,0.343252103,3.449286585,2.107618968,4.586772466,5.884115127,3.462793619,5.790337869,61.74999917,45.84000015,4.185237975,115.4628578,3.161428452,44.24761888,164.3961923,18.00285697,179.500474,16.80249013,20.13732326,20.17342047,19.27076224,21.20480144,16.6798163,18.15858085,19.37517402,17.73704587,23.5584375,24.76124978,28.73884546,29.02932191,29.79031757,30.11825943,30.88468736,33.04158726,32.39466959,8.654999979,9.073749959,13.81601286,15.94569083,16.85142871,20.07059283,21.0580027,22.24365102,22.03411694,9.935165979,10.3201674,13.6844889,14.81363998,15.5596332,17.10789698,17.95959829,19.61349988,19.1980032,0.8834375,1,1,1,1,1,1,1,31.50794425,-83.55854475,2017,GAH1
PHG39/PHN82,IAH1_2017,N,17.7,731.1212129,0,2,229,110,65,64,3.40562493,4.965384584,4.756276119,1.833606587,3.814090996,2.221484887,3.670808328,1.81325484,2.347473118,108.9799978,64.54999959,71.28272616,63.78727258,4.177727374,22.83863677,118.9068186,13.7622725,72.03681816,16.19865167,17.41178014,18.84198651,22.07722619,19.57094626,20.6423577,19.65334879,19.12382584,16.87809105,17.11343735,15.37846162,22.95951679,28.09807267,26.50742381,30.27960591,29.79948923,26.92834941,26.37674051,5.413125027,4.923076978,11.46549016,14.16962528,11.61757578,16.65775237,16.66504091,13.38757222,12.41510662,6.530778339,5.768563812,10.45370215,13.71965113,11.94783378,15.64262598,15.39964617,12.71239892,12.1737806,0.629988832,0.555054952,0.946458762,1,1,1,1,0.998130952,41.19924609,-91.49402296,2017,IAH1
CG119/CG108,NYH2_2018,N,19.67333333,755.8351694,7.333333333,2,162.3333333,78.66666667,58,55,4.152903213,0.855714253,1.31693108,2.056877316,18.60714291,4.17142208,1.796460541,3.71345921,2.001911684,128.7399996,5.989999771,17.50499944,73.5107149,37.6500001,45.13714288,70.0178584,34.82000022,60.53000028,20.64383799,23.73438372,20.97980276,21.28373647,15.72294375,18.26843876,18.50915054,13.77481919,12.83457813,12.82806446,24.72714315,24.76775456,27.60101009,28.96428537,28.5122727,26.91050025,24.01606741,19.66558606,1.452258048,10.48999977,13.07559666,14.8719081,19.08642861,17.4819286,14.95013511,12.80738491,7.865124395,4.113027627,10.74522894,11.82847182,13.74928068,16.05096628,15.06575239,13.37181447,11.42873851,8.144119245,0.351670502,1,0.973410204,0.99504728,1,0.991140913,0.940533101,0.821942422,42.72611075,-76.65530175,2018,NYH2
PHN11_PHW65_0323/LH195,DEH1_2015,Y,21.8,695.0800263,0,0,240,113.5,66,65,2.877187484,6.848000002,1.658122271,2.899811139,0.533124998,6.398055441,4.542065261,4.666333417,5.694818618,92.06999949,68.48000002,26.86312445,94.40374921,0.778750002,57.58249897,115.8581242,26.73625046,176.5393772,18.09789148,17.20138936,20.11151884,21.0089777,21.53492481,19.24730516,17.70191113,15.05628078,15.14846735,16.82656264,19.24400005,20.72376954,27.68890342,31.56656283,31.86354174,32.09465687,30.43364003,29.09395151,6.265937505,9.858999991,10.7453803,17.67876376,20.38750017,21.35659703,22.77220607,22.28250884,20.56647162,6.521960329,8.412914767,9.229957748,14.85993723,17.9770315,18.58170739,19.36170697,18.35807444,16.86736745,0.750435273,0.870857151,0.962682184,1,1,1,1,1,38.62935675,-75.4656925,2015,DEH1
CG44/CGR01,ILH1_2018,N,12.8,748.4982135,0,2,202,89.5,53.5,51,4.93870967,7.677000022,2.588106254,5.605117571,0.281428576,3.456349163,4.202656593,1.004543384,2.183824858,153.0999998,76.77000022,33.4678576,176.7721435,0.281428576,32.73642816,135.7042854,6.586428666,67.2342849,18.91812334,19.3164753,20.10278531,22.12028957,18.91592986,20.16297878,19.11980649,19.09856314,16.2127272,15.99580652,18.50399971,25.32625123,29.19453127,30.85535676,31.83740471,28.20358558,28.86124239,26.43877647,3.618387117,7.573000085,14.94700907,16.75211974,20.46500043,20.0205478,17.14982155,16.71822788,13.95248539,5.629456993,7.587936205,12.64486739,15.17263993,17.66017859,17.94105007,14.82889519,14.97382886,12.85823928,0.640783421,0.72660713,1,1,1,1,1,0.984431123,40.06300125,-88.2291765,2018,ILH1
F42/OH43,NYH2_2018,N,20.87333333,713.9158369,2,2.666666667,215.6666667,113.3333333,70.33333333,68.66666667,4.152903213,0.855714253,1.31693108,2.056877316,18.60714291,4.17142208,1.796460541,3.71345921,2.001911684,128.7399996,5.989999771,17.50499944,73.5107149,37.6500001,45.13714288,70.0178584,34.82000022,60.53000028,20.64383799,23.73438372,20.97980276,21.28373647,15.72294375,18.26843876,18.50915054,13.77481919,12.83457813,12.82806446,24.72714315,24.76775456,27.60101009,28.96428537,28.5122727,26.91050025,24.01606741,19.66558606,1.452258048,10.48999977,13.07559666,14.8719081,19.08642861,17.4819286,14.95013511,12.80738491,7.865124395,4.113027627,10.74522894,11.82847182,13.74928068,16.05096628,15.06575239,13.37181447,11.42873851,8.144119245,0.351670502,1,0.973410204,0.99504728,1,0.991140913,0.940533101,0.821942422,42.72611075,-76.65530175,2018,NYH2
W10004_0216/PHZ51,ARH2_2017,Y,17.7,731.1212129,0,2,229,110,65,64,2.789999995,15.83285686,4.776016413,2.853949028,1.142500003,5.651818152,3.905948255,2.4430325,4.688621725,89.27999985,110.829998,61.6427269,88.95863769,3.003181826,52.42863608,105.2449988,13.33772746,145.3472735,17.14489296,19.09436907,20.93439511,19.65670258,19.84409681,19.1211903,18.81176407,19.65259997,17.546866,23.65656266,24.55142866,25.38541455,28.9612549,32.40098458,30.84565692,31.84241473,32.83627249,30.20087953,12.07343751,12.16142872,12.7110645,18.0477898,21.78734854,20.24410098,21.87781566,22.25639174,20.26112908,10.83878158,11.22094165,11.88579938,15.62584547,19.09416656,17.54487895,18.8103181,19.27693671,17.25265116,0.991674107,1,0.97315368,1,1,1,1,1,35.67418125,-90.0752695,2017,ARH2
LH195/PHN37,NCH1_2016,N,14.15,731.1212129,0,3.5,225,114.5,65,64,2.901562452,3.125714166,7.137907935,4.683034439,4.3177271,0.863030289,5.226283407,5.104181825,4.507668668,92.84999847,21.87999916,91.86318315,160.7736342,8.497726928,8.495454409,139.9318182,26.12772732,139.7377287,16.36857818,22.27138465,15.49498623,18.72849078,21.8793198,21.8664799,18.529992,18.05675722,17.32656161,20.86125001,25.58571407,25.68946269,27.1054564,30.20318166,31.0559697,32.42423852,33.59766701,33.26035177,7.692187494,8.212857212,14.27003911,16.07300028,18.02681784,18.80169681,21.2796372,22.62190931,22.7218182,8.383421821,10.43985322,12.46468669,13.95599298,16.17160042,16.99727481,18.83160592,19.980567,19.86697781,0.913761163,1,1,1,1,1,1,1,35.30015175,-77.57127825,2016,NCH1
PHW52/PHN82,ARH2_2016,N,13.725,731.1212129,0.5,2,209.25,104.5,65.75,63.5,5.780937422,12.26500018,3.712120208,7.0222886,1.105000019,0.295568184,1.931287914,1.454696927,6.280835692,184.9899975,73.59000111,50.67409075,233.2059098,2.210000038,2.364545475,51.29727264,7.656817956,194.7059064,17.76457119,17.22719622,20.14058537,19.80644481,18.88262117,19.79738723,18.69440654,19.88854878,15.60714355,21.02781257,25.69833342,24.88224707,27.55747889,33.1628785,33.38017045,32.40728063,33.71248445,31.37684753,8.517187547,14.13833332,13.26693003,16.75834882,22.79151535,23.21522755,22.56353312,22.95024234,22.3752492,8.626308124,12.37618007,11.75818796,14.46644855,19.89189903,20.24263088,19.43024202,20.23735303,18.81126952,0.958649555,1,1,1,1,1,1,1,35.838614,-90.66530155,2016,ARH2
F42/H95,MOH1_1_2018,N,18.05,731.1212129,0,2,235,108.5,56,54.5,4.419032262,0.120000001,6.56660792,4.995913726,0,0.865952386,4.867908623,7.318145406,3.629241153,136.9900001,0.840000004,71.60142667,150.6285707,0,7.793571472,145.6157139,39.85928573,112.0157138,18.39395777,18.46565301,20.1607481,20.70593221,19.87326009,21.97749135,18.06982858,17.46468943,16.31914076,19.5254839,22.76714298,27.16554273,29.60936822,31.6271427,32.32420578,29.51628185,29.85375934,27.04843165,7.99741943,14.14714282,16.43732974,18.81172612,21.79964249,20.71007941,19.44316189,19.21155699,15.91814144,7.992986492,11.1555316,14.00535673,16.26359619,18.7133926,18.51714259,16.54699664,16.60044059,13.86670431,0.872361758,1,1,1,1,1,1,0.995607144,38.89791675,-92.20952075,2018,MOH1
F42/OH43,OHH1_2017,N,18.65,715.6749901,0,2,229,110,65,64,4.401935447,12.29571451,4.299880116,6.252045262,18.36299991,4.892395558,3.195317293,3.431958172,3.794688752,136.4599988,86.0700016,53.63949916,223.8204996,40.86499989,50.26800107,124.097,30.99400014,115.4320013,19.0647902,19.03427505,21.00226491,20.15032754,19.69555429,18.89580098,18.69837911,16.0400155,13.85510684,20.47903239,25.43142836,25.24002704,27.25803818,28.09541678,28.73270468,26.30456447,24.69395371,24.25720733,8.011935501,13.44999967,12.59882409,15.91673102,16.75358336,18.39824095,14.97688189,13.11535887,11.81284403,8.407228033,12.106522,11.63721293,13.8931373,14.6377479,15.63224373,13.07252875,11.66012039,11.13333271,0.85352535,1,1,1,1,0.996926048,1,0.96495674,39.855785,-83.66477375,2017,OHH1
PHW52/PHM49,ARH2_2018,N,15.675,731.1212129,0,2,186.5,91,69.5,66,4.523124937,5.877777735,3.202210455,3.225384198,0.461428574,5.0703967,1.707251537,1.546976178,1.915506911,144.739998,52.89999962,46.32285666,103.4992844,0.461428574,45.6335703,42.68714207,7.346428526,59.38071425,17.7541087,19.6455271,19.52097147,20.05684428,23.80737271,19.97823453,19.1297214,18.25489796,18.05597286,19.61875001,21.92000008,22.77345622,28.90718296,31.9800005,30.98396799,32.84130907,33.56595603,31.90391706,8.73406262,10.34777779,11.28771296,17.85430307,18.706429,19.75547635,22.48266054,23.2605133,21.25223495,8.305601359,9.423215554,10.22107903,15.52009327,17.35232514,17.37984482,19.61861005,20.2782542,18.53689778,0.857433028,1,0.994106717,0.995975764,1,1,1,1,35.674241,-90.0749725,2018,ARH2
B73/DK3IIH6,NCH1_2016,N,12.65,731.1212129,0,3,234.5,134,65,64,2.901562452,3.125714166,7.137907935,4.683034439,4.3177271,0.863030289,5.226283407,5.104181825,4.507668668,92.84999847,21.87999916,91.86318315,160.7736342,8.497726928,8.495454409,139.9318182,26.12772732,139.7377287,16.36857818,22.27138465,15.49498623,18.72849078,21.8793198,21.8664799,18.529992,18.05675722,17.32656161,20.86125001,25.58571407,25.68946269,27.1054564,30.20318166,31.0559697,32.42423852,33.59766701,33.26035177,7.692187494,8.212857212,14.27003911,16.07300028,18.02681784,18.80169681,21.2796372,22.62190931,22.7218182,8.383421821,10.43985322,12.46468669,13.95599298,16.17160042,16.99727481,18.83160592,19.980567,19.86697781,0.913761163,1,1,1,1,1,1,1,35.30015175,-77.57127825,2016,NCH1
CG119/CG108,COH1_2017,N,18.4,714.3878048,0,9.375,202.625,94,62.25,61.125,3.393124943,0,0.001708684,0.360843908,0.891428554,3.560382097,1.42287895,1.565670675,1.770870451,108.5799982,0,0.02904762,12.29476177,1.600476163,43.78523833,56.48285717,21.02523811,53.20285701,22.26802993,25.65694836,25.9931063,24.2875628,21.26982858,19.37652668,19.65631787,15.92591012,11.99136935,20.38624986,26.27857154,29.00990249,30.95750085,32.84396765,29.24597739,27.87075516,24.49812031,17.64004964,4.676250031,9.955714362,11.44166305,13.33492254,15.64190474,14.2894836,11.55992968,8.650869984,2.505724526,7.387813889,11.22152513,12.97827389,14.53136664,16.23032426,14.11586508,12.58015619,10.40568176,6.007000116,0.859799101,1,1,1,1,0.978368119,0.882220332,0.653649732,40.64850025,-104.9997825,2017,COH1
B73/DK3IIH6,WIH1_2016,N,17.1,742.0622874,2.5,5.5,251.5,136,73,73,2.076129018,1.94750002,4.430291291,4.068377178,0.606590927,8.204471101,6.520888551,7.285801826,4.413191112,64.35999957,23.37000024,50.66818307,153.9786358,1.017727305,87.41727302,222.4604529,58.95590957,134.9268184,19.92805462,20.9108026,19.53546339,20.65690042,18.97296773,19.76360502,17.50876714,15.21370917,12.23883056,16.70258062,17.57583312,27.08182728,26.49130857,27.22159082,28.35833875,27.6700069,25.1458901,22.98674642,3.327419363,4.990833327,14.04723809,14.47423798,17.58636334,16.7186736,17.17399145,14.32051147,12.5735533,5.875866612,6.419508974,12.98865398,12.92924289,14.50224274,14.72651534,14.55658067,12.23924581,10.7486024,0.621198161,0.7653869,1,1,1,0.999967803,0.998306277,0.970976554,43.05632525,-89.53194975,2016,WIH1
B14A/OH43,IAH3_2017,Y,24.25,702.8031377,0,2,229,110,65,64,4.153750014,4.476666673,3.404720357,2.207347727,0.783636364,2.628276904,1.892687593,2.328876272,1.794257086,132.9200004,67.1500001,54.03954627,78.33863542,1.567272728,28.02681865,71.85545488,19.05045461,54.69545453,16.14493189,17.75127989,18.89303832,22.07985964,20.54923199,20.99384486,19.81852315,17.22919489,15.64326955,15.84312499,15.5066665,21.42652578,27.714982,28.45522753,29.90074383,27.6545798,25.64720852,25.13760955,4.41906251,4.141333344,9.782295063,13.56526933,16.05901469,16.6123348,14.8096002,12.74600627,11.28191352,5.818880471,5.62230391,9.387130072,13.2881535,14.4256186,15.3843105,13.65871261,11.89796048,11.29223634,0.568604913,0.570380948,0.879734313,1,1,1,1,0.979205627,41.9758706,-92.24318881,2017,IAH3
PHG39/PHN82,IAH1_2020,Y,14.325,731.1212129,0.5,0.25,229,110,65,64,1.688064506,6.196000195,3.0793737,6.533057926,1.271428551,2.673269776,1.85421064,0.708456624,3.755616013,52.32999969,61.96000195,37.23499918,213.6221428,2.198571375,25.9085708,60.11785651,6.012142782,115.3728583,19.46953177,15.04660187,20.64247086,20.31598349,21.99207742,21.09552252,19.7297914,19.80455556,15.11692591,15.87290319,18.70700045,25.72176895,28.50674309,31.92999949,30.87921407,28.61147391,29.37327705,24.63079501,3.348387095,9.753000152,14.65929334,17.38633346,19.85714286,19.28849194,17.27261165,15.46819038,11.83183106,5.5584858,8.125456457,12.65757338,15.09801966,17.89357117,17.09078834,15.12121856,14.7539709,11.47694483,0.621440085,0.927035726,1,1,1,0.998514142,0.992713009,0.918334154,41.19774214,-91.48767072,2020,IAH1
B14A/MO17,MIH1_2019,Y,29.05,692.5056558,6,9,252.25,128,71,68,3.720322615,6.189999878,7.0818969,2.961916884,8.70871786,0.913986013,1.817216317,4.468053866,4.013250907,115.3300011,49.51999903,106.8900002,93.8269235,16.81999984,10.80615383,84.36076873,63.3192304,120.886153,19.31986936,19.65939665,18.51979106,21.00444556,17.01540622,20.04742627,16.96863927,12.02893287,10.87568864,17.60709666,21.67250037,22.690749,28.9340566,30.56538516,27.94921954,26.00654686,21.50260694,17.46530245,6.210322559,10.31875008,12.21847794,16.86604701,18.743333,15.85306519,14.00590995,11.32576155,7.161163464,6.876773896,9.314382636,10.39761731,15.10453275,16.86261297,14.19391073,12.58553183,10.00606366,7.511656803,0.696382483,1,0.995173883,1,1,0.988904737,0.895422602,0.709438731,42.70789125,-84.4706665,2019,MIH1
PHG39/TX205,IAH4_2017,Y,23.7,668.0491364,7,1,239,120,73.5,70.5,3.054193612,4.63857133,5.654282844,2.356146022,0.145000003,0.823262634,3.029939984,2.506485397,3.022032747,94.68000197,32.46999931,92.55000019,79.81000018,0.290000005,7.931363713,110.0431818,17.65818187,91.79227275,19.60434628,22.37855189,18.81628808,21.46940114,22.42332305,21.26952374,19.1513695,15.94205759,15.34138578,17.83935482,25.21428544,21.76755785,28.88340452,30.88984893,30.99338411,28.30609907,26.26622464,25.93438806,4.952580655,10.13999993,10.24708413,15.02150207,17.47128796,18.07608078,15.80662465,13.87026602,12.51354651,6.575243948,10.82301274,9.649960621,14.3656457,16.22810104,16.57398155,14.36597852,12.57546566,12.06214068,0.727396317,1,0.910082199,1,1,1,1,0.987168831,41.99455432,-93.69030947,2017,IAH4
PHG29/PHG47,GAH1_2016,N,14.25,693.7928411,0,6.5,180,85,55,55,6.466250051,4.395000041,0.566421492,2.549627568,3.17469698,5.859943136,4.096967014,2.330999996,2.476261007,206.9200016,35.16000032,6.21000006,86.0200003,9.52409094,52.42727233,105.6731797,11.65499998,76.76409122,15.95696127,18.25385642,20.33100053,20.74024209,20.01064868,19.54302735,19.38198769,19.26953352,18.21451922,23.62687498,22.98249984,28.56134937,29.4983659,33.37075638,32.62719045,33.25026907,34.51499955,33.94928126,11.29749997,10.47000009,15.64744728,16.2846205,20.78287862,20.61269551,21.56927107,22.51809092,22.40467728,10.53971422,9.962440438,14.36481163,15.11313475,19.02952924,18.56859265,19.26668195,20.34390963,19.99415841,0.993928569,1,1,1,1,1,1,1,31.5079175,-83.55854775,2016,GAH1
B73/MO17,TXH1_2020,N,13.16666667,725.5434102,0,2,212.9366667,78.31666667,68.83333333,68,2.284333333,0,4.613530444,2.949806388,1.362941181,6.741056464,2.844869093,3.829088224,2.301094231,68.53,0,55.97058804,110.7988238,1.362941181,71.52235312,82.32059028,18.97352936,69.29117607,13.91343843,13.3863348,15.08816438,19.79337859,19.48130546,19.24170726,19.77113757,20.7945973,17.91495332,20.02266652,27.17999992,26.60815942,26.52479293,29.39617636,29.12989124,32.2266946,33.03076485,34.59511331,6.794333295,17.20400028,15.2455437,13.65359797,17.29686298,16.61337131,20.73348334,20.06167624,24.24037069,7.901247141,14.27292515,13.38037585,12.76738989,15.58009007,15.11126374,18.39892159,18.53701373,20.50202011,0.821357143,1,0.99243504,0.993791594,1,1,1,0.999042533,30.53781575,-96.4283715,2020,TXH1
B97/PHB47,ONH2_2017,Y,17.7,731.1212129,0,2,229,110,65,64,3.566774253,5.816000056,0.640467161,2.602850346,0.276190468,0.553043346,1.774150425,1.832219351,2.40528059,110.5700018,58.16000056,8.999047586,96.02571482,0.552380936,6.918571438,78.70857161,24.06619065,72.98142847,18.8542372,16.74867072,24.21291039,19.37094181,21.19715784,20.84705237,17.61151759,14.253685,9.927824707,15.7532257,18.68899984,23.40262829,26.34974997,26.59380949,26.86065013,24.57225317,22.91748616,20.00596815,5.764838726,10.96000004,12.03359118,16.18007827,16.63301581,15.91920336,13.14574071,11.27177775,10.10650586,6.141928302,8.38660306,10.68394655,13.52521671,13.7753985,13.64998718,11.58821465,10.41552723,9.107414304,0.598502303,0.966571423,1,1,1,0.999084662,0.956230826,0.8300025,42.45293025,-81.8827315,2017,ONH2
B37/OH43,ARH1_2017,Y,17.7,731.1212129,0,2,229,110,65,64,3.058125025,3.532857077,9.871688678,6.405160528,0.516363615,5.988171668,5.119232493,3.102318153,5.34158356,97.86000079,24.72999954,132.0327285,211.6218184,0.569545432,54.36818138,136.8913653,16.08272713,165.5890903,17.13974981,16.55343887,20.38424011,18.76225527,22.81364793,19.06964508,19.53553475,19.77193111,17.12972935,24.60906261,23.96000045,24.77057006,28.06605652,30.35469691,31.5146664,31.30577636,32.78459133,30.91587993,11.9175,14.17857156,11.8445801,17.60850246,18.97249995,21.30615642,21.39979275,22.50533316,21.62237538,11.1639709,11.77578055,11.22655186,14.97537354,16.74359516,18.41041141,18.33049426,19.54768126,18.22457608,1,1,1,1,1,1,1,1,34.7272515,-90.76032575,2017,ARH1
B73/PHN82,WIH2_2018,N,27.98571429,747.4868537,7.142857143,2,256.5714286,132,69.42857143,68.71428571,3.144193572,1.768571428,3.785071194,5.164846227,1.715952385,3.402224049,3.044948822,9.615599338,3.371772616,97.47000074,12.38,46.28142902,179.8699983,4.560714279,37.70642883,131.4821453,73.47714479,101.7171416,19.25733411,21.12108299,21.47525877,21.2745393,18.31717262,18.53021556,18.66070884,13.62580315,11.37185475,15.52870961,24.66571426,26.09170284,28.23486864,27.86595249,27.65838755,26.70641136,24.92152362,17.96867439,3.195161297,12.95000008,13.88902894,15.13385395,17.40500012,17.0648215,13.77097062,13.5657747,6.887165117,5.289841082,11.57195132,12.6458491,14.08946858,14.71699087,14.50107081,12.89356629,12.23397282,7.279203781,0.580092163,1,1,1,1,0.981419113,0.932006969,0.73866365,43.38075,-89.38645,2018,WIH2
PHW52/PHM49,OHH1_2020,Y,22.95,699.5851746,0,1,229,110,62,60.5,4.175312527,1.24000001,2.003453903,2.609830299,3.238461531,4.458868342,3.000365612,1.621237519,2.44580479,133.6100008,6.200000048,24.41307693,78.60461595,5.612307695,46.13538504,105.0992289,18.40384625,73.98230748,19.06994028,20.34349766,22.26062964,20.30125672,18.94980258,17.72364635,17.47781057,14.69815231,13.31876726,20.75593752,29.31000023,26.9862925,30.26951119,31.92230738,29.63458284,27.3548547,24.45496262,20.91339716,9.301875014,17.61400032,14.18652547,18.22082699,19.47423084,18.74255468,15.66305293,13.07056974,8.164555027,9.098127154,15.53923951,13.05396234,16.29356655,17.69826911,16.21360084,13.84725457,11.75523116,8.713632263,0.810993302,1,1,1,1,0.998602591,0.941606618,0.857376019,39.85643475,-83.67288725,2020,OHH1
LH195/PHZ51,MOH1_2_2020,Y,17.35,731.1212129,0,0,236.5,111.5,57.5,56.5,2.765624954,8.119999743,10.23533287,1.900197364,6.862941181,7.496322061,3.61617108,2.901626778,3.303786197,88.49999854,40.59999871,96.12411712,56.39411764,8.455882353,68.01117661,117.8082348,21.52705885,101.3270584,18.75466287,21.25211372,22.58999711,20.28617166,20.64270943,17.48834951,18.15902921,17.2011884,14.69335169,22.18656257,30.76999931,28.84882905,30.74339714,30.90558787,31.2308437,28.74780649,29.21697892,24.17436303,12.23093753,19.21800041,17.30516703,20.0610583,19.70343171,21.50444419,18.15153395,17.40346693,12.7162556,10.41798935,16.99399986,15.18178367,17.42227064,17.30450979,18.37429674,15.5665539,15.53509051,11.41105442,0.936383936,1,1,1,1,1,0.996694042,0.965786214,38.8958275,-92.2071575,2020,MOH1
B73/TX779,WIH2_2020,N,28.2125,694.1146374,4,0.625,296.75,180.375,77.5,79.375,1.142258063,7.375000167,3.772605813,4.528143625,15.91411821,3.015240613,2.848395651,6.559665308,3.073983535,35.40999997,73.75000167,42.96999988,163.850588,31.01764819,33.16764674,117.7699986,59.84176376,94.45823468,20.73953056,16.04352899,21.23354675,21.58093245,19.01370295,17.88573252,19.32013515,13.57540027,12.27254504,13.56999995,18.91099977,26.0938683,28.2322475,29.46647072,27.75422455,27.09322103,24.80509675,19.00189054,0.762580661,9.396999884,13.99892158,14.99589118,17.7452939,17.49807463,14.22893102,13.29211059,7.459399134,4.176897214,8.107987139,12.68677404,14.02444379,15.66411489,14.70790633,13.20588953,12.26960615,7.833960257,0.443168195,0.881928567,1,1,1,0.990384734,0.880973437,0.780679991,43.294786,-89.383968,2020,WIH2
F42/H95,NCH1_2016,N,14.35,731.1212129,1,11.5,236,133,65,64,2.901562452,3.125714166,7.137907935,4.683034439,4.3177271,0.863030289,5.226283407,5.104181825,4.507668668,92.84999847,21.87999916,91.86318315,160.7736342,8.497726928,8.495454409,139.9318182,26.12772732,139.7377287,16.36857818,22.27138465,15.49498623,18.72849078,21.8793198,21.8664799,18.529992,18.05675722,17.32656161,20.86125001,25.58571407,25.68946269,27.1054564,30.20318166,31.0559697,32.42423852,33.59766701,33.26035177,7.692187494,8.212857212,14.27003911,16.07300028,18.02681784,18.80169681,21.2796372,22.62190931,22.7218182,8.383421821,10.43985322,12.46468669,13.95599298,16.17160042,16.99727481,18.83160592,19.980567,19.86697781,0.913761163,1,1,1,1,1,1,1,35.30015175,-77.57127825,2016,NCH1
B37/MO17,ARH1_2017,N,13.65,758.7956954,0,2,188.6,118.1,71,62.5,3.058125025,3.532857077,9.871688678,6.405160528,0.516363615,5.988171668,5.119232493,3.102318153,5.34158356,97.86000079,24.72999954,132.0327285,211.6218184,0.569545432,54.36818138,136.8913653,16.08272713,165.5890903,17.13974981,16.55343887,20.38424011,18.76225527,22.81364793,19.06964508,19.53553475,19.77193111,17.12972935,24.60906261,23.96000045,24.77057006,28.06605652,30.35469691,31.5146664,31.30577636,32.78459133,30.91587993,11.9175,14.17857156,11.8445801,17.60850246,18.97249995,21.30615642,21.39979275,22.50533316,21.62237538,11.1639709,11.77578055,11.22655186,14.97537354,16.74359516,18.41041141,18.33049426,19.54768126,18.22457608,1,1,1,1,1,1,1,1,34.7272515,-90.76032575,2017,ARH1
F42/H95,NCH1_2019,Y,17.7,731.1212129,0,2,229,110,65,64,2.191129027,0,0.107342031,4.775073233,0.466011907,4.533660718,6.24100048,2.370892844,2.941295675,67.92499983,0,1.347142833,143.4146411,0.94178571,36.26928575,165.0100003,13.54249993,91.02821354,18.69452832,25.30126673,21.77382428,19.07893176,22.56876209,20.7892765,19.22903807,18.96679552,16.71087377,25.69580629,28.76666609,32.29891346,30.08294473,33.3002377,33.83080339,32.75741781,32.04927549,30.79691829,13.34274195,12.19133326,19.06280588,18.61089734,20.56851188,21.23558053,21.08131414,19.9046464,19.77832645,12.18436683,13.33597385,17.64216348,16.39126772,18.88342746,19.44075481,18.8247811,17.98080212,17.31161093,1,1,1,1,1,1,1,1,35.67010175,-78.510504,2019,NCH1
PHW52/PHM49,GAH2_2016,N,12.13333333,731.1212129,0,2,251.3333333,204.6666667,55,52.66666667,1.486129045,0,7.316392826,2.079782856,1.718421064,1.264671045,2.43256314,4.61773679,3.235456168,46.07000041,0,60.50999928,55.97210474,3.436842128,10.11736836,67.31736801,23.15894711,100.2847377,20.21189387,22.87583466,19.10112302,21.34036575,17.85876091,19.83818451,18.50479945,15.9975398,17.29687983,27.80677426,30.50400009,32.06010812,34.2138269,34.93842035,34.86282896,34.62455114,33.33373696,32.80003392,13.8351613,16.55600014,19.35906305,20.32019684,22.9621054,21.76434208,22.04984942,22.29670187,20.14649938,13.32566871,15.60302283,17.72531793,18.78372546,20.36638125,19.89190838,19.9091667,19.70080105,18.42340329,1,1,1,1,1,1,1,1,33.717295,-83.3110275,2016,GAH2
PHW52/PHM49,NEH3_2017,N,21.3,753.6469545,13,2,152.5,61,65,64,6.03471326,3.955444498,0.18882913,3.842009577,1.316296295,1.435570981,2.764433094,3.912023778,4.15136979,187.076111,38.21611161,1.987222274,117.8244439,3.948888885,12.8655555,93.99333183,27.38611089,126.3194449,18.53150537,21.70326166,24.15860034,20.80931081,18.66603313,19.02487726,18.75887595,17.51813417,15.15718003,20.20137986,23.21257118,30.13389904,30.13339279,32.06462927,32.76776237,28.39622898,27.87449379,27.0242909,7.908297486,10.26215086,15.17879712,16.87891665,20.62425956,20.98993062,16.95054818,15.08081369,13.75654417,8.47748899,10.0955543,14.95078719,15.67969265,18.3413362,18.75248222,14.77642402,13.79312874,13.00111339,0.783510626,0.953819441,1,1,1,1,1,0.993105158,41.162,-96.409,2017,NEH3
PHG39/TX205,ARH1_2016,N,17.7,779.3906591,0,2,215.5,112,74,72.5,12.62656226,6.052222146,7.859593922,4.411032368,3.769999921,0.095833332,1.834913509,2.950363528,2.931715563,404.0499923,54.46999931,101.1431819,160.496816,7.539999843,0.824999988,46.86636396,14.75181764,90.88318244,16.40757677,14.40289243,17.41332625,19.31399891,17.48165414,22.15918181,19.7781726,18.25208951,17.22596404,20.37124979,20.08666674,25.25253507,26.30445415,29.50681779,32.27019592,33.22074717,33.17606868,32.75999986,8.53968759,10.04999993,14.84655054,15.67568893,20.10318184,20.90335237,23.01320039,23.46584116,23.35664232,8.376579132,8.623890092,12.4075181,13.38568101,16.80499981,18.57005087,20.09384313,20.24603027,19.89808151,0.932198657,0.999841266,1,1,1,1,1,1,34.72952,-90.7603555,2016,ARH1
PHB47/PHZ51,GAH1_2017,N,12.6,743.9930652,0,2.5,185,85,60.5,60,1.929687474,5.730000019,0.343252103,3.449286585,2.107618968,4.586772466,5.884115127,3.462793619,5.790337869,61.74999917,45.84000015,4.185237975,115.4628578,3.161428452,44.24761888,164.3961923,18.00285697,179.500474,16.80249013,20.13732326,20.17342047,19.27076224,21.20480144,16.6798163,18.15858085,19.37517402,17.73704587,23.5584375,24.76124978,28.73884546,29.02932191,29.79031757,30.11825943,30.88468736,33.04158726,32.39466959,8.654999979,9.073749959,13.81601286,15.94569083,16.85142871,20.07059283,21.0580027,22.24365102,22.03411694,9.935165979,10.3201674,13.6844889,14.81363998,15.5596332,17.10789698,17.95959829,19.61349988,19.1980032,0.8834375,1,1,1,1,1,1,1,31.50794425,-83.55854475,2017,GAH1
PHG29/PHG47,INH1_2016,N,15.5,706.0211008,0,5,235,111,61,59.5,3.034516148,1.382857186,3.106568823,3.966270256,3.500454469,6.752636371,3.451172643,3.198528118,3.024422797,94.07000059,9.680000305,31.26000059,138.8759105,3.500454469,67.52636371,113.8927274,21.6654544,92.62590972,17.63328649,23.97511796,20.66441577,20.1236558,19.9706746,19.39149484,18.14527656,15.98533716,14.62820237,18.74516109,26.31142807,27.84898846,28.12893417,28.20272714,29.14504538,29.16779001,27.95564941,27.07739093,7.950322636,11.69428553,16.31817922,16.10606538,16.8522731,18.34872752,18.58889605,17.50284626,15.03841012,7.677100472,11.91689015,14.24288378,14.4184555,14.68521604,15.7994256,15.9329094,14.92238151,13.51734692,0.852649763,1,1,1,1,1,1,0.996102814,40.4787595,-86.98982,2016,INH1
B37/MO17,MIH1_2018,Y,25.25,686.7133223,1,2.5,221.5,116,68.5,64,5.012258064,1.858571376,2.303311915,3.259516918,0,1.604151199,2.926198314,4.215530212,2.830074039,155.38,13.00999963,29.79071396,101.4421425,0,18.16214306,122.3414291,36.1057143,85.34142821,19.78619528,22.4124418,25.08845985,20.26124585,21.4032747,19.63779009,17.59687557,14.64655727,11.33533343,19.08258061,24.4042857,26.50594484,29.85917276,29.20761908,28.94024759,27.00181445,23.87253837,17.74080494,7.633548365,11.57000004,11.5577044,16.90410614,16.77238059,17.0588351,14.06431329,11.77329027,6.160183734,7.985580948,11.08545818,11.96011996,15.51317333,15.06763476,15.11768347,13.15911947,11.00371024,6.94989994,0.750656678,0.993928569,1,1,1,0.982067155,0.951173414,0.716707841,42.689234,-84.49755575,2018,MIH1
TX779/LH195,GAH1_2020,N,24.375,695.0156671,0,0,162.5,85,70,69,4.279687563,0,6.08243138,3.811420537,2.267976227,2.530000055,3.98378478,1.741833346,2.910207357,136.950002,0,84.37571335,135.9278565,4.833571502,22.77000049,107.9378566,9.115000069,90.21642806,16.61263859,21.5972875,19.10636237,20.72286693,14.54687945,18.15584731,20.08605453,19.68634889,18.27781732,25.37343752,26.77166684,25.94144379,27.77824619,29.55357116,30.6518255,31.78195276,33.48178532,33.56322575,12.43875006,10.55666669,12.19035929,13.80720781,20.58059497,20.26111097,20.57386992,21.96838095,22.25456222,11.80508215,11.69113274,11.88989525,13.35432975,17.06708306,17.45646823,18.17996521,19.67032327,19.80166763,0.988537947,1,1,1,1,1,1,1,31.5079775,-83.558517,2020,GAH1
F42/H95,IAH3_2017,Y,17.7,731.1212129,0,2,229,110,65,64,4.153750014,4.476666673,3.404720357,2.207347727,0.783636364,2.628276904,1.892687593,2.328876272,1.794257086,132.9200004,67.1500001,54.03954627,78.33863542,1.567272728,28.02681865,71.85545488,19.05045461,54.69545453,16.14493189,17.75127989,18.89303832,22.07985964,20.54923199,20.99384486,19.81852315,17.22919489,15.64326955,15.84312499,15.5066665,21.42652578,27.714982,28.45522753,29.90074383,27.6545798,25.64720852,25.13760955,4.41906251,4.141333344,9.782295063,13.56526933,16.05901469,16.6123348,14.8096002,12.74600627,11.28191352,5.818880471,5.62230391,9.387130072,13.2881535,14.4256186,15.3843105,13.65871261,11.89796048,11.29223634,0.568604913,0.570380948,0.879734313,1,1,1,1,0.979205627,41.9758706,-92.24318881,2017,IAH3
B14A/H95,MNH1_2015,Y,15.4,729.8340276,1,0,235,137,79,78,2.676451665,6.10285713,1.587216104,4.707726326,2.093823531,4.685775359,5.935015669,2.223261507,2.198788145,82.97000162,42.71999991,19.59000013,155.007059,3.965294123,52.23235247,227.0947085,20.90117698,67.40117758,19.81693462,15.87546921,21.62818458,20.65236193,17.21434565,21.12123323,17.7408483,14.5374504,12.06297535,17.43387093,22.63000025,27.28921799,28.46423671,28.36529418,28.07899716,26.14089523,24.73259507,17.90095705,4.567419307,13.73428563,14.30007362,16.89716897,18.65411764,16.19745995,14.75643511,13.57280729,6.634647692,6.2838161,10.87437977,13.26905608,14.87023808,15.64114514,14.35392043,12.99006372,12.46836687,7.55733068,0.722983866,1,1,1,1,0.977703003,0.878626049,0.721229646,44.07038575,-93.53519625,2015,MNH1
B73/MO17,MOH1_1_2020,Y,15.26666667,731.1212129,0.333333333,0,249,130.3333333,58.66666667,56,2.765624954,8.119999743,10.49656654,1.909885915,5.802857127,7.415295831,3.691475556,2.293301892,3.400930865,88.49999854,40.59999871,96.7978566,57.0957143,7.737142835,67.39857156,118.848571,17.52928566,104.715714,18.75466287,21.25211372,22.49923535,20.31658939,20.84622072,17.68630925,18.12476098,17.46293798,14.64158327,22.18656257,30.76999931,28.86546125,30.72469998,30.62226157,31.26253243,28.67352632,29.54480095,24.35225034,12.23093753,19.21800041,17.35636515,20.03188031,19.40511944,21.45309498,18.10676495,17.58972003,12.9136675,10.41798935,16.99399986,15.213465,17.3995364,17.01369051,18.36589209,15.51205264,15.80164337,11.56818364,0.936383936,1,1,1,1,1,0.995985623,0.962870504,38.8978375,-92.2070925,2020,MOH1
B73/MO17,TXH1_2015,N,10.8,731.1212129,0,2,162.5,80,70,67.5,2.435333351,0.886666695,4.529386736,2.992210444,0,5.407499953,3.236240411,4.528416659,2.205666663,73.06000052,5.320000172,54.16999972,113.7899998,0,59.48249948,89.11249819,24.54499996,66.1699999,13.38128519,15.80308406,13.73749678,19.48289484,22.46598899,19.96463979,19.54848583,19.57031498,18.03135075,19.61999995,26.26833312,25.8489028,26.4780255,30.37177098,28.79539756,31.9014052,33.48070828,34.35516661,6.122333375,12.74499997,15.39155332,13.69439061,15.83385423,15.9580683,20.41172374,21.45270844,23.93220836,7.516768444,12.28221354,13.06030889,12.7550996,15.35592881,14.67426974,18.11040569,19.30603111,20.37775841,0.822428569,1,0.992325397,0.994092815,1,1,1,0.999431249,30.54708625,-96.43393475,2015,TXH1
PHG39/TX205,ILH1_2016,Y,16.3,743.3494726,0,2,262.5,148.5,74,72,2.976905237,4.388409027,2.266536067,5.61207631,2.384848472,3.596551307,3.312350719,4.357499975,4.793790319,93.71999985,46.35499933,33.46068128,180.4177266,4.628863606,41.73386359,104.1413657,28.32431801,148.2020453,18.82488241,16.77241452,21.32061235,20.18653607,20.74234538,18.07981042,18.8666989,17.85818253,16.07680721,18.05081144,19.20204525,23.0422997,29.42292662,27.90308728,26.97317812,29.60218573,29.15938829,28.17592877,4.960040295,8.531272602,10.4507586,17.10049505,15.99717794,16.84881478,19.41054858,18.84383108,17.09740687,6.781235125,7.969267807,10.17119166,15.41614171,14.29579798,14.15384892,16.51995977,16.04951253,14.84458937,0.666766271,0.897956159,0.946860721,1,1,1,1,0.999883117,40.0607245,-88.2338815,2016,ILH1
B37/MO17,MNH1_2020,Y,25.85,715.0313974,11,0,254.5,132,71.5,66,0.943005099,6.546073051,4.140359128,4.707487639,0.452236841,2.543512757,5.928901117,4.270615044,2.501087783,29.23315806,64.90105435,50.61684199,155.384737,0.714736844,28.61736839,219.2994748,34.34473765,76.93105461,20.83516212,15.73399946,19.74828467,20.97522671,19.78574355,20.20086134,18.41063051,15.8353279,12.84776632,15.708455,18.53155205,25.82840423,28.49526052,29.92499944,28.21992409,26.52185226,25.93987928,19.74067922,2.261239378,9.186207707,13.99244036,16.68286788,19.34447405,16.90528318,15.09377646,14.30914312,8.593217323,5.370680578,7.953384306,12.46596379,14.77865871,16.66236577,14.75116185,13.25288188,13.01752467,8.666130292,0.622613994,0.838417993,1,1,1,0.988450437,0.93066422,0.780758993,44.06907839,-93.53263028,2020,MNH1
B97/PHB47,MNH1_2015,Y,16.2,750.4289914,8.5,11.5,253.5,128.5,72,69,2.676451665,6.10285713,1.587216104,4.707726326,2.093823531,4.685775359,5.935015669,2.223261507,2.198788145,82.97000162,42.71999991,19.59000013,155.007059,3.965294123,52.23235247,227.0947085,20.90117698,67.40117758,19.81693462,15.87546921,21.62818458,20.65236193,17.21434565,21.12123323,17.7408483,14.5374504,12.06297535,17.43387093,22.63000025,27.28921799,28.46423671,28.36529418,28.07899716,26.14089523,24.73259507,17.90095705,4.567419307,13.73428563,14.30007362,16.89716897,18.65411764,16.19745995,14.75643511,13.57280729,6.634647692,6.2838161,10.87437977,13.26905608,14.87023808,15.64114514,14.35392043,12.99006372,12.46836687,7.55733068,0.722983866,1,1,1,1,0.977703003,0.878626049,0.721229646,44.07038575,-93.53519625,2015,MNH1
PHW52/PHN82,WIH2_2019,N,31.225,649.7067468,0,0,250.8333333,111.6666668,67.75,67.75,5.084687524,1.186666648,3.682690384,5.868440751,0.695238091,4.73009737,4.315774648,4.395502279,4.547947068,162.7100008,7.119999886,58.08928529,183.8007161,1.222857135,55.05428533,207.5435701,59.53000056,136.8792876,20.51840827,23.10255337,19.84622659,19.54978709,22.13574316,19.04821964,14.90817086,12.98397937,9.337872891,18.93468753,26.85500018,22.80729416,28.92841129,27.86750015,27.53142967,23.33864799,22.30785619,12.19546616,7.173437506,12.79833317,11.75963315,17.3057567,14.67845241,15.42498763,12.56161555,11.34993986,2.687473085,7.568173943,12.44054354,10.32084191,15.24419851,13.63574066,13.78240318,10.8770868,10.55092288,4.713570865,0.808549105,1,0.995612408,1,1,0.966295589,0.875965566,0.450550638,43.320768,-89.33189475,2019,WIH2
W10005_0107/PHB47,MNH1_2016,Y,18.35,731.1212129,0,2,229,110,71,70,2.893225764,0.170000008,5.030425272,6.121705224,6.438583227,6.210954471,8.179238718,7.617170889,9.394742846,89.68999869,1.190000057,67.79499967,212.8530004,13.67999972,65.11499918,295.599999,62.20750045,287.315495,17.89673604,26.28611401,18.122652,20.29948324,15.80941307,17.87578139,16.93568638,15.29315111,12.15008877,17.5148386,25.45428576,24.53269911,27.63337014,28.14450006,28.70269129,27.15887183,24.8505404,22.53032632,6.338387108,9.824285678,13.68155402,15.81410535,17.82425013,18.42635015,16.92976579,13.57123889,11.50456607,6.871134867,10.90204251,11.6566452,13.98369248,15.05511886,15.68076391,14.22086787,11.86153057,10.26982602,0.734527645,1,1,1,1,0.999952477,0.98729881,0.936092645,44.06646925,-93.533648,2016,MNH1
LH82/PHB47,KSH1_2016,N,13.6,790.3317336,0,2.5,175,80,82.5,82.5,0.381562503,5.593749881,9.031136959,3.981909994,0,0.897724769,5.011421387,3.322424253,5.670073263,12.2100001,44.74999905,140.9509078,148.5090918,0,8.374091108,139.438637,19.93454552,175.7722711,18.43315426,14.04582843,18.34613738,20.88446512,22.70328743,20.59441801,18.34986672,18.15379387,17.32510191,19.15124996,21.70124984,22.33901244,27.19377063,36.31272689,35.17540036,32.01078432,33.85633352,30.76895891,2.130625044,11.46499991,9.568238579,14.2621368,21.58727247,22.04353923,20.78061301,22.71134866,19.49139311,6.3158573,9.667291017,9.626890379,13.35418843,19.56599107,19.14397536,18.06824645,19.12054732,17.03744615,0.741573662,1,0.921279778,0.986042268,0.991287871,0.998977631,0.993550002,1,39.14480675,-96.62898225,2016,KSH1
LH82/PHB47,ONH2_2015,Y,20,759.439288,0,1,237,120,75,76,1.876451608,4.282666683,1.928005431,1.58261263,10.80264742,1.923208582,3.114388399,4.294901914,2.356388962,58.16999984,64.24000025,23.61999965,57.22470651,21.60529484,21.1552944,115.5017658,31.56294079,72.1164696,18.95380112,18.76709785,21.17743809,22.45418875,20.04103015,18.4543581,18.45373918,15.80078253,13.34539525,11.17387095,14.38466663,23.91200153,26.61279381,30.15176526,27.65053462,26.77986929,25.87464046,20.7920557,2.006774224,5.636000033,13.64950245,15.64688346,19.32647026,18.51812829,16.74694623,15.4972221,11.03054456,3.742938436,5.617129505,11.53065914,13.52353119,16.78542678,15.13421866,13.95153495,13.1846932,9.37660249,0.276970043,0.589690475,0.985132406,1,1,1,0.993019959,0.931831119,42.45408625,-81.8816065,2015,ONH2
LH74/PHN82,GAH2_2016,N,12,731.1212129,0,2,222,180,50,50,1.486129045,0,7.316392826,2.079782856,1.718421064,1.264671045,2.43256314,4.61773679,3.235456168,46.07000041,0,60.50999928,55.97210474,3.436842128,10.11736836,67.31736801,23.15894711,100.2847377,20.21189387,22.87583466,19.10112302,21.34036575,17.85876091,19.83818451,18.50479945,15.9975398,17.29687983,27.80677426,30.50400009,32.06010812,34.2138269,34.93842035,34.86282896,34.62455114,33.33373696,32.80003392,13.8351613,16.55600014,19.35906305,20.32019684,22.9621054,21.76434208,22.04984942,22.29670187,20.14649938,13.32566871,15.60302283,17.72531793,18.78372546,20.36638125,19.89190838,19.9091667,19.70080105,18.42340329,1,1,1,1,1,1,1,1,33.717295,-83.3110275,2016,GAH2
PHG39/TX205,GAH2_2017,Y,17.55,727.2596572,0,2,243,136,57.5,58.5,5.215806507,2.59000005,0.877047008,6.976424555,36.66571527,11.68990473,2.766634194,6.717714339,5.237281131,161.6900017,18.13000035,10.98809533,219.4985743,69.630002,116.6428568,77.55666748,33.5885717,162.3557151,18.59375843,20.97986943,21.98193589,18.54567619,14.33990901,17.7663424,19.78523868,18.86354985,17.57616326,25.93516134,24.17571449,30.47339418,29.31252372,29.52904774,29.72980419,32.72601502,32.10511542,30.76784952,12.17225799,9.938571385,16.15324828,18.06353156,20.43476164,19.51114297,21.20992787,20.86352373,19.95543778,11.90954616,10.38538115,15.45655397,15.75249851,16.98190469,16.63412837,18.90169131,18.47155665,17.41241638,0.999631335,0.985714285,1,1,1,1,1,1,33.727145,-83.29821525,2017,GAH2
CG44/CGR01,MOH1_2017,N,16.2,731.1212129,2.5,2,220,90.5,56.5,55,8.937741737,9.40166688,2.512230721,3.318030003,5.035714369,1.794490762,1.996986524,1.220079397,1.67255761,277.0699939,56.41000128,33.26619119,103.9014299,11.93095259,15.87761924,65.30142803,7.334762096,51.25476209,18.72482054,18.08832916,22.62422694,21.00800173,18.77514496,19.93438148,19.70533138,19.36646121,17.34329115,21.92032254,25.32999992,25.47495036,29.30087203,30.46650729,32.25412016,29.92026774,28.22145964,28.04827898,10.06000005,15.27666648,12.99827088,17.39768618,19.78222205,21.21359122,18.70404881,16.33857143,14.9717184,9.612847321,12.76903024,11.94928206,15.49761919,17.12130987,18.67277384,16.20463701,14.48208578,13.92850008,0.915472353,1,1,1,1,1,1,0.999239796,38.89264,-92.2057525,2017,MOH1
PHG80/PHZ51,INH1_2016,N,19.1,688.6441001,0,32.5,279.5,137,62,61.5,3.034516148,1.382857186,3.106568823,3.966270256,3.500454469,6.752636371,3.451172643,3.198528118,3.024422797,94.07000059,9.680000305,31.26000059,138.8759105,3.500454469,67.52636371,113.8927274,21.6654544,92.62590972,17.63328649,23.97511796,20.66441577,20.1236558,19.9706746,19.39149484,18.14527656,15.98533716,14.62820237,18.74516109,26.31142807,27.84898846,28.12893417,28.20272714,29.14504538,29.16779001,27.95564941,27.07739093,7.950322636,11.69428553,16.31817922,16.10606538,16.8522731,18.34872752,18.58889605,17.50284626,15.03841012,7.677100472,11.91689015,14.24288378,14.4184555,14.68521604,15.7994256,15.9329094,14.92238151,13.51734692,0.852649763,1,1,1,1,1,1,0.996102814,40.4787595,-86.98982,2016,INH1
PHN11_PHW65_0323/LH195,WIH2_2015,N,43.2,841.819143,0,0,250,128,65,64,3.126774188,2.655000041,4.103605878,5.336067251,1.868823528,3.142847566,3.066358713,6.463272165,3.426278957,96.92999983,15.93000025,53.58117651,186.0694135,5.435882344,36.03705852,132.4747064,52.80117733,103.4994124,19.63646212,20.57311455,21.5892617,21.07111177,18.36300238,19.20517036,18.54583572,13.68038168,11.37476292,15.6409678,24.97666677,26.11823115,28.09529077,27.51588227,27.91298604,26.4469062,23.95331443,17.63645543,3.355806466,13.62666686,13.88922494,15.17788174,17.2276475,16.92946091,13.73434519,12.63733902,6.343913375,5.370860554,11.93138906,12.65256426,14.04290221,14.43586033,14.57588984,12.76646014,11.49482956,7.023163717,0.588214292,1,1,1,1,0.979783322,0.914260835,0.715230077,43.3264485,-89.33359975,2015,WIH2
PHB47/PHZ51,WIH2_2020,Y,20.75,731.1212129,14.5,2,261,151,67.5,66.5,1.142258063,7.375000167,3.772605813,4.528143625,15.91411821,3.015240613,2.848395651,6.559665308,3.073983535,35.40999997,73.75000167,42.96999988,163.850588,31.01764819,33.16764674,117.7699986,59.84176376,94.45823468,20.73953056,16.04352899,21.23354675,21.58093245,19.01370295,17.88573252,19.32013515,13.57540027,12.27254504,13.56999995,18.91099977,26.0938683,28.2322475,29.46647072,27.75422455,27.09322103,24.80509675,19.00189054,0.762580661,9.396999884,13.99892158,14.99589118,17.7452939,17.49807463,14.22893102,13.29211059,7.459399134,4.176897214,8.107987139,12.68677404,14.02444379,15.66411489,14.70790633,13.20588953,12.26960615,7.833960257,0.443168195,0.881928567,1,1,1,0.990384734,0.880973437,0.780679991,43.294786,-89.383968,2020,WIH2
PHP02/PHB47,OHH1_2016,Y,16.55,729.190435,0,2,260,114.5,65,64,4.328064465,1.776000023,3.915145208,2.580740659,3.890757626,4.17049496,5.079069289,3.957741935,3.614594814,134.1699984,8.880000114,44.70363614,85.9177286,9.330454675,39.94818193,160.1854537,27.69772666,110.1186362,18.3437644,22.24283047,20.73146956,20.35982518,19.15233416,18.82824642,16.72048491,17.98730955,14.71797893,19.63580645,29.63200035,26.56953589,28.59263588,29.59106055,30.69283836,29.21689182,28.27188687,26.30588322,8.120967747,16.89599972,14.9739129,16.70528562,18.30318191,19.74443426,18.9160149,15.44500838,13.40262461,8.117657052,15.32722009,13.17028057,14.81678154,15.96857054,17.23303236,16.11713161,14.21502474,12.5845871,0.859331788,1,1,1,1,1,0.999172078,0.989049277,39.860924,-83.6755995,2016,OHH1
F42/H95,ONH1_2016,Y,29.45,656.4644693,0,1.5,220,114.5,87,83.5,1.979032247,2.105714291,0.92181366,1.439738287,4.720833318,2.435439396,4.62931563,1.31185227,2.043303741,61.34999967,29.48000008,13.31600007,60.28400005,10.99249999,28.54150001,172.0475013,11.37649985,61.38049932,20.24883872,21.56727634,23.77365349,22.41142308,19.3081847,20.61473607,17.12813691,15.31534219,11.6349499,10.49290321,16.47999988,25.01561457,25.51466922,28.22516696,27.99415914,27.31356147,24.49017951,20.3886015,-0.735806467,3.753571405,10.93050922,11.61184699,15.55325019,14.71775745,15.07244109,12.71620509,9.185787659,3.269306411,5.688768484,11.09209761,11.56175859,14.2216101,13.76399544,13.57642435,11.5133866,8.776899495,0.291105988,0.684668367,0.99891379,0.988093962,1,0.998165816,0.971212584,0.877977401,43.4997965,-80.451125,2016,ONH1
W10001_0022/PHB47,WIH1_2016,N,18.9,763.3008437,0,8.5,237.5,112,71,70,2.076129018,1.94750002,4.430291291,4.068377178,0.606590927,8.204471101,6.520888551,7.285801826,4.413191112,64.35999957,23.37000024,50.66818307,153.9786358,1.017727305,87.41727302,222.4604529,58.95590957,134.9268184,19.92805462,20.9108026,19.53546339,20.65690042,18.97296773,19.76360502,17.50876714,15.21370917,12.23883056,16.70258062,17.57583312,27.08182728,26.49130857,27.22159082,28.35833875,27.6700069,25.1458901,22.98674642,3.327419363,4.990833327,14.04723809,14.47423798,17.58636334,16.7186736,17.17399145,14.32051147,12.5735533,5.875866612,6.419508974,12.98865398,12.92924289,14.50224274,14.72651534,14.55658067,12.23924581,10.7486024,0.621198161,0.7653869,1,1,1,0.999967803,0.998306277,0.970976554,43.05632525,-89.53194975,2016,WIH1
PHB47/PHN82,ILH1_2016,N,17.7,731.1212129,0,2,255,126,74,72.5,2.976905237,4.388409027,2.266536067,5.61207631,2.384848472,3.596551307,3.312350719,4.357499975,4.793790319,93.71999985,46.35499933,33.46068128,180.4177266,4.628863606,41.73386359,104.1413657,28.32431801,148.2020453,18.82488241,16.77241452,21.32061235,20.18653607,20.74234538,18.07981042,18.8666989,17.85818253,16.07680721,18.05081144,19.20204525,23.0422997,29.42292662,27.90308728,26.97317812,29.60218573,29.15938829,28.17592877,4.960040295,8.531272602,10.4507586,17.10049505,15.99717794,16.84881478,19.41054858,18.84383108,17.09740687,6.781235125,7.969267807,10.17119166,15.41614171,14.29579798,14.15384892,16.51995977,16.04951253,14.84458937,0.666766271,0.897956159,0.946860721,1,1,1,1,0.999883117,40.0607245,-88.2338815,2016,ILH1
TX714/PHZ51,OHH1_2015,Y,15,776.1726961,0,1.5,259,130,63.5,64,4.820000016,2.056666652,1.801667061,2.430255425,2.070588264,2.75488235,3.664772063,1.623969288,1.874022108,149.4200005,12.33999991,20.27235275,82.00588303,2.23529414,26.29176468,128.0200007,12.16764697,57.18411674,17.71339239,20.831882,20.85048625,20.93566426,20.28419298,19.59839119,17.66236547,17.23782846,14.83481447,16.95064511,28.03666687,26.64173705,29.01382079,31.07970569,30.59522857,27.99762273,26.69097183,23.34659959,5.9283871,15.42166694,14.66308043,16.74801267,19.23764672,18.74322206,16.69895781,13.90980629,10.26308727,6.580773377,14.04730329,13.19467995,15.08203889,17.16864649,16.69143216,14.53513226,12.92347397,10.29932856,0.672569122,1,1,1,1,1,0.994932126,0.947361455,39.855785,-83.66477375,2015,OHH1
B97/PHB47,WIH1_2016,Y,19.4,781.321437,0,4.5,218.5,102.5,71.5,71.5,2.076129018,1.94750002,4.430291291,4.068377178,0.606590927,8.204471101,6.520888551,7.285801826,4.413191112,64.35999957,23.37000024,50.66818307,153.9786358,1.017727305,87.41727302,222.4604529,58.95590957,134.9268184,19.92805462,20.9108026,19.53546339,20.65690042,18.97296773,19.76360502,17.50876714,15.21370917,12.23883056,16.70258062,17.57583312,27.08182728,26.49130857,27.22159082,28.35833875,27.6700069,25.1458901,22.98674642,3.327419363,4.990833327,14.04723809,14.47423798,17.58636334,16.7186736,17.17399145,14.32051147,12.5735533,5.875866612,6.419508974,12.98865398,12.92924289,14.50224274,14.72651534,14.55658067,12.23924581,10.7486024,0.621198161,0.7653869,1,1,1,0.999967803,0.998306277,0.970976554,43.05632525,-89.53194975,2016,WIH1
B37/MO17,GAH1_2020,N,18.41,700.9367191,27,1.5,182.5,97.5,68,65,4.279687563,0,6.08243138,3.811420537,2.267976227,2.530000055,3.98378478,1.741833346,2.910207357,136.950002,0,84.37571335,135.9278565,4.833571502,22.77000049,107.9378566,9.115000069,90.21642806,16.61263859,21.5972875,19.10636237,20.72286693,14.54687945,18.15584731,20.08605453,19.68634889,18.27781732,25.37343752,26.77166684,25.94144379,27.77824619,29.55357116,30.6518255,31.78195276,33.48178532,33.56322575,12.43875006,10.55666669,12.19035929,13.80720781,20.58059497,20.26111097,20.57386992,21.96838095,22.25456222,11.80508215,11.69113274,11.88989525,13.35432975,17.06708306,17.45646823,18.17996521,19.67032327,19.80166763,0.988537947,1,1,1,1,1,1,1,31.5079775,-83.558517,2020,GAH1
LH195/PHZ51,KSH1_2016,N,13.48,784.6681186,0,2.2,177,80,90.6,90.6,0.381562503,5.593749881,9.031136959,3.981909994,0,0.897724769,5.011421387,3.322424253,5.670073263,12.2100001,44.74999905,140.9509078,148.5090918,0,8.374091108,139.438637,19.93454552,175.7722711,18.43315426,14.04582843,18.34613738,20.88446512,22.70328743,20.59441801,18.34986672,18.15379387,17.32510191,19.15124996,21.70124984,22.33901244,27.19377063,36.31272689,35.17540036,32.01078432,33.85633352,30.76895891,2.130625044,11.46499991,9.568238579,14.2621368,21.58727247,22.04353923,20.78061301,22.71134866,19.49139311,6.3158573,9.667291017,9.626890379,13.35418843,19.56599107,19.14397536,18.06824645,19.12054732,17.03744615,0.741573662,1,0.921279778,0.986042268,0.991287871,0.998977631,0.993550002,1,39.14480675,-96.62898225,2016,KSH1
F42/OH43,WIH1_2017,Y,17.7,731.1212129,0,2,229,110,65,64,3.894838602,1.694000003,3.49156578,6.251914317,26.29780264,12.3515148,1.782621048,1.031219451,2.019413967,120.7399967,16.94000003,60.77000046,238.2086357,55.48409002,148.2181776,77.27181808,11.13545426,60.74545419,17.96009764,21.56986256,18.71582301,20.73316127,19.69440102,19.58726141,19.1692292,15.69151392,12.21998586,16.03451621,20.2119998,20.22998088,26.71060266,27.00553033,27.16428033,24.80808837,24.03641879,21.845045,3.37838715,6.260000002,9.268565708,14.6662765,15.35575767,16.21109857,13.17589581,11.52521119,9.509429623,5.507434962,7.720411242,8.664602637,13.14891279,13.46068042,13.9043846,11.67856357,10.90146065,9.608265423,0.606900932,0.8735357,0.867893568,1,1,0.998220242,0.971647403,0.89569217,43.05668125,-89.5308135,2017,WIH1
B14A/MO17,WIH1_2016,Y,19.9,710.5262491,0.5,6.5,255,151.5,74,74.5,2.076129018,1.94750002,4.430291291,4.068377178,0.606590927,8.204471101,6.520888551,7.285801826,4.413191112,64.35999957,23.37000024,50.66818307,153.9786358,1.017727305,87.41727302,222.4604529,58.95590957,134.9268184,19.92805462,20.9108026,19.53546339,20.65690042,18.97296773,19.76360502,17.50876714,15.21370917,12.23883056,16.70258062,17.57583312,27.08182728,26.49130857,27.22159082,28.35833875,27.6700069,25.1458901,22.98674642,3.327419363,4.990833327,14.04723809,14.47423798,17.58636334,16.7186736,17.17399145,14.32051147,12.5735533,5.875866612,6.419508974,12.98865398,12.92924289,14.50224274,14.72651534,14.55658067,12.23924581,10.7486024,0.621198161,0.7653869,1,1,1,0.999967803,0.998306277,0.970976554,43.05632525,-89.53194975,2016,WIH1
PHN11_OH43_0001/PHB47,ONH1_2016,N,29.2,625.5720237,0,3.5,201.5,108,86,82,1.979032247,2.105714291,0.92181366,1.439738287,4.720833318,2.435439396,4.62931563,1.31185227,2.043303741,61.34999967,29.48000008,13.31600007,60.28400005,10.99249999,28.54150001,172.0475013,11.37649985,61.38049932,20.24883872,21.56727634,23.77365349,22.41142308,19.3081847,20.61473607,17.12813691,15.31534219,11.6349499,10.49290321,16.47999988,25.01561457,25.51466922,28.22516696,27.99415914,27.31356147,24.49017951,20.3886015,-0.735806467,3.753571405,10.93050922,11.61184699,15.55325019,14.71775745,15.07244109,12.71620509,9.185787659,3.269306411,5.688768484,11.09209761,11.56175859,14.2216101,13.76399544,13.57642435,11.5133866,8.776899495,0.291105988,0.684668367,0.99891379,0.988093962,1,0.998165816,0.971212584,0.877977401,43.4997965,-80.451125,2016,ONH1
B73/PHZ51,IAH4_2015,Y,16.25,722.1109162,34.5,5,260,131.5,65,64,1.42451612,4.854615514,2.513668144,6.351127419,5.46999979,2.154687441,1.85099418,0.335758934,4.064770202,44.15999973,63.11000168,35.58999979,218.2399999,10.93999958,20.30812445,58.48687407,2.377500039,125.1143763,19.83997888,19.28772805,16.02270398,20.69822917,17.27718186,21.35831173,20.17303565,19.59360772,15.6142427,15.83032262,16.78769229,22.26164163,27.88725423,29.37999988,31.52784708,28.69895342,30.18404469,25.46833276,2.473548389,5.024615425,13.48280789,16.59868734,20.37374985,19.78628468,17.37298211,16.89515858,12.68514048,5.318693913,6.228847238,10.78291245,14.47529064,16.87687486,17.66054739,15.18141656,15.71210426,12.05907357,0.585391697,0.659230777,0.98994413,1,1,1,1,0.952600636,41.19970961,-91.49362406,2015,IAH4
LH195/LH82,ONH1_2017,N,34.2,644.2362096,0,4.5,240,112.5,80,80,4.42290319,4.904999876,1.545173221,3.420435244,1.695375006,2.594700004,1.855534774,1.54565171,2.383111348,137.1099989,49.04999876,23.52600009,140.8034994,5.378000009,36.46150006,95.23350107,29.85300009,72.44250006,18.65662235,17.08545341,23.10813164,20.12586768,18.11232318,19.44819915,16.33652997,11.62209215,7.957733996,13.94322577,18.20700026,22.35689536,24.80045755,25.17183321,25.2296929,22.79396283,22.13957367,13.29532023,3.578387066,9.706999969,10.10387851,14.12185296,14.82349991,13.63261195,10.3904862,9.847475595,3.166289439,4.958212412,8.025894563,9.659097931,11.97096233,12.35740613,11.98311106,9.953455995,10.0654016,5.273375752,0.439723498,0.877642858,1,1,1,0.972410901,0.840292505,0.515578473,43.49546,-80.42596875,2017,ONH1
B73/PHN82,MIH1_2020,N,23.695,774.0273873,0,15.33333333,241.3333333,135,62.66666667,61.5,4.984838709,2.447142908,2.78018427,2.64718347,5.506875038,1.476884461,2.688717092,6.006552647,2.65185957,154.53,17.13000035,30.43499947,89.07562375,6.053750038,16.17374991,112.2143753,49.72375022,79.8756258,20.40588462,19.28742858,24.32683064,21.06964646,18.47526628,19.40802789,18.05267967,13.18055513,11.8632568,17.75483874,24.12857165,28.18736501,29.25734834,30.47187495,29.12451894,27.19720882,23.65947149,18.53645566,5.91032262,13.18571418,13.36449351,15.87753885,17.57625037,17.40439215,14.2199518,12.09430501,6.603961046,6.886871568,11.64218502,13.33305563,14.86544572,16.04104967,15.33737973,13.2580117,11.17810785,7.349100415,0.70564517,0.993469382,1,1,1,0.990981538,0.929873564,0.775463757,42.7085775,-84.4705825,2020,MIH1
B73/PHM49,NYH3_2020,N,16.85,637.8002834,0,0.5,224,102,73.5,73.5,4.422257993,0,1.373865683,3.203515064,6.161458224,3.578657229,2.247619776,1.339995863,2.270768823,137.0899978,0,18.69000064,113.6731244,12.19749978,37.86125033,87.74812532,17.041875,68.54562519,20.94560956,21.78233427,21.55267425,20.63825651,19.18147684,18.87690393,17.75633085,13.93943947,11.5316014,14.59225801,27.97729172,23.60945411,27.89842024,28.17958339,28.76829368,26.51617347,21.47489044,18.12990527,2.644717742,15.68266662,11.3508871,15.53912014,16.43281273,17.50013456,14.53010818,10.52921434,6.891416056,5.000434995,14.04753459,10.70035646,14.11697706,14.42792892,15.19886376,13.03509367,9.604727821,7.356101809,0.471947005,1,0.969562211,0.99553941,1,0.989555914,0.903066166,0.764418635,42.73227475,-76.6513705,2020,NYH3
B73/PHM49,KSH1_2016,Y,14.5,810.9266974,0,2,180,110,93,93,0.381562503,5.593749881,9.031136959,3.981909994,0,0.897724769,5.011421387,3.322424253,5.670073263,12.2100001,44.74999905,140.9509078,148.5090918,0,8.374091108,139.438637,19.93454552,175.7722711,18.43315426,14.04582843,18.34613738,20.88446512,22.70328743,20.59441801,18.34986672,18.15379387,17.32510191,19.15124996,21.70124984,22.33901244,27.19377063,36.31272689,35.17540036,32.01078432,33.85633352,30.76895891,2.130625044,11.46499991,9.568238579,14.2621368,21.58727247,22.04353923,20.78061301,22.71134866,19.49139311,6.3158573,9.667291017,9.626890379,13.35418843,19.56599107,19.14397536,18.06824645,19.12054732,17.03744615,0.741573662,1,0.921279778,0.986042268,0.991287871,0.998977631,0.993550002,1,39.14480675,-96.62898225,2016,KSH1
B37/MO17,OHH1_2019,N,27.425,655.4990804,0,0,255.5,110,62,58.75,4.521875016,5.601428505,9.492184188,3.677677905,1.565714342,0.385974026,1.865305095,1.659047621,1.751738837,144.7000005,39.20999953,109.352857,105.4928564,2.907142963,4.24571429,67.73714224,11.40714287,52.9257135,18.88405965,17.49267101,16.84002865,20.33907461,18.24357363,21.92391064,17.3234713,16.43535432,12.68824739,23.69781238,23.04428564,25.93387695,30.64626114,27.23428535,29.13649368,27.63471609,28.40205787,24.22775882,12.37312506,13.01428563,16.54052476,19.15377674,17.29857152,16.61116873,15.68739982,14.41860554,10.15227039,11.09781511,10.85645158,13.41085782,16.95249079,14.39118839,15.00214972,13.92115805,13.81574558,10.76649669,0.952522323,1,1,1,1,1,1,0.923664697,39.85685125,-83.67122475,2019,OHH1
PHW52/PHM49,NEH1_2015,N,14.75,790.3317336,0,2,235,115,65,56,2.959062506,0.753999996,4.745632833,2.187040691,0.179999996,3.601448917,1.548000793,0.057812502,1.589214364,94.69000018,3.769999981,46.84999943,63.50812512,0.239999995,39.12187557,55.49499987,0.586250016,47.85812447,19.07194562,25.84699936,20.00593662,19.96245842,20.96463704,17.86296284,18.31175333,17.30405645,12.3794141,23.74906254,30.51399994,29.13009987,30.74148671,30.73750019,28.43858622,29.13031746,26.88374984,20.12342532,13.19218739,15.46999989,18.04036499,19.18092822,19.11281252,17.33248289,15.92131484,11.1533021,6.525200269,11.64481375,15.25955733,15.68336601,16.96891106,16.93845514,15.07345461,14.95183393,12.01070089,8.15887847,0.924598212,1,1,1,1,0.96969665,0.982957588,0.758540943,41.290979,-96.41664325,2015,NEH1
B73/MO17,TXH2_2020,N,12.3025,700.5505636,0,2,194.31,60.325,71.5,72,2.284333333,0,4.621906019,2.982124861,1.655000005,6.689114015,2.894056698,2.615892851,2.528400138,68.53,0,55.88714266,111.3664289,1.655000005,70.91857161,82.98143064,12.87071426,76.16571382,13.91343843,13.3863348,15.08661116,19.80328892,19.03358821,19.2160028,19.61198116,21.5690046,17.9190584,20.02266652,27.17999992,26.59088772,26.49063582,29.80749984,29.13094588,32.17534358,33.00407163,34.57616138,6.794333295,17.20400028,15.22554111,13.60666406,17.96904786,16.63267817,20.78659354,19.79317827,24.13923583,7.901247141,14.27292515,13.36557264,12.73068931,16.08957262,15.12192719,18.39831967,18.39239984,20.46927813,0.821357143,1,0.992404768,0.99375244,1,1,1,0.999043315,30.53825625,-96.42790225,2020,TXH2
B37/H95,MNH1_2020,N,25.55,763.9444363,0,0,261.5,134,71.5,66,0.943005099,6.546073051,4.140359128,4.707487639,0.452236841,2.543512757,5.928901117,4.270615044,2.501087783,29.23315806,64.90105435,50.61684199,155.384737,0.714736844,28.61736839,219.2994748,34.34473765,76.93105461,20.83516212,15.73399946,19.74828467,20.97522671,19.78574355,20.20086134,18.41063051,15.8353279,12.84776632,15.708455,18.53155205,25.82840423,28.49526052,29.92499944,28.21992409,26.52185226,25.93987928,19.74067922,2.261239378,9.186207707,13.99244036,16.68286788,19.34447405,16.90528318,15.09377646,14.30914312,8.593217323,5.370680578,7.953384306,12.46596379,14.77865871,16.66236577,14.75116185,13.25288188,13.01752467,8.666130292,0.622613994,0.838417993,1,1,1,0.988450437,0.93066422,0.780758993,44.06907839,-93.53263028,2020,MNH1
W10005_0107/PHB47,OHH1_2017,N,14.7,751.7161766,0,2,229,110,65,64,4.401935447,12.29571451,4.299880116,6.252045262,18.36299991,4.892395558,3.195317293,3.431958172,3.794688752,136.4599988,86.0700016,53.63949916,223.8204996,40.86499989,50.26800107,124.097,30.99400014,115.4320013,19.0647902,19.03427505,21.00226491,20.15032754,19.69555429,18.89580098,18.69837911,16.0400155,13.85510684,20.47903239,25.43142836,25.24002704,27.25803818,28.09541678,28.73270468,26.30456447,24.69395371,24.25720733,8.011935501,13.44999967,12.59882409,15.91673102,16.75358336,18.39824095,14.97688189,13.11535887,11.81284403,8.407228033,12.106522,11.63721293,13.8931373,14.6377479,15.63224373,13.07252875,11.66012039,11.13333271,0.85352535,1,1,1,1,0.996926048,1,0.96495674,39.855785,-83.66477375,2017,OHH1
B73/PHN82,TXH1_2020,N,13.86666667,744.2075961,0,2,201.93,71.12,68.83333333,68,2.284333333,0,4.613530444,2.949806388,1.362941181,6.741056464,2.844869093,3.829088224,2.301094231,68.53,0,55.97058804,110.7988238,1.362941181,71.52235312,82.32059028,18.97352936,69.29117607,13.91343843,13.3863348,15.08816438,19.79337859,19.48130546,19.24170726,19.77113757,20.7945973,17.91495332,20.02266652,27.17999992,26.60815942,26.52479293,29.39617636,29.12989124,32.2266946,33.03076485,34.59511331,6.794333295,17.20400028,15.2455437,13.65359797,17.29686298,16.61337131,20.73348334,20.06167624,24.24037069,7.901247141,14.27292515,13.38037585,12.76738989,15.58009007,15.11126374,18.39892159,18.53701373,20.50202011,0.821357143,1,0.99243504,0.993791594,1,1,1,0.999042533,30.53781575,-96.4283715,2020,TXH1
PHN11_PHW65_0323/LH195,NEH1_2015,N,15.35,787.7573632,0,2,240,110,65,60,2.959062506,0.753999996,4.745632833,2.187040691,0.179999996,3.601448917,1.548000793,0.057812502,1.589214364,94.69000018,3.769999981,46.84999943,63.50812512,0.239999995,39.12187557,55.49499987,0.586250016,47.85812447,19.07194562,25.84699936,20.00593662,19.96245842,20.96463704,17.86296284,18.31175333,17.30405645,12.3794141,23.74906254,30.51399994,29.13009987,30.74148671,30.73750019,28.43858622,29.13031746,26.88374984,20.12342532,13.19218739,15.46999989,18.04036499,19.18092822,19.11281252,17.33248289,15.92131484,11.1533021,6.525200269,11.64481375,15.25955733,15.68336601,16.96891106,16.93845514,15.07345461,14.95183393,12.01070089,8.15887847,0.924598212,1,1,1,1,0.96969665,0.982957588,0.758540943,41.290979,-96.41664325,2015,NEH1
LH198/PHZ51,MOH1_2016,N,16.95,731.1212129,0,2,257.5,125,56,55.25,2.465483877,8.058000231,0.264259377,6.282521268,1.94553035,9.25680559,4.358907121,3.354664451,5.453130527,76.43000019,40.29000115,2.879999995,172.8372758,4.262727369,83.20363667,125.2090916,21.13363606,168.2240918,20.2309363,16.93509369,22.49829557,20.20959989,18.68177986,19.21408964,18.0090922,17.17714413,15.87534947,21.83193548,27.56600037,27.88644765,31.21215235,30.25795442,31.2505745,30.57423065,29.80077912,28.25339236,10.073871,16.74400005,16.26474463,19.86215984,19.98371223,20.49117413,20.76153791,19.91431794,17.56318368,9.497798547,14.24343349,14.21296425,17.47336946,17.12232598,17.8699151,17.65104862,16.90998551,15.09561117,0.937315665,1,1,1,1,1,1,0.999442641,38.8955475,-92.2072025,2016,MOH1
2369/LH123HT,TXH3_2019,N,10.855,807.8310169,0,0,227.5,77.5,71.5,70.5,1.71448275,0.072857141,3.656594302,9.095434564,0.409285716,1.207678571,5.355850783,1.246142852,1.574419343,49.71999974,0.50999999,52.00785631,328.2121388,0.592857139,9.661428571,146.4478573,6.531428533,47.51499965,15.42805705,20.52131135,18.76898834,18.57032559,21.42349659,18.85281525,20.14881361,21.03072751,19.84089234,18.45000007,25.76428577,24.43254944,27.27586732,31.09000002,32.37866099,32.72435205,34.04471448,34.98200776,6.826206914,10.35000004,10.67963154,14.78766739,18.65857179,21.85071427,21.02442735,21.79614282,22.6049739,7.457816468,11.1589152,10.85119479,13.46630403,16.91193677,19.11412105,18.84765314,19.77807102,20.01419559,0.749667494,1,0.945308164,1,1,1,1,0.999698925,30.546318,-96.4329965,2019,TXH3
LH212HT/LH195,MIH1_2016,N,18.9,723.3981015,0,24,245,132,65,64.5,3.213870927,0.372000003,1.277668238,2.072144594,0.204761899,2.382636341,6.277866916,3.129595251,4.115734243,99.62999874,1.860000014,16.77857134,74.4033328,0.614285696,24.34142835,217.3680916,23.88571438,123.5814282,20.04481233,22.69628944,22.57460654,21.19066928,19.62511718,19.41470496,17.43536011,14.16523572,12.41239439,17.74322581,29.20999985,25.57947765,28.1508514,27.23547651,30.32783564,28.27294529,26.6388532,22.50219404,5.299677434,16.33600006,11.90361174,14.70447611,15.74579377,17.52671,16.25511672,15.58650841,10.86825081,6.615827776,14.89908974,11.62365975,13.82943527,13.70908531,16.01583991,14.48649579,13.48265,10.09129455,0.734400922,1,1,1,1,0.999987733,0.99326559,0.936590208,42.41206675,-84.2952625,2016,MIH1
B73/MO17,MOH1_2017,N,17.15,731.1212129,1,4.5,256.5,140.5,66,63.5,8.937741737,9.40166688,2.512230721,3.318030003,5.035714369,1.794490762,1.996986524,1.220079397,1.67255761,277.0699939,56.41000128,33.26619119,103.9014299,11.93095259,15.87761924,65.30142803,7.334762096,51.25476209,18.72482054,18.08832916,22.62422694,21.00800173,18.77514496,19.93438148,19.70533138,19.36646121,17.34329115,21.92032254,25.32999992,25.47495036,29.30087203,30.46650729,32.25412016,29.92026774,28.22145964,28.04827898,10.06000005,15.27666648,12.99827088,17.39768618,19.78222205,21.21359122,18.70404881,16.33857143,14.9717184,9.612847321,12.76903024,11.94928206,15.49761919,17.12130987,18.67277384,16.20463701,14.48208578,13.92850008,0.915472353,1,1,1,1,1,1,0.999239796,38.89264,-92.2057525,2017,MOH1
PHW52/PHN82,GAH1_2016,N,16.2,786.7919742,0,2,182.5,70,61.5,59,6.466250051,4.395000041,0.566421492,2.549627568,3.17469698,5.859943136,4.096967014,2.330999996,2.476261007,206.9200016,35.16000032,6.21000006,86.0200003,9.52409094,52.42727233,105.6731797,11.65499998,76.76409122,15.95696127,18.25385642,20.33100053,20.74024209,20.01064868,19.54302735,19.38198769,19.26953352,18.21451922,23.62687498,22.98249984,28.56134937,29.4983659,33.37075638,32.62719045,33.25026907,34.51499955,33.94928126,11.29749997,10.47000009,15.64744728,16.2846205,20.78287862,20.61269551,21.56927107,22.51809092,22.40467728,10.53971422,9.962440438,14.36481163,15.11313475,19.02952924,18.56859265,19.26668195,20.34390963,19.99415841,0.993928569,1,1,1,1,1,1,1,31.5079175,-83.55854775,2016,GAH1
CG60/LH162,DEH1_2017,Y,17.7,731.1212129,0,2,229,110,65,64,2.917187458,6.201428686,3.00780289,3.517983876,1.211428521,1.632751291,5.214259368,11.31934688,4.882730708,93.34999865,43.4100008,45.34571489,126.7790489,1.268571377,15.48333303,157.8533328,69.24809492,151.3147631,17.05647962,17.73228645,20.71096481,19.57386043,19.15556694,20.88592809,18.21237176,18.15756056,16.58607394,20.26624998,24.66142872,21.72245043,26.82298965,30.35071437,30.31148162,30.69555299,28.43090921,27.29702356,9.32593758,14.19571427,10.68752201,16.75855213,19.906349,19.88150788,21.21690322,18.72144455,17.91444491,8.690479953,12.08402314,9.787934269,14.12431868,17.15482568,17.14050735,17.94790556,15.63546309,14.74613823,0.907287956,1,0.959736116,1,1,1,1,1,38.67025825,-75.4333645,2017,DEH1
LH195/PHZ51,ARH1_2017,N,13.425,657.4298582,0,2,207.325,109.225,69.75,68.5,3.058125025,3.532857077,9.871688678,6.405160528,0.516363615,5.988171668,5.119232493,3.102318153,5.34158356,97.86000079,24.72999954,132.0327285,211.6218184,0.569545432,54.36818138,136.8913653,16.08272713,165.5890903,17.13974981,16.55343887,20.38424011,18.76225527,22.81364793,19.06964508,19.53553475,19.77193111,17.12972935,24.60906261,23.96000045,24.77057006,28.06605652,30.35469691,31.5146664,31.30577636,32.78459133,30.91587993,11.9175,14.17857156,11.8445801,17.60850246,18.97249995,21.30615642,21.39979275,22.50533316,21.62237538,11.1639709,11.77578055,11.22655186,14.97537354,16.74359516,18.41041141,18.33049426,19.54768126,18.22457608,1,1,1,1,1,1,1,1,34.7272515,-90.76032575,2017,ARH1
F42/OH43,IAH3_2019,Y,27.5,673.84147,3.5,2,227.5,113,65,64,2.879677419,8.325833271,8.514982687,3.930253796,0.537380945,2.3054841,2.306432914,9.350841805,5.38576807,89.26999998,99.90999925,122.1842849,140.4857139,1.612142835,22.50785688,97.56999955,77.30999979,164.0414292,18.1142604,18.14433392,18.34133211,20.20102762,20.30083813,21.10542726,19.14151731,15.03963484,12.83068274,16.60032246,18.1858333,22.24543073,27.09611601,28.60416662,30.1634999,27.59661349,25.62734982,23.13272506,3.497096781,6.015833348,10.94521806,15.70806976,18.18130992,18.44873807,15.55405048,14.14793364,12.04513443,5.803122395,7.048807354,9.977529243,13.7421048,15.43701566,16.36698878,13.8976006,12.43400485,10.94701098,0.634539169,0.718095232,0.926337681,1,1,1,0.9932483,0.897879883,41.97593131,-92.24310603,2019,IAH3
PHN11_PHG47_0251/PHB47,IAH3_2015,Y,15.3,727.2596572,11,1,245,115,65,64,1.888124991,2.913571392,3.784813995,6.971928843,0,3.257500064,1.487385228,2.541446469,4.507444947,60.41999972,40.78999949,55.43999982,241.6600003,0,32.57500064,50.31437471,24.68500039,138.7756267,19.80172794,20.03998334,15.9141292,20.68283491,21.69136486,21.24428636,20.63784564,18.68301758,14.92198489,14.64187506,16.6814285,21.6371088,27.61372247,30.87885427,30.3035625,28.596254,28.51656267,24.33389908,0.83250004,3.600714236,12.24542872,16.05178152,19.47364565,18.11006255,15.99319583,14.30373217,10.64901215,4.605131548,5.787499831,10.11465775,14.1164012,17.17624996,16.25391669,14.57670766,13.97583386,10.87542788,0.501462055,0.634540813,0.981270753,1,1,1,0.968879463,0.933929792,41.97585629,-92.24291804,2015,IAH3
LH212HT/LH195,ARH1_2016,N,15.85,798.054845,0,2,206.5,111,72,71,12.62656226,6.052222146,7.859593922,4.411032368,3.769999921,0.095833332,1.834913509,2.950363528,2.931715563,404.0499923,54.46999931,101.1431819,160.496816,7.539999843,0.824999988,46.86636396,14.75181764,90.88318244,16.40757677,14.40289243,17.41332625,19.31399891,17.48165414,22.15918181,19.7781726,18.25208951,17.22596404,20.37124979,20.08666674,25.25253507,26.30445415,29.50681779,32.27019592,33.22074717,33.17606868,32.75999986,8.53968759,10.04999993,14.84655054,15.67568893,20.10318184,20.90335237,23.01320039,23.46584116,23.35664232,8.376579132,8.623890092,12.4075181,13.38568101,16.80499981,18.57005087,20.09384313,20.24603027,19.89808151,0.932198657,0.999841266,1,1,1,1,1,1,34.72952,-90.7603555,2016,ARH1
PHG39/TX205,IAH1_2015,Y,22.1,669.3363216,0.5,5,291.5,163,65,64,1.566451638,2.213076954,8.402418557,1.323463692,0.084411761,2.297359398,2.93999255,2.37101191,2.732793763,48.56000078,28.7700004,122.1399999,43.52999979,0.168823523,22.82352863,100.1182349,16.67000003,83.81294001,20.43214903,18.85811498,14.63317728,22.31276759,19.14227258,22.20806523,19.83862588,18.33763158,15.0581957,16.08774191,16.64538457,21.84697853,28.7334183,30.26852911,31.30747052,29.05105531,29.39636272,24.66946357,1.839032284,4.865384661,13.12892854,16.86768962,20.05941139,18.05705196,16.3929614,15.43749916,11.17229855,5.447129731,6.098188577,10.48240964,14.99632473,17.16639266,16.72884186,14.96924927,14.77137221,11.30644361,0.593087559,0.682994502,0.988452545,1,1,0.997626801,1,0.896934674,41.9980952,-93.69336973,2015,IAH1
B73/MO17,NYH2_2018,N,19.09,735.7550797,3.25,5.75,216.25,113,71,69.5,4.152903213,0.855714253,1.31693108,2.056877316,18.60714291,4.17142208,1.796460541,3.71345921,2.001911684,128.7399996,5.989999771,17.50499944,73.5107149,37.6500001,45.13714288,70.0178584,34.82000022,60.53000028,20.64383799,23.73438372,20.97980276,21.28373647,15.72294375,18.26843876,18.50915054,13.77481919,12.83457813,12.82806446,24.72714315,24.76775456,27.60101009,28.96428537,28.5122727,26.91050025,24.01606741,19.66558606,1.452258048,10.48999977,13.07559666,14.8719081,19.08642861,17.4819286,14.95013511,12.80738491,7.865124395,4.113027627,10.74522894,11.82847182,13.74928068,16.05096628,15.06575239,13.37181447,11.42873851,8.144119245,0.351670502,1,0.973410204,0.99504728,1,0.991140913,0.940533101,0.821942422,42.72611075,-76.65530175,2018,NYH2
F42/H95,TXH2_2019,N,11.955,813.6684019,0,0,203,72.5,70.5,70,1.71448275,0.072857141,3.656594302,9.095434564,0.409285716,1.207678571,5.355850783,1.246142852,1.574419343,49.71999974,0.50999999,52.00785631,328.2121388,0.592857139,9.661428571,146.4478573,6.531428533,47.51499965,15.42805705,20.52131135,18.76898834,18.57032559,21.42349659,18.85281525,20.14881361,21.03072751,19.84089234,18.45000007,25.76428577,24.43254944,27.27586732,31.09000002,32.37866099,32.72435205,34.04471448,34.98200776,6.826206914,10.35000004,10.67963154,14.78766739,18.65857179,21.85071427,21.02442735,21.79614282,22.6049739,7.457816468,11.1589152,10.85119479,13.46630403,16.91193677,19.11412105,18.84765314,19.77807102,20.01419559,0.749667494,1,0.945308164,1,1,1,1,0.999698925,30.546318,-96.4329965,2019,TXH2
B37/H95,ARH1_2016,N,17.4,782.6086222,2,1.5,187.5,104,71,69,12.62656226,6.052222146,7.859593922,4.411032368,3.769999921,0.095833332,1.834913509,2.950363528,2.931715563,404.0499923,54.46999931,101.1431819,160.496816,7.539999843,0.824999988,46.86636396,14.75181764,90.88318244,16.40757677,14.40289243,17.41332625,19.31399891,17.48165414,22.15918181,19.7781726,18.25208951,17.22596404,20.37124979,20.08666674,25.25253507,26.30445415,29.50681779,32.27019592,33.22074717,33.17606868,32.75999986,8.53968759,10.04999993,14.84655054,15.67568893,20.10318184,20.90335237,23.01320039,23.46584116,23.35664232,8.376579132,8.623890092,12.4075181,13.38568101,16.80499981,18.57005087,20.09384313,20.24603027,19.89808151,0.932198657,0.999841266,1,1,1,1,1,1,34.72952,-90.7603555,2016,ARH1
B73/TX779,TXH3_2020,N,12.05,753.6469545,0,2,240.665,110.49,61.25,59.75,3.45875001,5.345714297,0.996479651,4.090893152,11.37176514,0.055555557,3.334418123,0.880352915,2.226110039,110.6800003,37.42000008,12.08058808,124.9758839,22.74353027,0.450000013,88.32823513,3.714117541,69.00941121,15.8034201,18.34009743,21.30541133,19.40762275,20.16580067,20.62125497,19.02899565,16.94703156,18.75160362,25.77062485,24.00285694,27.63577502,29.95402965,30.19186265,32.38063702,33.36328143,35.03835301,35.63206825,14.19906271,12.24428552,13.92062761,17.60156859,18.33921522,21.14142164,21.88591696,25.71364726,24.34760913,12.60372436,11.20425028,13.29865333,15.96364287,16.27361839,18.69618421,19.4144726,21.47019646,20.81901077,0.989866069,1,1,1,1,0.99995416,0.999321567,0.998827006,30.53869475,-96.4274175,2020,TXH3
B37/OH43,WIH1_2018,Y,20.8625,780.5491258,0,2,260,119.5,66.75,66,1.609999989,7.097692302,4.543300024,5.384655594,12.90857152,6.684415526,1.835393967,1.490247701,3.282350194,49.90999967,92.26999992,56.1414287,188.537143,17.774286,73.52857079,76.14071582,18.50214262,100.642856,20.21844376,17.61529163,19.67186989,21.74517717,19.19342093,18.08513378,19.62003162,16.98075827,12.74863056,13.31193533,16.25923072,24.73561688,28.00164855,31.39095186,28.11097395,26.99453296,26.15077082,19.9357303,1.183225821,5.521538512,13.28283365,14.89542408,18.89249983,17.62870117,14.61713968,12.9208708,8.385953947,4.208379921,6.163069931,11.75441076,13.86262536,17.16453014,14.91796624,13.29691021,12.54059059,8.511099252,0.430714275,0.66777473,1,1,1,0.987929958,0.939058758,0.805939432,43.0544,-89.5317,2018,WIH1
B73/PHZ51,ARH2_2016,N,12.6,731.1212129,0,2,225,127.5,64.5,62,5.780937422,12.26500018,3.712120208,7.0222886,1.105000019,0.295568184,1.931287914,1.454696927,6.280835692,184.9899975,73.59000111,50.67409075,233.2059098,2.210000038,2.364545475,51.29727264,7.656817956,194.7059064,17.76457119,17.22719622,20.14058537,19.80644481,18.88262117,19.79738723,18.69440654,19.88854878,15.60714355,21.02781257,25.69833342,24.88224707,27.55747889,33.1628785,33.38017045,32.40728063,33.71248445,31.37684753,8.517187547,14.13833332,13.26693003,16.75834882,22.79151535,23.21522755,22.56353312,22.95024234,22.3752492,8.626308124,12.37618007,11.75818796,14.46644855,19.89189903,20.24263088,19.43024202,20.23735303,18.81126952,0.958649555,1,1,1,1,1,1,1,35.838614,-90.66530155,2016,ARH2
B97/PHB47,IAH3_2015,Y,16.15,714.3878048,3,10.5,256.5,113.5,65,64,1.888124991,2.913571392,3.784813995,6.971928843,0,3.257500064,1.487385228,2.541446469,4.507444947,60.41999972,40.78999949,55.43999982,241.6600003,0,32.57500064,50.31437471,24.68500039,138.7756267,19.80172794,20.03998334,15.9141292,20.68283491,21.69136486,21.24428636,20.63784564,18.68301758,14.92198489,14.64187506,16.6814285,21.6371088,27.61372247,30.87885427,30.3035625,28.596254,28.51656267,24.33389908,0.83250004,3.600714236,12.24542872,16.05178152,19.47364565,18.11006255,15.99319583,14.30373217,10.64901215,4.605131548,5.787499831,10.11465775,14.1164012,17.17624996,16.25391669,14.57670766,13.97583386,10.87542788,0.501462055,0.634540813,0.981270753,1,1,1,0.968879463,0.933929792,41.97585629,-92.24291804,2015,IAH3
PHN11_PHW65_0323/LH195,ARH1_2018,N,20.36666667,671.4387242,0.666666667,2,184.6666667,103.6666667,66.66666667,62,6.807499945,4.709999936,2.627776375,4.735912158,3.619166647,6.960178526,4.330437569,0.796285741,3.374677434,217.8399982,32.96999955,35.48928591,145.2942843,5.831428528,62.51428531,109.7978577,4.003571561,104.6150005,17.99706709,21.70226043,20.05949982,19.52680112,21.59397623,17.99264813,18.0574776,19.33215022,18.30424355,21.07062507,24.31857109,24.02168934,29.45279857,31.73095224,30.70692423,32.5717108,33.29521443,31.83741963,10.26718749,12.03571429,12.70205088,18.67412083,19.99154783,20.64677572,22.90335213,23.23585706,21.28834102,9.223277534,11.01036775,11.27832322,16.11267445,17.86206546,17.6775748,19.72770382,20.19469271,18.54368809,0.945725441,1,1,1,1,1,1,1,34.729679,-90.7603455,2018,ARH1
PHB47/PHZ51,NYS1_2020,Y,14.25,747.2110283,0,2.5,264.5,109,66.5,66.5,4.422257993,0,1.465106888,3.112730419,5.226388772,3.791500035,2.252145842,1.205606062,2.258500008,137.0899978,0,18.69000064,111.7083327,11.12166643,40.23500037,81.04333365,12.37166667,67.75500025,20.93932216,21.78258165,21.50902141,20.73125831,19.36904918,18.75308368,18.06102422,15.18229782,12.07034185,14.51129027,27.91833337,23.80048522,27.65661692,28.12555557,28.75518193,26.95460769,22.41267031,19.20822226,2.574516131,15.64333328,11.50500006,15.28648379,16.42583349,17.59142435,15.02631586,10.71009203,7.777611178,4.955392842,14.00347271,10.82536169,13.9247866,14.40689442,15.2259098,13.37336426,9.961154016,7.871549184,0.467914747,1,0.970676975,0.994134504,1,0.998779762,0.945742115,0.836474207,42.7322645,-76.651743,2020,NYS1
PHG80/PHZ51,NYH2_2016,N,20.6,731.1212129,0,2,163,76.5,76.5,71.5,2.034516133,1.030000001,1.88805842,0.867300396,1.140952366,2.326450204,3.376451109,4.287746575,3.208572451,63.07000011,12.36000001,22.4085716,34.4438095,2.622857094,25.59095225,116.65619,31.75809508,97.82571426,19.21240982,23.35584625,23.40556822,22.17883586,23.94456446,21.25361649,17.18897092,16.17245816,13.35906413,14.04935483,18.68749992,27.50851283,26.23633728,28.78071431,29.31692664,28.41638555,26.44500865,23.15297547,1.686774175,4.439999988,12.92699036,12.85534504,13.89476193,15.65588736,16.863818,13.58818034,10.55762265,4.511298309,6.607155497,12.88765676,12.33330427,13.7996272,14.74166699,14.82295673,12.66050813,10.26842414,0.447315667,0.804761906,0.999400038,0.994542932,1,0.999880088,0.994843294,0.949842165,42.726117,-76.655339,2016,NYH2
LH195/LH82,MNH1_2016,Y,22.7,731.1212129,0,2,229,110,67,65.5,2.893225764,0.170000008,5.030425272,6.121705224,6.438583227,6.210954471,8.179238718,7.617170889,9.394742846,89.68999869,1.190000057,67.79499967,212.8530004,13.67999972,65.11499918,295.599999,62.20750045,287.315495,17.89673604,26.28611401,18.122652,20.29948324,15.80941307,17.87578139,16.93568638,15.29315111,12.15008877,17.5148386,25.45428576,24.53269911,27.63337014,28.14450006,28.70269129,27.15887183,24.8505404,22.53032632,6.338387108,9.824285678,13.68155402,15.81410535,17.82425013,18.42635015,16.92976579,13.57123889,11.50456607,6.871134867,10.90204251,11.6566452,13.98369248,15.05511886,15.68076391,14.22086787,11.86153057,10.26982602,0.734527645,1,1,1,1,0.999952477,0.98729881,0.936092645,44.06646925,-93.533648,2016,MNH1
PHB47/PHN82,ONH1_2017,Y,28.15,639.7310613,0,6,245,110,78,78,4.42290319,4.904999876,1.545173221,3.420435244,1.695375006,2.594700004,1.855534774,1.54565171,2.383111348,137.1099989,49.04999876,23.52600009,140.8034994,5.378000009,36.46150006,95.23350107,29.85300009,72.44250006,18.65662235,17.08545341,23.10813164,20.12586768,18.11232318,19.44819915,16.33652997,11.62209215,7.957733996,13.94322577,18.20700026,22.35689536,24.80045755,25.17183321,25.2296929,22.79396283,22.13957367,13.29532023,3.578387066,9.706999969,10.10387851,14.12185296,14.82349991,13.63261195,10.3904862,9.847475595,3.166289439,4.958212412,8.025894563,9.659097931,11.97096233,12.35740613,11.98311106,9.953455995,10.0654016,5.273375752,0.439723498,0.877642858,1,1,1,0.972410901,0.840292505,0.515578473,43.49546,-80.42596875,2017,ONH1
PHW52/PHM49,KSH1_2015,N,15.35,743.9930652,0,2,229,110,85,83.5,0.688124985,3.518749885,2.537239536,4.634326915,6.340784251,4.013516285,5.753010874,3.95559662,1.81791271,22.01999953,28.14999908,47.40176476,147.1705882,9.165882307,38.18235242,161.646473,23.74705871,56.35529401,19.48910828,20.34062409,19.21958791,21.30664108,18.00351726,18.80818483,18.60066932,17.86718078,18.78253622,17.69406253,22.96750021,19.85221485,29.31892792,29.11705877,31.41670577,31.16760655,30.50505886,29.96204923,3.297187492,8.938749969,8.792561365,16.998743,18.09705929,19.84989561,20.1377744,20.03282345,17.06836811,6.184738542,9.476230158,8.381520189,15.38816616,15.61697663,17.65547515,17.65556265,17.32458654,15.75670183,0.6778125,1,0.850138809,1,1,1,1,0.98304554,39.21641775,-96.60482225,2015,KSH1
B37/H95,WIH2_2019,N,29.275,647.1323764,0,0,277.5,132.9166665,70,69.75,5.084687524,1.186666648,3.682690384,5.868440751,0.695238091,4.73009737,4.315774648,4.395502279,4.547947068,162.7100008,7.119999886,58.08928529,183.8007161,1.222857135,55.05428533,207.5435701,59.53000056,136.8792876,20.51840827,23.10255337,19.84622659,19.54978709,22.13574316,19.04821964,14.90817086,12.98397937,9.337872891,18.93468753,26.85500018,22.80729416,28.92841129,27.86750015,27.53142967,23.33864799,22.30785619,12.19546616,7.173437506,12.79833317,11.75963315,17.3057567,14.67845241,15.42498763,12.56161555,11.34993986,2.687473085,7.568173943,12.44054354,10.32084191,15.24419851,13.63574066,13.78240318,10.8770868,10.55092288,4.713570865,0.808549105,1,0.995612408,1,1,0.966295589,0.875965566,0.450550638,43.320768,-89.33189475,2019,WIH2
TX777/LH195,GAH2_2018,Y,19.2,750.4289914,1.5,2,245,117,60,59.5,4.849677459,0.472857135,6.389842835,2.50728713,2.625000003,3.795198411,2.499668454,2.828785729,3.724124467,150.3400012,3.309999943,84.90856965,76.95785742,5.387857173,33.84785713,66.14142865,15.06428581,115.4478585,20.49558812,21.88511535,20.33298503,19.15998772,23.51626716,19.70790798,20.02489003,19.42019064,16.00793598,23.5748387,25.80428559,25.09824669,29.4338755,32.57678595,32.30446448,33.95531338,34.12885699,31.99587548,8.787742034,10.57714278,11.20780819,18.18961495,18.46904782,20.57888879,21.25284753,21.08492862,21.01629033,9.717543295,11.3392147,11.23425566,15.89113211,17.53376954,18.44167663,19.31882395,19.47290933,18.49284767,0.993778801,1,1,1,1,1,1,1,33.71560925,-83.30894675,2018,GAH2
PHB47/PHN82,GAH1_2020,N,19.8,708.3380342,1,0.5,162.5,57.5,64,63,4.279687563,0,6.08243138,3.811420537,2.267976227,2.530000055,3.98378478,1.741833346,2.910207357,136.950002,0,84.37571335,135.9278565,4.833571502,22.77000049,107.9378566,9.115000069,90.21642806,16.61263859,21.5972875,19.10636237,20.72286693,14.54687945,18.15584731,20.08605453,19.68634889,18.27781732,25.37343752,26.77166684,25.94144379,27.77824619,29.55357116,30.6518255,31.78195276,33.48178532,33.56322575,12.43875006,10.55666669,12.19035929,13.80720781,20.58059497,20.26111097,20.57386992,21.96838095,22.25456222,11.80508215,11.69113274,11.88989525,13.35432975,17.06708306,17.45646823,18.17996521,19.67032327,19.80166763,0.988537947,1,1,1,1,1,1,1,31.5079775,-83.558517,2020,GAH1
LH195/LH82,KSH1_2015,N,15.55,765.8752142,0,2,229,110,83.5,82,0.688124985,3.518749885,2.537239536,4.634326915,6.340784251,4.013516285,5.753010874,3.95559662,1.81791271,22.01999953,28.14999908,47.40176476,147.1705882,9.165882307,38.18235242,161.646473,23.74705871,56.35529401,19.48910828,20.34062409,19.21958791,21.30664108,18.00351726,18.80818483,18.60066932,17.86718078,18.78253622,17.69406253,22.96750021,19.85221485,29.31892792,29.11705877,31.41670577,31.16760655,30.50505886,29.96204923,3.297187492,8.938749969,8.792561365,16.998743,18.09705929,19.84989561,20.1377744,20.03282345,17.06836811,6.184738542,9.476230158,8.381520189,15.38816616,15.61697663,17.65547515,17.65556265,17.32458654,15.75670183,0.6778125,1,0.850138809,1,1,1,1,0.98304554,39.21641775,-96.60482225,2015,KSH1
B37/OH43,INH1_2019,Y,27.55,842.5270949,0,3,235.75,124,63.5,61.5,4.638124973,1.291666667,4.254883356,1.873002707,7.542143106,0.579848493,2.745608418,1.194209184,2.037834084,148.4199991,7.75,53.11714339,53.83785783,14.64785763,6.669285808,98.22214476,12.45785718,61.58714233,19.82387961,19.183822,19.33565513,20.5079362,16.64856858,22.30931036,17.46113557,15.79330395,12.43542766,23.34687504,26.15000025,24.44131608,31.06458042,27.9682139,28.43625549,27.60941131,25.59340811,22.91422815,11.29093746,15.88166634,14.27159151,19.40569109,18.2715475,15.1189393,15.69895629,13.38685715,10.33005226,10.62626718,13.2428989,11.86638398,17.27971266,15.26406297,14.09359416,13.93027737,12.23653025,10.46761426,0.918526784,1,1,1,1,0.999060374,0.966691327,0.86252861,40.477063,-87.00020175,2019,INH1
PHW52/PHM49,MOH1_2017,N,15.85,731.1212129,0,2,232,107.5,65,63.5,8.937741737,9.40166688,2.512230721,3.318030003,5.035714369,1.794490762,1.996986524,1.220079397,1.67255761,277.0699939,56.41000128,33.26619119,103.9014299,11.93095259,15.87761924,65.30142803,7.334762096,51.25476209,18.72482054,18.08832916,22.62422694,21.00800173,18.77514496,19.93438148,19.70533138,19.36646121,17.34329115,21.92032254,25.32999992,25.47495036,29.30087203,30.46650729,32.25412016,29.92026774,28.22145964,28.04827898,10.06000005,15.27666648,12.99827088,17.39768618,19.78222205,21.21359122,18.70404881,16.33857143,14.9717184,9.612847321,12.76903024,11.94928206,15.49761919,17.12130987,18.67277384,16.20463701,14.48208578,13.92850008,0.915472353,1,1,1,1,1,1,0.999239796,38.89264,-92.2057525,2017,MOH1
B73/PHZ51,MIH1_2020,N,13.235,700.2287673,0,25,258.5,143.75,64.5,64.5,4.984838709,2.447142908,2.78018427,2.64718347,5.506875038,1.476884461,2.688717092,6.006552647,2.65185957,154.53,17.13000035,30.43499947,89.07562375,6.053750038,16.17374991,112.2143753,49.72375022,79.8756258,20.40588462,19.28742858,24.32683064,21.06964646,18.47526628,19.40802789,18.05267967,13.18055513,11.8632568,17.75483874,24.12857165,28.18736501,29.25734834,30.47187495,29.12451894,27.19720882,23.65947149,18.53645566,5.91032262,13.18571418,13.36449351,15.87753885,17.57625037,17.40439215,14.2199518,12.09430501,6.603961046,6.886871568,11.64218502,13.33305563,14.86544572,16.04104967,15.33737973,13.2580117,11.17810785,7.349100415,0.70564517,0.993469382,1,1,1,0.990981538,0.929873564,0.775463757,42.7085775,-84.4705825,2020,MIH1
PHW52/PHM49,TXH1-Late_2018,N,11.1,762.0136585,0,2,240,82.5,63,63,3.579375003,7.22999986,0.880950212,3.393996506,5.74642872,3.619146949,3.455600496,0.428285708,2.278709721,114.5400001,43.37999916,11.7107143,109.309285,11.49285744,35.41714406,87.15857094,2.141428539,70.64000136,15.18905504,16.98149872,20.4111462,19.99876216,15.81608334,20.1152116,19.58230121,16.39417859,18.61523184,25.42156261,25.48166672,24.9240565,29.86096768,30.55928573,31.11103384,33.47173554,33.67857067,35.62923946,13.73406251,14.7233332,12.14174484,16.97683375,21.17380969,19.92907914,21.60030195,24.8844286,24.53525352,12.24876106,12.9546326,11.47321097,15.6369769,17.86869493,17.49319399,19.34856645,20.63058471,20.90474588,0.995234379,0.961607144,1,1,1,0.999944236,0.999152383,0.999033412,30.546318,-96.4329965,2018,TXH1-Late
B73/PHN82,NYH3_2015,Y,24.15,731.1212129,0,2,232,132.5,78.5,77.5,4.268387075,0,1.234803629,3.315485905,3.744705864,3.708743319,2.034738589,2.091907533,2.160160663,132.3199993,0,17.66999944,111.4647067,9.843529393,38.42352946,75.35117763,21.49235322,65.37235311,20.95885717,21.76160183,22.01003167,20.47654391,19.37507164,18.84800849,18.09954582,14.25866518,12.17165493,15.21516129,28.41399994,23.9726608,27.94852153,28.22411762,29.00645443,26.88612691,22.65429039,19.02039094,3.206451565,16.00799999,11.62235867,15.61032629,16.7502941,17.72633694,14.88804443,11.60832066,7.356588233,5.349626667,14.38734971,10.95773449,14.17183136,14.61937489,15.41213998,13.31670354,10.34569698,7.707711279,0.504331792,1,0.97267375,0.996219796,1,0.995345527,0.95775528,0.812032548,42.7233625,-76.6555945,2015,NYH3
B73/DK3IIH6,COH1_2017,Y,17.7,731.1212129,0,2,229,110,65,64,3.393124943,0,0.001708684,0.360843908,0.891428554,3.560382097,1.42287895,1.565670675,1.770870451,108.5799982,0,0.02904762,12.29476177,1.600476163,43.78523833,56.48285717,21.02523811,53.20285701,22.26802993,25.65694836,25.9931063,24.2875628,21.26982858,19.37652668,19.65631787,15.92591012,11.99136935,20.38624986,26.27857154,29.00990249,30.95750085,32.84396765,29.24597739,27.87075516,24.49812031,17.64004964,4.676250031,9.955714362,11.44166305,13.33492254,15.64190474,14.2894836,11.55992968,8.650869984,2.505724526,7.387813889,11.22152513,12.97827389,14.53136664,16.23032426,14.11586508,12.58015619,10.40568176,6.007000116,0.859799101,1,1,1,1,0.978368119,0.882220332,0.653649732,40.64850025,-104.9997825,2017,COH1
B97/PHB47,NEH4_2015,N,14.25,797.4112524,0,2,260,120,65,54.5,2.821875036,0,3.668207424,2.0125769,1.951249957,2.654893884,1.684158262,0.190010425,1.166079967,90.30000114,0,33.89000034,59.04687595,1.951249957,28.04999942,59.1787506,1.401875056,35.09749981,18.84220009,27.31064491,20.41342533,20.52862815,19.03072298,18.81303122,18.33826559,17.15407273,12.68489203,24.01437524,30.79399948,29.66091772,30.90712841,30.81250072,28.65153035,29.50292414,26.73776808,20.93262179,13.35843744,15.59799976,18.4981335,19.26878801,20.26031268,17.34358901,16.24316685,11.04417556,7.09840123,11.80342709,15.44887437,16.14310254,17.09436255,17.53736601,15.18702607,15.25106182,11.88303257,8.618375536,0.931774556,1,1,1,1,0.97284651,0.984144349,0.784438609,41.16732275,-96.41663225,2015,NEH4
F42/H95,MOH1_2016,N,17.65,731.1212129,0.5,1.5,272.5,145,59,57,2.465483877,8.058000231,0.264259377,6.282521268,1.94553035,9.25680559,4.358907121,3.354664451,5.453130527,76.43000019,40.29000115,2.879999995,172.8372758,4.262727369,83.20363667,125.2090916,21.13363606,168.2240918,20.2309363,16.93509369,22.49829557,20.20959989,18.68177986,19.21408964,18.0090922,17.17714413,15.87534947,21.83193548,27.56600037,27.88644765,31.21215235,30.25795442,31.2505745,30.57423065,29.80077912,28.25339236,10.073871,16.74400005,16.26474463,19.86215984,19.98371223,20.49117413,20.76153791,19.91431794,17.56318368,9.497798547,14.24343349,14.21296425,17.47336946,17.12232598,17.8699151,17.65104862,16.90998551,15.09561117,0.937315665,1,1,1,1,1,1,0.999442641,38.8955475,-92.2072025,2016,MOH1
B14A/H95,OHH1_2015,N,14.4,774.8855108,0,1,251,122,66,63,4.820000016,2.056666652,1.801667061,2.430255425,2.070588264,2.75488235,3.664772063,1.623969288,1.874022108,149.4200005,12.33999991,20.27235275,82.00588303,2.23529414,26.29176468,128.0200007,12.16764697,57.18411674,17.71339239,20.831882,20.85048625,20.93566426,20.28419298,19.59839119,17.66236547,17.23782846,14.83481447,16.95064511,28.03666687,26.64173705,29.01382079,31.07970569,30.59522857,27.99762273,26.69097183,23.34659959,5.9283871,15.42166694,14.66308043,16.74801267,19.23764672,18.74322206,16.69895781,13.90980629,10.26308727,6.580773377,14.04730329,13.19467995,15.08203889,17.16864649,16.69143216,14.53513226,12.92347397,10.29932856,0.672569122,1,1,1,1,1,0.994932126,0.947361455,39.855785,-83.66477375,2015,OHH1
CG44/CGR01,ONH2_2016,N,16.975,724.6852867,0.75,2.5,206.25,93.75,65,63.25,1.435483875,1.740833327,1.463802716,3.022687524,0.150999999,1.134659085,3.046446673,1.693503778,2.765116665,44.50000012,20.88999993,18.84600039,117.1590009,0.150999999,12.25349994,101.0444998,13.16149993,84.26899996,19.72563927,22.19747464,21.68954048,21.77365896,18.98664827,19.92678304,16.69906166,15.68152671,12.9072029,14.10741935,17.58083336,26.00758685,26.04894451,27.78099985,28.79287246,28.2480382,25.9224786,23.75348014,4.257419363,7.13166666,15.03828811,14.1477789,17.72699971,17.33924119,18.24672102,15.95494667,14.17526013,5.131346137,6.986841243,12.85116395,12.65171997,14.84296497,15.26027205,15.31782021,13.26534606,11.67621189,0.511244241,0.799851209,1,1,1,1,1,0.975829282,42.4530035,-81.88279875,2016,ONH2
B73/PHN82,OHH1_2018,Y,18.1,751.7161766,0,4,258,115.5,59,60.5,3.056774178,9.537500136,1.922452157,2.385565957,3.342142727,1.8544286,3.625787622,3.100846839,2.007798001,94.75999951,76.30000108,21.73714328,80.43785755,3.342142727,18.544286,121.7649994,22.15357072,61.29071423,19.31095449,14.64635724,20.72885596,20.94366931,19.27592959,20.95649317,17.99811894,17.37176276,15.4204415,15.33419351,20.99500024,26.65036435,28.81994394,32.41071347,30.66092864,28.53085842,26.94730604,24.73435724,3.376129027,12.14624989,14.55931522,16.57316253,19.49428545,18.47499986,17.24720124,15.03980618,12.05347394,5.35712311,9.832246518,13.13485159,14.9051591,17.95401161,16.59941793,15.03822312,13.39555861,11.48513665,0.534285712,0.926785712,1,1,1,1,0.999125,0.970735544,39.85688825,-83.671225,2018,OHH1
PHB47/PHZ51,WIH2_2017,Y,18.06666667,776.1726961,0,2,267.3333333,123.6666667,74.33333333,75.33333333,5.048709616,4.636666616,1.142383575,5.763857885,8.001590729,6.160048604,1.607776433,1.167726513,2.257555268,156.5099981,41.72999954,17.5799998,219.3963643,12.14409065,74.04090792,72.28863683,15.04409093,68.0204557,18.1690344,19.72049554,20.64727683,20.23287988,19.13163679,19.37493243,18.51401576,14.93340477,10.89478233,16.03129027,21.86555545,22.15746071,26.59689143,27.90045501,26.76799254,24.73062069,22.38533393,20.51274781,3.24419354,8.791111098,9.553497601,14.54337319,16.81037892,15.37831158,12.19271258,9.193202486,7.868866577,5.438218202,9.209131236,9.451203107,13.05708411,14.51682301,13.37610723,11.31306373,9.686333754,8.853113959,0.624158991,0.847976183,0.950288768,1,1,0.998699911,0.954544862,0.834596302,43.3246415,-89.33688775,2017,WIH2
TX779/LH195,DEH1_2020,N,25.93571429,691.2184706,0.071428571,0.5,220.3571429,124.9285714,70.28571429,69,3.884838689,2.918749928,0.484801506,3.712682555,3.963928495,10.54878945,3.680508849,4.08975176,5.319973187,120.4299994,23.34999943,5.74999997,113.1935704,6.565714155,94.92928366,102.5935729,23.16642891,164.6128593,19.34389959,17.33862388,21.23126246,20.37262205,20.84469896,18.13380163,16.82964191,15.50064315,15.14081803,17.43483888,21.1624999,25.02143811,29.01024665,32.25440507,31.30417669,31.95048154,29.3682824,28.21514964,6.792903194,12.85250008,15.40184434,18.86790491,21.28607132,21.93053571,22.84339264,21.06525136,19.30786859,6.86665098,10.04482466,12.64072343,16.02028347,18.72161765,18.60397455,19.32804006,17.22313801,15.91003144,0.79362904,0.982098209,1,1,1,1,1,1,38.628981,-75.46566025,2020,DEH1
B73/PHN82,OHH1_2020,Y,22.4,696.0454152,0,0.5,229,110,58.25,56.75,4.175312527,1.24000001,2.003453903,2.609830299,3.238461531,4.458868342,3.000365612,1.621237519,2.44580479,133.6100008,6.200000048,24.41307693,78.60461595,5.612307695,46.13538504,105.0992289,18.40384625,73.98230748,19.06994028,20.34349766,22.26062964,20.30125672,18.94980258,17.72364635,17.47781057,14.69815231,13.31876726,20.75593752,29.31000023,26.9862925,30.26951119,31.92230738,29.63458284,27.3548547,24.45496262,20.91339716,9.301875014,17.61400032,14.18652547,18.22082699,19.47423084,18.74255468,15.66305293,13.07056974,8.164555027,9.098127154,15.53923951,13.05396234,16.29356655,17.69826911,16.21360084,13.84725457,11.75523116,8.713632263,0.810993302,1,1,1,1,0.998602591,0.941606618,0.857376019,39.85643475,-83.67288725,2020,OHH1
CG108/CGR03,IAH2_2017,N,14.15,720.823731,0,39.5,200.5,102.5,65,64,2.991935476,4.003749907,5.594154361,1.824159742,2.965909053,1.138616173,3.544395797,5.525860929,3.224964342,92.74999976,32.02999926,86.83999968,64.74363607,5.880909015,11.03545466,133.6850016,39.36636487,98.02272796,18.91811151,22.03083944,18.39067038,21.91300981,21.59707026,21.00058551,18.76246256,16.50136756,14.56336975,16.70258062,25.25375009,21.16444029,28.78792803,31.34295403,31.03890899,27.79230679,26.54138994,25.01808603,3.836129038,9.060000002,9.836484062,14.72352594,17.1804546,18.00485339,15.61890002,13.9478747,12.25710857,5.884356407,10.52058178,9.325556586,14.19611432,16.29393371,16.57150033,14.05801276,12.73803514,11.57992501,0.659274195,1,0.882113053,1,1,1,1,0.976890029,42.06582876,-94.72050129,2017,IAH2
F42/MO17,MNH1_2018,N,20.5725,701.8377488,0,2,254.375,120,64.125,61.5,2.793871032,5.664285694,1.881383508,4.66962568,0.280777779,5.314848416,5.503097756,4.902593174,1.744490341,86.61000198,39.64999986,19.66333312,156.0266671,0.653333338,61.18466587,207.3246693,42.5680015,52.61600056,18.68617175,18.6483766,23.22190313,20.23498137,21.88409551,21.20453879,17.43849101,14.02805899,11.47763682,18.24580648,23.51142883,30.49568208,28.40295697,27.67288871,27.88288382,26.24424925,23.489937,17.2954947,6.62290317,13.35285704,16.1020056,17.07111629,16.25377796,15.7901465,14.83515609,12.42970144,6.347470975,7.12789267,11.15082684,15.42136783,14.91719499,14.1582049,14.10491894,13.08066536,11.20324133,7.126560519,0.79756912,1,1,1,1,0.978734696,0.910102722,0.699884152,44.07044721,-93.53494127,2018,MNH1
B73/PHM49,NEH4_2017,N,14.35,796.7676598,6.5,3,179.5,58.5,65,64,4.590322548,9.024000108,0.479867887,3.811963874,0.538484848,1.684924238,2.267850047,4.65714279,3.86350146,142.299999,90.24000108,5.110000134,117.465454,1.615454544,15.13454541,79.63181698,32.59999953,117.4254543,19.43913734,17.21531701,24.1724839,20.95919975,19.50871722,19.21508163,18.90739129,17.69743939,15.39985704,20.62225799,19.52599983,28.59420128,30.06742287,31.22545445,32.42712118,28.61649727,28.47933405,26.83248677,7.519354824,9.509000063,13.57084537,16.75424147,19.44181835,20.40977276,17.16375472,15.74751643,13.71007622,8.50655754,8.450389052,13.62685976,15.58817353,17.34314748,18.36849178,14.97842881,14.34457974,12.87682879,0.797626729,0.881249991,1,1,1,1,1,0.994264069,41.162,-96.409,2017,NEH4
LH74/PHN82,OHH1_2018,Y,16.35,761.3700659,0,2,225,111.5,56.5,56.5,3.056774178,9.537500136,1.922452157,2.385565957,3.342142727,1.8544286,3.625787622,3.100846839,2.007798001,94.75999951,76.30000108,21.73714328,80.43785755,3.342142727,18.544286,121.7649994,22.15357072,61.29071423,19.31095449,14.64635724,20.72885596,20.94366931,19.27592959,20.95649317,17.99811894,17.37176276,15.4204415,15.33419351,20.99500024,26.65036435,28.81994394,32.41071347,30.66092864,28.53085842,26.94730604,24.73435724,3.376129027,12.14624989,14.55931522,16.57316253,19.49428545,18.47499986,17.24720124,15.03980618,12.05347394,5.35712311,9.832246518,13.13485159,14.9051591,17.95401161,16.59941793,15.03822312,13.39555861,11.48513665,0.534285712,0.926785712,1,1,1,1,0.999125,0.970735544,39.85688825,-83.671225,2018,OHH1
B73/PHM49,MIH1_2016,Y,19.35,716.9621753,0,3.5,244,110.5,64,62.5,3.213870927,0.372000003,1.277668238,2.072144594,0.204761899,2.382636341,6.277866916,3.129595251,4.115734243,99.62999874,1.860000014,16.77857134,74.4033328,0.614285696,24.34142835,217.3680916,23.88571438,123.5814282,20.04481233,22.69628944,22.57460654,21.19066928,19.62511718,19.41470496,17.43536011,14.16523572,12.41239439,17.74322581,29.20999985,25.57947765,28.1508514,27.23547651,30.32783564,28.27294529,26.6388532,22.50219404,5.299677434,16.33600006,11.90361174,14.70447611,15.74579377,17.52671,16.25511672,15.58650841,10.86825081,6.615827776,14.89908974,11.62365975,13.82943527,13.70908531,16.01583991,14.48649579,13.48265,10.09129455,0.734400922,1,1,1,1,0.999987733,0.99326559,0.936590208,42.41206675,-84.2952625,2016,MIH1
B97/PHB47,MIH1_2017,Y,17.7,731.1212129,0,2,229,110,65,64,2.651290334,1.642500043,0.365195355,3.685889798,0.022982455,0.462972321,1.745768067,1.924198947,6.215848807,82.19000036,13.14000034,4.417894763,131.6678931,0.068947365,5.871578781,77.40789432,25.15789459,187.919471,20.75480046,19.52619267,24.47429891,19.89055103,21.94334328,22.12060477,17.47908742,14.76431364,9.641321864,18.99677434,22.1187501,26.44652255,27.49693157,27.7329823,27.82492569,25.37386911,24.10071042,20.63989867,5.961290348,11.91874993,11.36318641,16.0503933,16.08877179,14.96255052,12.27657104,9.93890341,8.936309075,7.303217139,10.01258026,11.86785018,14.06113521,14.11607898,13.75096176,11.67659513,10.59348898,9.148775778,0.770126733,1,1,1,1,0.999072621,0.949278334,0.816440377,42.68116575,-84.49434125,2017,MIH1
B14A/H95,IAH1_2019,Y,25.05,700.2287673,0,3,207,100,65,64,8.157187574,0.75333335,7.315577374,1.144389074,0.212857144,0.731688293,3.103679801,5.185721735,4.918979992,261.0300024,4.5200001,87.30642721,32.26642813,0.212857144,8.04857122,121.5035704,46.39999972,147.9399989,18.01904646,22.72114833,18.53868323,20.84617194,19.20093738,21.91428985,16.4832458,14.23349405,11.00878768,22.30999994,27.52999973,24.52617789,31.4481278,28.63047609,29.47870132,27.11002697,25.00731411,20.46577188,10.93062501,14.96333329,14.91684483,20.02766766,18.36452364,16.34071412,15.67686671,13.06746994,9.592819484,10.11779152,13.58137929,12.09039624,17.73903178,15.5681627,15.08353594,13.70818638,12.14295105,9.387875541,0.879263394,1,1,1,1,0.994329881,0.928985237,0.797752907,41.1992562,-91.4941418,2019,IAH1
CG44/CGR01,GAH1_2016,N,13.85,706.6646934,0,2,145,60,52,52,6.466250051,4.395000041,0.566421492,2.549627568,3.17469698,5.859943136,4.096967014,2.330999996,2.476261007,206.9200016,35.16000032,6.21000006,86.0200003,9.52409094,52.42727233,105.6731797,11.65499998,76.76409122,15.95696127,18.25385642,20.33100053,20.74024209,20.01064868,19.54302735,19.38198769,19.26953352,18.21451922,23.62687498,22.98249984,28.56134937,29.4983659,33.37075638,32.62719045,33.25026907,34.51499955,33.94928126,11.29749997,10.47000009,15.64744728,16.2846205,20.78287862,20.61269551,21.56927107,22.51809092,22.40467728,10.53971422,9.962440438,14.36481163,15.11313475,19.02952924,18.56859265,19.26668195,20.34390963,19.99415841,0.993928569,1,1,1,1,1,1,1,31.5079175,-83.55854775,2016,GAH1
B14A/H95,NYH2_2015,N,17.2,731.1212129,1,1.5,239.5,117,75,74,3.814193487,2.822857129,1.806874641,1.427310218,14.28882354,6.323155046,2.553769654,1.263651931,1.70374005,118.2399981,39.5199998,23.5252947,50.99705838,17.86235295,65.18176435,90.43176518,10.71352917,51.74117684,19.21827184,21.58410556,20.44972798,21.8367517,17.34067749,18.34945618,18.49425604,17.55625849,13.84215422,11.26903224,15.86071418,24.70888252,27.12764594,29.5805878,28.55383422,27.75922879,25.11594081,20.73318661,0.676451599,3.065714287,12.68317757,14.19692254,19.48862723,17.66257776,16.12899413,12.03346763,8.797239788,3.458861152,5.522653893,11.65565145,13.2498794,16.56577659,15.18766176,14.16580901,11.53845799,8.731216192,0.261509218,0.568112238,0.971160735,0.994106254,1,0.999864887,0.980226591,0.898542131,42.7324825,-76.65277775,2015,NYH2
F42/OH43,ONH2_2016,N,21.15,710.5262491,0,6,226,96,75,67,1.435483875,1.740833327,1.463802716,3.022687524,0.150999999,1.134659085,3.046446673,1.693503778,2.765116665,44.50000012,20.88999993,18.84600039,117.1590009,0.150999999,12.25349994,101.0444998,13.16149993,84.26899996,19.72563927,22.19747464,21.68954048,21.77365896,18.98664827,19.92678304,16.69906166,15.68152671,12.9072029,14.10741935,17.58083336,26.00758685,26.04894451,27.78099985,28.79287246,28.2480382,25.9224786,23.75348014,4.257419363,7.13166666,15.03828811,14.1477789,17.72699971,17.33924119,18.24672102,15.95494667,14.17526013,5.131346137,6.986841243,12.85116395,12.65171997,14.84296497,15.26027205,15.31782021,13.26534606,11.67621189,0.511244241,0.799851209,1,1,1,1,1,0.975829282,42.4530035,-81.88279875,2016,ONH2
TX777/LH195,NYH2_2020,N,18.4,559.9255768,0,3.5,250,126.5,79.5,78.5,4.422257993,0,1.391731236,3.182357247,6.170888774,3.507901041,2.283490724,1.426918664,2.172175634,137.0899978,0,18.68266731,113.2706661,12.6093331,36.98266699,88.46933366,18.14666667,65.61600019,20.94267544,21.78244971,21.55666085,20.64321436,19.27786447,18.92984529,17.76882093,13.77968924,11.70490539,14.55447306,27.94977782,23.62933928,27.86541297,27.88688897,28.78672537,26.53302948,21.56675493,18.20507674,2.61195699,15.66431106,11.35573055,15.51025755,16.31100023,17.48208292,14.53826355,10.86377734,6.879177126,4.979415324,14.02697238,10.70801105,14.09392345,14.22879085,15.20067311,13.04971037,9.749522427,7.387680802,0.470065285,1,0.969822941,0.995242037,1,0.988859641,0.904446401,0.765938608,42.73230075,-76.65036275,2020,NYH2
PHB47/PHN82,MNH1_2020,N,20.825,750.1071951,0,0,234.25,117.75,66.5,63.5,0.943005099,6.546073051,4.140359128,4.707487639,0.452236841,2.543512757,5.928901117,4.270615044,2.501087783,29.23315806,64.90105435,50.61684199,155.384737,0.714736844,28.61736839,219.2994748,34.34473765,76.93105461,20.83516212,15.73399946,19.74828467,20.97522671,19.78574355,20.20086134,18.41063051,15.8353279,12.84776632,15.708455,18.53155205,25.82840423,28.49526052,29.92499944,28.21992409,26.52185226,25.93987928,19.74067922,2.261239378,9.186207707,13.99244036,16.68286788,19.34447405,16.90528318,15.09377646,14.30914312,8.593217323,5.370680578,7.953384306,12.46596379,14.77865871,16.66236577,14.75116185,13.25288188,13.01752467,8.666130292,0.622613994,0.838417993,1,1,1,0.988450437,0.93066422,0.780758993,44.06907839,-93.53263028,2020,MNH1
B73/PHM49,NYH3_2018,Y,22.09,678.4753368,0,2,204.5,91.5,71.5,72.5,4.152903213,0.855714253,1.333281551,1.973054112,19.58384622,4.14286014,1.827699262,3.76173812,1.90156246,128.7399996,5.989999771,17.49230713,69.9676929,40.09153858,44.76538462,69.41461665,34.65000019,57.30153882,20.64383799,23.73438372,20.91517994,21.34827616,15.57480097,18.28181198,18.59806785,13.9987834,13.21485935,12.82806446,24.72714315,24.74142799,27.59651287,28.68307664,28.50629367,27.06434367,24.34345721,20.06623908,1.452258048,10.48999977,13.10088293,14.82547593,19.13846159,17.45270631,15.13507682,13.07327349,8.10410419,4.113027627,10.74522894,11.82730489,13.73068126,15.93834835,15.05075648,13.50240047,11.64767513,8.352187515,0.351670502,1,0.973040659,0.995029228,1,0.992439429,0.946636381,0.843044516,42.7261605,-76.6556765,2018,NYH3
PHG39/PHN82,INH1_2019,Y,24.78,919.4364126,0,2,228.75,126.75,65,62,4.638124973,1.291666667,4.254883356,1.873002707,7.542143106,0.579848493,2.745608418,1.194209184,2.037834084,148.4199991,7.75,53.11714339,53.83785783,14.64785763,6.669285808,98.22214476,12.45785718,61.58714233,19.82387961,19.183822,19.33565513,20.5079362,16.64856858,22.30931036,17.46113557,15.79330395,12.43542766,23.34687504,26.15000025,24.44131608,31.06458042,27.9682139,28.43625549,27.60941131,25.59340811,22.91422815,11.29093746,15.88166634,14.27159151,19.40569109,18.2715475,15.1189393,15.69895629,13.38685715,10.33005226,10.62626718,13.2428989,11.86638398,17.27971266,15.26406297,14.09359416,13.93027737,12.23653025,10.46761426,0.918526784,1,1,1,1,0.999060374,0.966691327,0.86252861,40.477063,-87.00020175,2019,INH1
PHB47/PHZ51,GAH1_2015,N,13.425,827.3383091,0.5,13.25,187.5,87.5,58,56,4.231249915,0,5.95843649,3.852603143,2.594000032,2.429925956,4.217759372,2.225466652,2.667397826,135.3999973,0,82.56599903,137.5619979,4.851333332,21.8693336,117.5779999,11.12733326,82.68933261,16.59936112,21.58269278,19.11661296,20.61616366,14.5260024,17.86473659,19.792993,19.1551459,18.46432438,25.43281227,26.81500022,26.00854227,27.82657943,29.9603331,30.57562955,31.8228303,33.58693334,33.75221527,12.50374998,10.5999999,12.24448314,13.90452364,20.76811106,20.25348139,20.64254904,22.17719986,22.29090342,11.85447967,11.72664631,11.94062668,13.41492991,17.36422208,17.41455547,18.23714923,19.83066815,19.89653894,0.988973219,1,1,1,1,1,1,1,31.505771,-83.555095,2015,GAH1
PHB47/PHZ51,MIH1_2017,Y,18.35,707.6300823,0,12.25,140.25,69.5,62.5,63,2.651290334,1.642500043,0.365195355,3.685889798,0.022982455,0.462972321,1.745768067,1.924198947,6.215848807,82.19000036,13.14000034,4.417894763,131.6678931,0.068947365,5.871578781,77.40789432,25.15789459,187.919471,20.75480046,19.52619267,24.47429891,19.89055103,21.94334328,22.12060477,17.47908742,14.76431364,9.641321864,18.99677434,22.1187501,26.44652255,27.49693157,27.7329823,27.82492569,25.37386911,24.10071042,20.63989867,5.961290348,11.91874993,11.36318641,16.0503933,16.08877179,14.96255052,12.27657104,9.93890341,8.936309075,7.303217139,10.01258026,11.86785018,14.06113521,14.11607898,13.75096176,11.67659513,10.59348898,9.148775778,0.770126733,1,1,1,1,0.999072621,0.949278334,0.816440377,42.68116575,-84.49434125,2017,MIH1
TX777/LH195,NEH3_2015,N,17.1,741.4186947,0,0,229,110,65,63,3.231250057,0.918000031,0.565093977,1.286692195,3.19749999,1.391136354,0.258061221,1.474667183,0.155891338,103.4000018,4.590000153,6.150000095,39.04749978,4.720000029,15.30249989,11.17999983,14.52874985,4.648125023,21.79127574,25.69442635,22.86725485,21.82271665,15.26317632,20.59079,20.06412842,16.27968968,13.53861776,24.28750017,32.64599991,30.58771447,32.67731329,28.91593772,29.87238656,30.80707127,25.39031645,21.32018275,9.278749934,13.0079998,13.8828633,15.7826582,17.05531204,14.62710229,13.18313307,8.87540479,3.334017086,10.46257825,15.28330691,14.45465852,16.22005678,15.0938879,14.496454,14.53020136,10.90039565,7.851747396,0.909587052,1,1,1,1,0.965712824,0.862507779,0.80953931,41.15824525,-101.9872958,2015,NEH3
PHN11_PHW65_0323/LH195,MOH1_1_2018,N,18.675,731.1212129,0,2,215,100.75,56.5,56.5,4.419032262,0.120000001,6.56660792,4.995913726,0,0.865952386,4.867908623,7.318145406,3.629241153,136.9900001,0.840000004,71.60142667,150.6285707,0,7.793571472,145.6157139,39.85928573,112.0157138,18.39395777,18.46565301,20.1607481,20.70593221,19.87326009,21.97749135,18.06982858,17.46468943,16.31914076,19.5254839,22.76714298,27.16554273,29.60936822,31.6271427,32.32420578,29.51628185,29.85375934,27.04843165,7.99741943,14.14714282,16.43732974,18.81172612,21.79964249,20.71007941,19.44316189,19.21155699,15.91814144,7.992986492,11.1555316,14.00535673,16.26359619,18.7133926,18.51714259,16.54699664,16.60044059,13.86670431,0.872361758,1,1,1,1,1,1,0.995607144,38.89791675,-92.20952075,2018,MOH1
LH195/LH82,DEH1_2016,N,21.675,726.2942682,0,2,212,92.25,77.25,77.25,2.701875035,7.431818214,3.891344367,3.01543569,5.358105985,2.453055546,7.028031294,2.624318106,3.1968602,86.46000111,81.75000036,66.39499953,101.6163622,13.33454524,24.02227264,188.3231781,15.05272682,98.58045408,18.33047433,10.1000462,19.40971708,21.02938559,18.25055452,17.64652011,18.94468483,17.7865103,16.44449792,18.09,16.60090897,19.90208421,27.67646738,27.79681775,28.9030859,31.91379825,31.21812112,30.57169607,5.529687506,9.93090907,10.11289786,16.8589893,18.02106052,19.78800518,21.90881045,21.62957593,20.16127331,6.825577378,7.645605865,8.606637786,14.43603228,14.98401645,16.37610101,18.85541374,18.37748956,17.3477875,0.726328134,0.729318176,0.990929859,1,1,1,1,1,38.6482025,-75.44606,2016,DEH1
B14A/H95,WIH1_2018,Y,19.98,767.1194932,0,2,267.3333333,138.6666667,70.66666667,69.66666667,1.609999989,7.097692302,4.543300024,5.384655594,12.90857152,6.684415526,1.835393967,1.490247701,3.282350194,49.90999967,92.26999992,56.1414287,188.537143,17.774286,73.52857079,76.14071582,18.50214262,100.642856,20.21844376,17.61529163,19.67186989,21.74517717,19.19342093,18.08513378,19.62003162,16.98075827,12.74863056,13.31193533,16.25923072,24.73561688,28.00164855,31.39095186,28.11097395,26.99453296,26.15077082,19.9357303,1.183225821,5.521538512,13.28283365,14.89542408,18.89249983,17.62870117,14.61713968,12.9208708,8.385953947,4.208379921,6.163069931,11.75441076,13.86262536,17.16453014,14.91796624,13.29691021,12.54059059,8.511099252,0.430714275,0.66777473,1,1,1,0.987929958,0.939058758,0.805939432,43.0544,-89.5317,2018,WIH1
F42/OH43,ILH1_2018,Y,14.5,709.8826565,0,2,232.5,102.5,58,55.5,4.93870967,7.677000022,2.588106254,5.605117571,0.281428576,3.456349163,4.202656593,1.004543384,2.183824858,153.0999998,76.77000022,33.4678576,176.7721435,0.281428576,32.73642816,135.7042854,6.586428666,67.2342849,18.91812334,19.3164753,20.10278531,22.12028957,18.91592986,20.16297878,19.11980649,19.09856314,16.2127272,15.99580652,18.50399971,25.32625123,29.19453127,30.85535676,31.83740471,28.20358558,28.86124239,26.43877647,3.618387117,7.573000085,14.94700907,16.75211974,20.46500043,20.0205478,17.14982155,16.71822788,13.95248539,5.629456993,7.587936205,12.64486739,15.17263993,17.66017859,17.94105007,14.82889519,14.97382886,12.85823928,0.640783421,0.72660713,1,1,1,1,1,0.984431123,40.06300125,-88.2291765,2018,ILH1
W10005_0107/PHB47,NEH1_2015,N,14,796.7676598,0,2,210,100,65,52,2.959062506,0.753999996,4.745632833,2.187040691,0.179999996,3.601448917,1.548000793,0.057812502,1.589214364,94.69000018,3.769999981,46.84999943,63.50812512,0.239999995,39.12187557,55.49499987,0.586250016,47.85812447,19.07194562,25.84699936,20.00593662,19.96245842,20.96463704,17.86296284,18.31175333,17.30405645,12.3794141,23.74906254,30.51399994,29.13009987,30.74148671,30.73750019,28.43858622,29.13031746,26.88374984,20.12342532,13.19218739,15.46999989,18.04036499,19.18092822,19.11281252,17.33248289,15.92131484,11.1533021,6.525200269,11.64481375,15.25955733,15.68336601,16.96891106,16.93845514,15.07345461,14.95183393,12.01070089,8.15887847,0.924598212,1,1,1,1,0.96969665,0.982957588,0.758540943,41.290979,-96.41664325,2015,NEH1
CG44/CGR01,SDH1_2015,N,0,0,0,3.5,149.5,67.5,65,65,1.890000034,2.68444448,2.847212523,0.928406021,1.08916667,1.213193166,1.12388612,3.994558873,0.570569385,58.59000105,24.16000032,33.86000057,31.14874977,1.720000006,12.77624983,39.02562428,27.90249949,17.65812508,21.16446504,23.3864585,24.03054242,23.94878495,21.74335716,21.42490048,20.60212775,16.27746828,15.18579983,19.04290341,22.5888888,27.20826416,30.46229654,29.54760476,31.86073879,31.47770382,29.48664523,24.89733582,4.208709664,8.468888919,11.69082143,14.25969647,14.29062517,16.06534098,14.02269822,14.11578116,6.942900096,6.807516906,9.210660666,12.27390437,14.67606113,14.18888263,15.81431879,15.00552731,14.17539039,9.834808296,0.77025346,0.983690483,1,1,1,0.983472358,0.961069402,0.950039755,44.208745,-102.928745,2015,SDH1
F42/MO17,MNH1_2016,Y,21.15,731.1212129,0,2,229,110,69.5,67.5,2.893225764,0.170000008,5.030425272,6.121705224,6.438583227,6.210954471,8.179238718,7.617170889,9.394742846,89.68999869,1.190000057,67.79499967,212.8530004,13.67999972,65.11499918,295.599999,62.20750045,287.315495,17.89673604,26.28611401,18.122652,20.29948324,15.80941307,17.87578139,16.93568638,15.29315111,12.15008877,17.5148386,25.45428576,24.53269911,27.63337014,28.14450006,28.70269129,27.15887183,24.8505404,22.53032632,6.338387108,9.824285678,13.68155402,15.81410535,17.82425013,18.42635015,16.92976579,13.57123889,11.50456607,6.871134867,10.90204251,11.6566452,13.98369248,15.05511886,15.68076391,14.22086787,11.86153057,10.26982602,0.734527645,1,1,1,1,0.999952477,0.98729881,0.936092645,44.06646925,-93.533648,2016,MNH1
CG119/CG108,ONH2_2016,N,16.75,676.4158404,0.5,2,208,94.5,62,60.5,1.435483875,1.740833327,1.463802716,3.022687524,0.150999999,1.134659085,3.046446673,1.693503778,2.765116665,44.50000012,20.88999993,18.84600039,117.1590009,0.150999999,12.25349994,101.0444998,13.16149993,84.26899996,19.72563927,22.19747464,21.68954048,21.77365896,18.98664827,19.92678304,16.69906166,15.68152671,12.9072029,14.10741935,17.58083336,26.00758685,26.04894451,27.78099985,28.79287246,28.2480382,25.9224786,23.75348014,4.257419363,7.13166666,15.03828811,14.1477789,17.72699971,17.33924119,18.24672102,15.95494667,14.17526013,5.131346137,6.986841243,12.85116395,12.65171997,14.84296497,15.26027205,15.31782021,13.26534606,11.67621189,0.511244241,0.799851209,1,1,1,1,1,0.975829282,42.4530035,-81.88279875,2016,ONH2
B73/PHN82,NEH4_2015,N,15.3,788.4009558,0,2,235,135,65,55.5,2.821875036,0,3.668207424,2.0125769,1.951249957,2.654893884,1.684158262,0.190010425,1.166079967,90.30000114,0,33.89000034,59.04687595,1.951249957,28.04999942,59.1787506,1.401875056,35.09749981,18.84220009,27.31064491,20.41342533,20.52862815,19.03072298,18.81303122,18.33826559,17.15407273,12.68489203,24.01437524,30.79399948,29.66091772,30.90712841,30.81250072,28.65153035,29.50292414,26.73776808,20.93262179,13.35843744,15.59799976,18.4981335,19.26878801,20.26031268,17.34358901,16.24316685,11.04417556,7.09840123,11.80342709,15.44887437,16.14310254,17.09436255,17.53736601,15.18702607,15.25106182,11.88303257,8.618375536,0.931774556,1,1,1,1,0.97284651,0.984144349,0.784438609,41.16732275,-96.41663225,2015,NEH4
TX714/TX779,MOH1_1_2020,N,17.86666667,731.1212129,0,0,261.6666667,149.6666667,65.66666667,62.66666667,2.765624954,8.119999743,10.49656654,1.909885915,5.802857127,7.415295831,3.691475556,2.293301892,3.400930865,88.49999854,40.59999871,96.7978566,57.0957143,7.737142835,67.39857156,118.848571,17.52928566,104.715714,18.75466287,21.25211372,22.49923535,20.31658939,20.84622072,17.68630925,18.12476098,17.46293798,14.64158327,22.18656257,30.76999931,28.86546125,30.72469998,30.62226157,31.26253243,28.67352632,29.54480095,24.35225034,12.23093753,19.21800041,17.35636515,20.03188031,19.40511944,21.45309498,18.10676495,17.58972003,12.9136675,10.41798935,16.99399986,15.213465,17.3995364,17.01369051,18.36589209,15.51205264,15.80164337,11.56818364,0.936383936,1,1,1,1,1,0.995985623,0.962870504,38.8978375,-92.2070925,2020,MOH1
2369/LH123HT,ARH1_2018,N,20.45,567.3268919,0.5,2,208.5,101,66.5,64,6.807499945,4.709999936,2.627776375,4.735912158,3.619166647,6.960178526,4.330437569,0.796285741,3.374677434,217.8399982,32.96999955,35.48928591,145.2942843,5.831428528,62.51428531,109.7978577,4.003571561,104.6150005,17.99706709,21.70226043,20.05949982,19.52680112,21.59397623,17.99264813,18.0574776,19.33215022,18.30424355,21.07062507,24.31857109,24.02168934,29.45279857,31.73095224,30.70692423,32.5717108,33.29521443,31.83741963,10.26718749,12.03571429,12.70205088,18.67412083,19.99154783,20.64677572,22.90335213,23.23585706,21.28834102,9.223277534,11.01036775,11.27832322,16.11267445,17.86206546,17.6775748,19.72770382,20.19469271,18.54368809,0.945725441,1,1,1,1,1,1,1,34.729679,-90.7603455,2018,ARH1
W10004_0216/PHZ51,MOH1_2016,N,16.75,731.1212129,0,2,290,135,58.5,56,2.465483877,8.058000231,0.264259377,6.282521268,1.94553035,9.25680559,4.358907121,3.354664451,5.453130527,76.43000019,40.29000115,2.879999995,172.8372758,4.262727369,83.20363667,125.2090916,21.13363606,168.2240918,20.2309363,16.93509369,22.49829557,20.20959989,18.68177986,19.21408964,18.0090922,17.17714413,15.87534947,21.83193548,27.56600037,27.88644765,31.21215235,30.25795442,31.2505745,30.57423065,29.80077912,28.25339236,10.073871,16.74400005,16.26474463,19.86215984,19.98371223,20.49117413,20.76153791,19.91431794,17.56318368,9.497798547,14.24343349,14.21296425,17.47336946,17.12232598,17.8699151,17.65104862,16.90998551,15.09561117,0.937315665,1,1,1,1,1,1,0.999442641,38.8955475,-92.2072025,2016,MOH1
PHB47/PHZ51,MIH1_2020,N,16.295,719.5365458,0,2,254.75,134.5,60.5,62,4.984838709,2.447142908,2.78018427,2.64718347,5.506875038,1.476884461,2.688717092,6.006552647,2.65185957,154.53,17.13000035,30.43499947,89.07562375,6.053750038,16.17374991,112.2143753,49.72375022,79.8756258,20.40588462,19.28742858,24.32683064,21.06964646,18.47526628,19.40802789,18.05267967,13.18055513,11.8632568,17.75483874,24.12857165,28.18736501,29.25734834,30.47187495,29.12451894,27.19720882,23.65947149,18.53645566,5.91032262,13.18571418,13.36449351,15.87753885,17.57625037,17.40439215,14.2199518,12.09430501,6.603961046,6.886871568,11.64218502,13.33305563,14.86544572,16.04104967,15.33737973,13.2580117,11.17810785,7.349100415,0.70564517,0.993469382,1,1,1,0.990981538,0.929873564,0.775463757,42.7085775,-84.4705825,2020,MIH1
W10005_0107/PHB47,MOH2_2015,N,13.7,731.1212129,0,2,170,70,71,70,3.914838722,3.534545422,2.891676029,5.446623968,2.505882375,1.1137255,5.068586465,0.980448186,4.011119538,121.3600004,38.87999964,35.23176398,173.6929392,5.011764751,10.0235295,148.9223525,6.487058864,124.3447057,19.08701148,18.12534948,17.16717858,21.59629129,16.88945411,20.34516158,18.32895435,19.90608894,16.95494386,18.756129,18.24727275,23.87322904,29.02836507,30.59176479,31.93248319,30.27285599,28.73220747,28.34062618,6.152580692,8.059091026,15.30129973,17.80114352,21.94705907,21.39261428,20.17023127,17.40519331,17.20941189,7.288196993,7.58478923,12.05891064,15.51775091,18.26941193,18.66254873,17.2518739,15.21359182,14.97078901,0.75554147,0.814935086,1,1,1,1,1,1,38.89807917,-92.2079,2015,MOH2
LH195/LH82,WIH1_2016,N,20.15,781.6432333,1.5,3.75,236,118,73.75,73.75,2.076129018,1.94750002,4.430291291,4.068377178,0.606590927,8.204471101,6.520888551,7.285801826,4.413191112,64.35999957,23.37000024,50.66818307,153.9786358,1.017727305,87.41727302,222.4604529,58.95590957,134.9268184,19.92805462,20.9108026,19.53546339,20.65690042,18.97296773,19.76360502,17.50876714,15.21370917,12.23883056,16.70258062,17.57583312,27.08182728,26.49130857,27.22159082,28.35833875,27.6700069,25.1458901,22.98674642,3.327419363,4.990833327,14.04723809,14.47423798,17.58636334,16.7186736,17.17399145,14.32051147,12.5735533,5.875866612,6.419508974,12.98865398,12.92924289,14.50224274,14.72651534,14.55658067,12.23924581,10.7486024,0.621198161,0.7653869,1,1,1,0.999967803,0.998306277,0.970976554,43.05632525,-89.53194975,2016,WIH1
WF9/H95,NYH2_2016,N,16.95,731.1212129,2.5,40.5,168,77,78,72.5,2.034516133,1.030000001,1.88805842,0.867300396,1.140952366,2.326450204,3.376451109,4.287746575,3.208572451,63.07000011,12.36000001,22.4085716,34.4438095,2.622857094,25.59095225,116.65619,31.75809508,97.82571426,19.21240982,23.35584625,23.40556822,22.17883586,23.94456446,21.25361649,17.18897092,16.17245816,13.35906413,14.04935483,18.68749992,27.50851283,26.23633728,28.78071431,29.31692664,28.41638555,26.44500865,23.15297547,1.686774175,4.439999988,12.92699036,12.85534504,13.89476193,15.65588736,16.863818,13.58818034,10.55762265,4.511298309,6.607155497,12.88765676,12.33330427,13.7996272,14.74166699,14.82295673,12.66050813,10.26842414,0.447315667,0.804761906,0.999400038,0.994542932,1,0.999880088,0.994843294,0.949842165,42.726117,-76.655339,2016,NYH2
F42/MO17,NYH3_2018,Y,21.04,707.1795675,0.5,2,210,109,69.5,68,4.152903213,0.855714253,1.333281551,1.973054112,19.58384622,4.14286014,1.827699262,3.76173812,1.90156246,128.7399996,5.989999771,17.49230713,69.9676929,40.09153858,44.76538462,69.41461665,34.65000019,57.30153882,20.64383799,23.73438372,20.91517994,21.34827616,15.57480097,18.28181198,18.59806785,13.9987834,13.21485935,12.82806446,24.72714315,24.74142799,27.59651287,28.68307664,28.50629367,27.06434367,24.34345721,20.06623908,1.452258048,10.48999977,13.10088293,14.82547593,19.13846159,17.45270631,15.13507682,13.07327349,8.10410419,4.113027627,10.74522894,11.82730489,13.73068126,15.93834835,15.05075648,13.50240047,11.64767513,8.352187515,0.351670502,1,0.973040659,0.995029228,1,0.992439429,0.946636381,0.843044516,42.7261605,-76.6556765,2018,NYH3
B37/OH43,MNH1_2019,N,28.38,693.4710448,12,5.916666667,247.3333333,115.1666667,65.66666667,62.91666667,5.301249992,3.475999832,3.602993786,6.929571154,0.665000021,5.494791652,5.263070224,5.621187949,3.218817211,169.6399997,17.37999916,52.03749943,225.572501,0.665000021,65.93749982,237.3162515,64.04000057,97.09750019,20.08423158,23.23368454,18.89062728,19.10632096,20.66435087,19.89868527,15.01321032,12.57416254,8.931227934,18.84156254,30.07599983,22.64517247,27.8446756,25.93437445,26.98812485,23.63970818,22.67396729,11.50651745,7.590312487,16.46599998,13.06713844,17.85158404,15.20500028,15.88958326,13.39640844,11.73885282,1.693081995,7.690019481,15.3684929,10.60199808,14.93632352,12.89140505,13.69019131,11.26189256,10.71987293,4.447532915,0.811763395,1,1,1,1,0.985092269,0.878346274,0.404429721,44.0664117,-93.52500471,2019,MNH1
B37/OH43,TXH1_2020,N,10.625,758.1521028,0,2,166.37,47.625,67.5,66.5,2.284333333,0,4.613530444,2.949806388,1.362941181,6.741056464,2.844869093,3.829088224,2.301094231,68.53,0,55.97058804,110.7988238,1.362941181,71.52235312,82.32059028,18.97352936,69.29117607,13.91343843,13.3863348,15.08816438,19.79337859,19.48130546,19.24170726,19.77113757,20.7945973,17.91495332,20.02266652,27.17999992,26.60815942,26.52479293,29.39617636,29.12989124,32.2266946,33.03076485,34.59511331,6.794333295,17.20400028,15.2455437,13.65359797,17.29686298,16.61337131,20.73348334,20.06167624,24.24037069,7.901247141,14.27292515,13.38037585,12.76738989,15.58009007,15.11126374,18.39892159,18.53701373,20.50202011,0.821357143,1,0.99243504,0.993791594,1,1,1,0.999042533,30.53781575,-96.4283715,2020,TXH1
PHG39/PHN82,NYH1_2017,N,17.7,731.1212129,0,2,229,110,65,64,4.758709581,4.139999986,2.953024942,5.715506232,4.320872878,2.701732063,2.616328443,1.022630585,3.614268439,147.519997,37.25999987,45.12618999,219.9223815,11.26857107,35.6957141,128.4247627,13.30476207,110.8900009,18.97444351,17.81005277,22.0763727,19.38397475,18.56141379,19.22534974,16.71382568,13.43506643,9.037548332,17.06967752,20.23333359,22.7745171,25.66488699,26.70396817,25.32691524,23.26007272,23.96840526,17.61119819,5.964193534,10.19,10.93717632,15.20362294,16.36293638,14.60656728,11.31793404,11.56685323,6.669544781,6.641127344,8.727253675,10.15270493,12.79474615,13.71935226,12.37567782,10.45035179,10.9124923,7.239151369,0.685760371,1,1,1,1,0.982493678,0.953634339,0.701363064,42.72880835,-76.6515625,2017,NYH1
F42/MO17,WIH1_2015,Y,32.55,767.1623994,0,0,263,145.5,65,64,4.730000059,9.059999784,2.430610682,6.190059866,3.242812514,1.739310909,2.563222068,2.582604527,2.064862235,151.3600019,54.3599987,32.30062549,198.0887501,6.485625029,21.11437514,113.2525011,35.42937557,62.48000012,19.32367544,22.19104989,23.8972515,19.04105101,21.62804324,20.72553659,16.09255797,13.7227876,9.595561915,19.95718755,28.15000025,26.05326099,28.85932006,29.07385437,26.51056077,24.82739399,20.18089026,14.51549808,8.517187543,15.30499983,11.82802944,17.48783518,16.48010375,14.49615378,12.31509137,8.581945626,2.680440183,8.558350873,13.98301754,11.81015597,15.26183828,14.95581898,12.98753542,11.68123469,8.628108428,5.087550731,0.777276777,1,1,1,1,0.929186389,0.833919484,0.505939954,43.05511725,-89.528525,2015,WIH1
PHB47/PHN82,WIH2_2015,Y,35.4,782.6086222,0,0,232,123,65,64,3.126774188,2.655000041,4.103605878,5.336067251,1.868823528,3.142847566,3.066358713,6.463272165,3.426278957,96.92999983,15.93000025,53.58117651,186.0694135,5.435882344,36.03705852,132.4747064,52.80117733,103.4994124,19.63646212,20.57311455,21.5892617,21.07111177,18.36300238,19.20517036,18.54583572,13.68038168,11.37476292,15.6409678,24.97666677,26.11823115,28.09529077,27.51588227,27.91298604,26.4469062,23.95331443,17.63645543,3.355806466,13.62666686,13.88922494,15.17788174,17.2276475,16.92946091,13.73434519,12.63733902,6.343913375,5.370860554,11.93138906,12.65256426,14.04290221,14.43586033,14.57588984,12.76646014,11.49482956,7.023163717,0.588214292,1,1,1,1,0.979783322,0.914260835,0.715230077,43.3264485,-89.33359975,2015,WIH2
F42/H95,ARH2_2017,N,16.15,731.1212129,0,2,182,82.5,65.5,63,2.789999995,15.83285686,4.776016413,2.853949028,1.142500003,5.651818152,3.905948255,2.4430325,4.688621725,89.27999985,110.829998,61.6427269,88.95863769,3.003181826,52.42863608,105.2449988,13.33772746,145.3472735,17.14489296,19.09436907,20.93439511,19.65670258,19.84409681,19.1211903,18.81176407,19.65259997,17.546866,23.65656266,24.55142866,25.38541455,28.9612549,32.40098458,30.84565692,31.84241473,32.83627249,30.20087953,12.07343751,12.16142872,12.7110645,18.0477898,21.78734854,20.24410098,21.87781566,22.25639174,20.26112908,10.83878158,11.22094165,11.88579938,15.62584547,19.09416656,17.54487895,18.8103181,19.27693671,17.25265116,0.991674107,1,0.97315368,1,1,1,1,1,35.67418125,-90.0752695,2017,ARH2
B37/MO17,WIH2_2016,Y,22,783.2522148,0,7.5,295.5,162.5,66,64.5,2.185483832,6.563333432,3.447094458,4.124693788,6.707159024,6.158880111,5.945293137,1.654273513,4.758742445,67.74999878,39.38000059,44.45545418,149.2718189,18.91272705,63.86318129,228.7613642,17.11772738,143.1609097,20.07161814,17.64681498,20.48120554,20.03716075,21.00097141,18.73971629,16.31911952,14.94670844,10.3303759,18.34677419,27.65666644,25.59626749,27.3504729,29.44640147,29.15349181,26.70938079,24.21329019,20.37268081,4.840000014,15.2516667,12.43660419,15.21846351,16.18390156,17.81047537,15.29826924,12.0891497,9.537770322,6.76617685,13.67923016,11.77429452,13.6256578,15.0809804,15.56950508,13.35737665,11.10536848,8.849967039,0.729688939,1,1,1,1,0.998061418,0.979766622,0.886131912,43.32649075,-89.33882925,2016,WIH2
CG119/CG108,GAH2_2018,N,13.3,774.2419182,3,5,177,67,51.5,51.5,4.849677459,0.472857135,6.389842835,2.50728713,2.625000003,3.795198411,2.499668454,2.828785729,3.724124467,150.3400012,3.309999943,84.90856965,76.95785742,5.387857173,33.84785713,66.14142865,15.06428581,115.4478585,20.49558812,21.88511535,20.33298503,19.15998772,23.51626716,19.70790798,20.02489003,19.42019064,16.00793598,23.5748387,25.80428559,25.09824669,29.4338755,32.57678595,32.30446448,33.95531338,34.12885699,31.99587548,8.787742034,10.57714278,11.20780819,18.18961495,18.46904782,20.57888879,21.25284753,21.08492862,21.01629033,9.717543295,11.3392147,11.23425566,15.89113211,17.53376954,18.44167663,19.31882395,19.47290933,18.49284767,0.993778801,1,1,1,1,1,1,1,33.71560925,-83.30894675,2018,GAH2
PHG39/PHN82,TXH3_2019,N,10.535,782.3511852,0,0,189,60,71,70,1.71448275,0.072857141,3.656594302,9.095434564,0.409285716,1.207678571,5.355850783,1.246142852,1.574419343,49.71999974,0.50999999,52.00785631,328.2121388,0.592857139,9.661428571,146.4478573,6.531428533,47.51499965,15.42805705,20.52131135,18.76898834,18.57032559,21.42349659,18.85281525,20.14881361,21.03072751,19.84089234,18.45000007,25.76428577,24.43254944,27.27586732,31.09000002,32.37866099,32.72435205,34.04471448,34.98200776,6.826206914,10.35000004,10.67963154,14.78766739,18.65857179,21.85071427,21.02442735,21.79614282,22.6049739,7.457816468,11.1589152,10.85119479,13.46630403,16.91193677,19.11412105,18.84765314,19.77807102,20.01419559,0.749667494,1,0.945308164,1,1,1,1,0.999698925,30.546318,-96.4329965,2019,TXH3
B73/PHN82,NCH1_2020,N,17.5,724.3634904,10.25,0.5,225.625,109.0625,65,64,3.811250031,6.583749771,1.870150701,7.593384547,0.8842857,2.636686467,3.330713381,6.121142871,7.323433169,121.960001,52.66999817,29.28357046,255.9407139,2.652857099,23.48571392,94.03142862,30.32857149,227.0264283,17.79310012,18.2030313,21.90311614,16.62410426,22.73441878,20.97653859,20.54309533,18.15988809,15.65141399,21.6678125,23.21999979,23.34870433,27.04964214,28.2173808,30.95634976,33.07043217,33.2972859,31.24656685,8.082812505,11.53125006,9.51933213,18.09668861,18.19142909,20.58560522,22.1124513,22.85800005,21.91055295,8.88590596,10.34544598,9.896418393,14.69404398,15.249625,17.76881847,19.50312724,19.99035698,18.5620876,0.935200903,1,0.995619773,1,1,1,1,1,35.30009892,-77.57131746,2020,NCH1
PHN11_PHG47_0251/PHB47,MOH1_2016,N,15.8,731.1212129,1,2,235,107.5,55.5,54.5,2.465483877,8.058000231,0.264259377,6.282521268,1.94553035,9.25680559,4.358907121,3.354664451,5.453130527,76.43000019,40.29000115,2.879999995,172.8372758,4.262727369,83.20363667,125.2090916,21.13363606,168.2240918,20.2309363,16.93509369,22.49829557,20.20959989,18.68177986,19.21408964,18.0090922,17.17714413,15.87534947,21.83193548,27.56600037,27.88644765,31.21215235,30.25795442,31.2505745,30.57423065,29.80077912,28.25339236,10.073871,16.74400005,16.26474463,19.86215984,19.98371223,20.49117413,20.76153791,19.91431794,17.56318368,9.497798547,14.24343349,14.21296425,17.47336946,17.12232598,17.8699151,17.65104862,16.90998551,15.09561117,0.937315665,1,1,1,1,1,1,0.999442641,38.8955475,-92.2072025,2016,MOH1
LH74/PHN82,WIH3_2020,N,22.75,682.5299703,0,0.75,229.25,106,64,61.75,2.733870995,5.446666638,6.112394342,4.74655674,3.655208389,1.04360979,2.527373572,3.69928986,2.61452892,84.75000083,32.67999983,82.9068754,167.6149986,8.003125131,12.58312517,113.8450009,40.74312496,78.93437568,20.41919384,18.2775027,21.33639865,20.40337995,19.49413761,18.99324058,17.80850823,14.15156863,10.1168501,15.48354838,26.52499994,25.39100386,27.30541678,28.00124967,27.24401428,25.77617537,21.78088819,14.67245705,3.106129019,15.18500026,12.31273591,15.12317531,16.14624966,16.31340126,13.17330579,9.92591724,4.431311843,5.287102842,13.2823578,11.70416503,13.61992535,14.28505882,13.97808988,12.29059579,9.657643491,5.630137727,0.571854837,1,1,1,1,0.965668942,0.879609054,0.560799012,44.115703,-89.54491325,2020,WIH3
LH195/PHZ51,NEH4_2015,N,15.05,789.688141,0,2,260,127.5,65,59,2.821875036,0,3.668207424,2.0125769,1.951249957,2.654893884,1.684158262,0.190010425,1.166079967,90.30000114,0,33.89000034,59.04687595,1.951249957,28.04999942,59.1787506,1.401875056,35.09749981,18.84220009,27.31064491,20.41342533,20.52862815,19.03072298,18.81303122,18.33826559,17.15407273,12.68489203,24.01437524,30.79399948,29.66091772,30.90712841,30.81250072,28.65153035,29.50292414,26.73776808,20.93262179,13.35843744,15.59799976,18.4981335,19.26878801,20.26031268,17.34358901,16.24316685,11.04417556,7.09840123,11.80342709,15.44887437,16.14310254,17.09436255,17.53736601,15.18702607,15.25106182,11.88303257,8.618375536,0.931774556,1,1,1,1,0.97284651,0.984144349,0.784438609,41.16732275,-96.41663225,2015,NEH4
LH212HT/LH195,MNH1_2015,N,18.4,733.6955833,7.5,6,239,132,77.5,75.5,2.676451665,6.10285713,1.587216104,4.707726326,2.093823531,4.685775359,5.935015669,2.223261507,2.198788145,82.97000162,42.71999991,19.59000013,155.007059,3.965294123,52.23235247,227.0947085,20.90117698,67.40117758,19.81693462,15.87546921,21.62818458,20.65236193,17.21434565,21.12123323,17.7408483,14.5374504,12.06297535,17.43387093,22.63000025,27.28921799,28.46423671,28.36529418,28.07899716,26.14089523,24.73259507,17.90095705,4.567419307,13.73428563,14.30007362,16.89716897,18.65411764,16.19745995,14.75643511,13.57280729,6.634647692,6.2838161,10.87437977,13.26905608,14.87023808,15.64114514,14.35392043,12.99006372,12.46836687,7.55733068,0.722983866,1,1,1,1,0.977703003,0.878626049,0.721229646,44.07038575,-93.53519625,2015,MNH1
PHN11_PHW65_0323/LH195,TXH1-Early_2018,N,10.23333333,728.5468424,0,2,225.3333333,83,71.66666667,71.66666667,2.442333295,0.87833333,4.91741256,2.91095925,1.112321411,5.987347663,3.094033648,2.445309502,2.573656677,73.26999886,5.269999981,55.2178573,113.3721426,4.449285643,64.36357035,86.72785865,13.67714274,77.357857,13.4988633,14.49154552,13.92485348,19.6618496,19.390827,19.64184359,19.38410293,21.21373351,18.01258323,19.68933331,26.95833333,25.66614373,26.56996845,30.24238085,29.14372996,31.91805433,33.2644762,34.51160554,6.357666679,15.03999996,15.13755815,13.69055459,18.24071415,16.44843436,20.63070323,20.50154739,23.97494014,7.613570572,13.40715604,12.87528071,12.79536137,16.34410207,15.0664779,18.21233438,18.75919739,20.40606275,0.821476194,1,0.991620595,0.99408643,1,1,1,0.999013392,30.546318,-96.4329965,2018,TXH1-Early
B14A/H95,ARH2_2016,N,15.7,731.1212129,0,2,190,123,64.5,63.5,5.780937422,12.26500018,3.712120208,7.0222886,1.105000019,0.295568184,1.931287914,1.454696927,6.280835692,184.9899975,73.59000111,50.67409075,233.2059098,2.210000038,2.364545475,51.29727264,7.656817956,194.7059064,17.76457119,17.22719622,20.14058537,19.80644481,18.88262117,19.79738723,18.69440654,19.88854878,15.60714355,21.02781257,25.69833342,24.88224707,27.55747889,33.1628785,33.38017045,32.40728063,33.71248445,31.37684753,8.517187547,14.13833332,13.26693003,16.75834882,22.79151535,23.21522755,22.56353312,22.95024234,22.3752492,8.626308124,12.37618007,11.75818796,14.46644855,19.89189903,20.24263088,19.43024202,20.23735303,18.81126952,0.958649555,1,1,1,1,1,1,1,35.838614,-90.66530155,2016,ARH2
B73/PHN82,GAH2_2017,N,17.9,745.2802504,20,1.5,227.5,114,56,55.5,5.215806507,2.59000005,0.877047008,6.976424555,36.66571527,11.68990473,2.766634194,6.717714339,5.237281131,161.6900017,18.13000035,10.98809533,219.4985743,69.630002,116.6428568,77.55666748,33.5885717,162.3557151,18.59375843,20.97986943,21.98193589,18.54567619,14.33990901,17.7663424,19.78523868,18.86354985,17.57616326,25.93516134,24.17571449,30.47339418,29.31252372,29.52904774,29.72980419,32.72601502,32.10511542,30.76784952,12.17225799,9.938571385,16.15324828,18.06353156,20.43476164,19.51114297,21.20992787,20.86352373,19.95543778,11.90954616,10.38538115,15.45655397,15.75249851,16.98190469,16.63412837,18.90169131,18.47155665,17.41241638,0.999631335,0.985714285,1,1,1,1,1,1,33.727145,-83.29821525,2017,GAH2
B37/MO17,GAH1_2019,N,14.18,687.5499927,6,0,192.5,85,65,60.5,4.224827643,1.980000006,1.908236784,2.106472486,0,0.090714284,5.691865924,1.473428559,3.045620547,122.5200016,17.82000005,22.37999977,72.04999958,0,0.725714275,156.5528547,7.367142797,92.8692846,16.4500471,17.48633936,17.40259385,20.9384506,22.51147406,21.84430948,17.66714436,19.76491442,19.71139218,21.20655165,22.58666695,26.81574745,29.5228407,35.04273814,35.70196446,32.62270198,33.62814315,33.36893722,7.214827602,8.595555623,14.04498416,14.47543411,19.21654783,20.58464301,20.89661115,21.78014287,21.253149,8.370628681,9.274220075,12.91642218,14.40044999,18.67726543,19.28313207,18.63395398,19.63555568,19.18049021,0.90216748,0.984365085,1,1,1,1,1,1,31.50582525,-83.55515025,2019,GAH1
WF9/H95,MOH1_2015,N,12.65,731.1212129,0,0,202.5,85,78,74.5,3.914838722,3.002727248,2.7038834,5.646226268,2.268750012,1.183333344,4.736744086,1.740401796,3.666491943,121.3600004,33.02999973,34.41999933,178.8712478,5.868750036,10.6500001,140.2618746,11.88312507,113.6612502,18.81846694,18.88703156,16.92919735,21.70591481,15.72154266,19.94530069,18.47422179,20.12873028,17.02653892,18.28451609,18.00181831,23.77805456,28.93028285,29.85593748,31.76118019,30.42140763,28.58050013,28.43143147,5.857096827,7.500000065,15.21487777,17.6487962,21.67281234,21.45979159,20.28182538,17.09899995,17.28669369,7.068544315,7.302193139,11.97142579,15.39796361,17.76437491,18.61048589,17.380694,14.99182695,15.05317439,0.723283405,0.814935086,1,1,1,1,1,1,38.8965375,-92.20800417,2015,MOH1
TX777/LH195,GAH1_2020,Y,21.85,678.6040553,0,0,175,77.5,72,70,4.279687563,0,6.08243138,3.811420537,2.267976227,2.530000055,3.98378478,1.741833346,2.910207357,136.950002,0,84.37571335,135.9278565,4.833571502,22.77000049,107.9378566,9.115000069,90.21642806,16.61263859,21.5972875,19.10636237,20.72286693,14.54687945,18.15584731,20.08605453,19.68634889,18.27781732,25.37343752,26.77166684,25.94144379,27.77824619,29.55357116,30.6518255,31.78195276,33.48178532,33.56322575,12.43875006,10.55666669,12.19035929,13.80720781,20.58059497,20.26111097,20.57386992,21.96838095,22.25456222,11.80508215,11.69113274,11.88989525,13.35432975,17.06708306,17.45646823,18.17996521,19.67032327,19.80166763,0.988537947,1,1,1,1,1,1,1,31.5079775,-83.558517,2020,GAH1
2369/LH123HT,IAH3_2017,Y,22.5,781.9650296,0,2,229,110,65,64,4.153750014,4.476666673,3.404720357,2.207347727,0.783636364,2.628276904,1.892687593,2.328876272,1.794257086,132.9200004,67.1500001,54.03954627,78.33863542,1.567272728,28.02681865,71.85545488,19.05045461,54.69545453,16.14493189,17.75127989,18.89303832,22.07985964,20.54923199,20.99384486,19.81852315,17.22919489,15.64326955,15.84312499,15.5066665,21.42652578,27.714982,28.45522753,29.90074383,27.6545798,25.64720852,25.13760955,4.41906251,4.141333344,9.782295063,13.56526933,16.05901469,16.6123348,14.8096002,12.74600627,11.28191352,5.818880471,5.62230391,9.387130072,13.2881535,14.4256186,15.3843105,13.65871261,11.89796048,11.29223634,0.568604913,0.570380948,0.879734313,1,1,1,1,0.979205627,41.9758706,-92.24318881,2017,IAH3
B73/PHN82,WIH2_2019,N,29.1,636.5130982,0,0,256.6666665,127.0833333,70,69.25,5.084687524,1.186666648,3.682690384,5.868440751,0.695238091,4.73009737,4.315774648,4.395502279,4.547947068,162.7100008,7.119999886,58.08928529,183.8007161,1.222857135,55.05428533,207.5435701,59.53000056,136.8792876,20.51840827,23.10255337,19.84622659,19.54978709,22.13574316,19.04821964,14.90817086,12.98397937,9.337872891,18.93468753,26.85500018,22.80729416,28.92841129,27.86750015,27.53142967,23.33864799,22.30785619,12.19546616,7.173437506,12.79833317,11.75963315,17.3057567,14.67845241,15.42498763,12.56161555,11.34993986,2.687473085,7.568173943,12.44054354,10.32084191,15.24419851,13.63574066,13.78240318,10.8770868,10.55092288,4.713570865,0.808549105,1,0.995612408,1,1,0.966295589,0.875965566,0.450550638,43.320768,-89.33189475,2019,WIH2
B37/H95,WIH1_2016,Y,22.2,780.0342518,2.5,7.5,246,129.5,75,74.5,2.076129018,1.94750002,4.430291291,4.068377178,0.606590927,8.204471101,6.520888551,7.285801826,4.413191112,64.35999957,23.37000024,50.66818307,153.9786358,1.017727305,87.41727302,222.4604529,58.95590957,134.9268184,19.92805462,20.9108026,19.53546339,20.65690042,18.97296773,19.76360502,17.50876714,15.21370917,12.23883056,16.70258062,17.57583312,27.08182728,26.49130857,27.22159082,28.35833875,27.6700069,25.1458901,22.98674642,3.327419363,4.990833327,14.04723809,14.47423798,17.58636334,16.7186736,17.17399145,14.32051147,12.5735533,5.875866612,6.419508974,12.98865398,12.92924289,14.50224274,14.72651534,14.55658067,12.23924581,10.7486024,0.621198161,0.7653869,1,1,1,0.999967803,0.998306277,0.970976554,43.05632525,-89.53194975,2016,WIH1
B73/PHN82,DEH1_2019,N,20.375,704.7339156,0,15.75,229,108,60.5,58.75,4.885483834,0.129999995,2.22754366,2.838879743,7.092619056,13.09007943,2.376059147,7.246095167,5.291338731,151.4499989,1.169999957,29.41999924,87.75142762,13.32785715,117.8107149,70.17642808,38.82285679,163.7607149,18.09422633,22.52754413,19.09832956,21.10549391,16.87992425,18.38683534,17.43790908,14.47643482,15.18822094,17.49129031,20.55777783,23.08374535,28.61102885,30.70333358,31.53571423,31.96636291,30.10673826,28.44137569,7.04516129,9.184444467,14.30050877,18.34149326,20.74333359,21.70119062,22.68293302,22.03347627,19.57253904,6.992168387,8.735510177,11.41430501,15.6056687,17.71122979,18.59296506,19.259015,18.07354239,16.13042035,0.769815656,0.948412699,0.988507504,1,1,1,1,1,38.670675,-75.433225,2019,DEH1
CG60/LH162,OHH1_2015,N,12.6,753.0033618,0,0,200.5,99.5,59,60,4.820000016,2.056666652,1.801667061,2.430255425,2.070588264,2.75488235,3.664772063,1.623969288,1.874022108,149.4200005,12.33999991,20.27235275,82.00588303,2.23529414,26.29176468,128.0200007,12.16764697,57.18411674,17.71339239,20.831882,20.85048625,20.93566426,20.28419298,19.59839119,17.66236547,17.23782846,14.83481447,16.95064511,28.03666687,26.64173705,29.01382079,31.07970569,30.59522857,27.99762273,26.69097183,23.34659959,5.9283871,15.42166694,14.66308043,16.74801267,19.23764672,18.74322206,16.69895781,13.90980629,10.26308727,6.580773377,14.04730329,13.19467995,15.08203889,17.16864649,16.69143216,14.53513226,12.92347397,10.29932856,0.672569122,1,1,1,1,1,0.994932126,0.947361455,39.855785,-83.66477375,2015,OHH1
PHG39/TX205,DEH1_2017,Y,23.3,675.1286552,0,3.5,248,113.5,71.5,71,2.917187458,6.201428686,3.00780289,3.517983876,1.211428521,1.632751291,5.214259368,11.31934688,4.882730708,93.34999865,43.4100008,45.34571489,126.7790489,1.268571377,15.48333303,157.8533328,69.24809492,151.3147631,17.05647962,17.73228645,20.71096481,19.57386043,19.15556694,20.88592809,18.21237176,18.15756056,16.58607394,20.26624998,24.66142872,21.72245043,26.82298965,30.35071437,30.31148162,30.69555299,28.43090921,27.29702356,9.32593758,14.19571427,10.68752201,16.75855213,19.906349,19.88150788,21.21690322,18.72144455,17.91444491,8.690479953,12.08402314,9.787934269,14.12431868,17.15482568,17.14050735,17.94790556,15.63546309,14.74613823,0.907287956,1,0.959736116,1,1,1,1,1,38.67025825,-75.4333645,2017,DEH1
B37/H95,MNH1_2018,N,22.04,713.5296813,0,2,252.8333333,121.6666667,66.16666667,63.66666667,2.793871032,5.664285694,1.881383508,4.66962568,0.280777779,5.314848416,5.503097756,4.902593174,1.744490341,86.61000198,39.64999986,19.66333312,156.0266671,0.653333338,61.18466587,207.3246693,42.5680015,52.61600056,18.68617175,18.6483766,23.22190313,20.23498137,21.88409551,21.20453879,17.43849101,14.02805899,11.47763682,18.24580648,23.51142883,30.49568208,28.40295697,27.67288871,27.88288382,26.24424925,23.489937,17.2954947,6.62290317,13.35285704,16.1020056,17.07111629,16.25377796,15.7901465,14.83515609,12.42970144,6.347470975,7.12789267,11.15082684,15.42136783,14.91719499,14.1582049,14.10491894,13.08066536,11.20324133,7.126560519,0.79756912,1,1,1,1,0.978734696,0.910102722,0.699884152,44.07044721,-93.53494127,2018,MNH1
PHG39/PHN82,NYH1_2018,N,22.15,731.1212129,2.5,1.5,242.5,105.5,63,63,4.394516057,1.637142931,0.546464292,3.461265884,6.062261837,4.338061718,2.067540981,1.177456758,2.359527655,136.2299978,11.46000051,7.340000123,113.5449994,14.95785693,45.27285745,83.63714323,15.50214277,71.28500016,21.14905797,19.51909583,22.50012197,20.49014312,17.37909559,18.62357236,17.54437735,14.42309006,11.11333684,16.43838702,24.34714304,24.48084385,28.4079325,28.47095262,28.85558784,26.25577716,21.21730113,17.53723965,4.181612903,13.18428578,11.78804566,16.02970596,18.15166677,17.53428468,14.37510127,9.649634667,6.532510054,6.046172102,11.82070517,11.18993529,14.50776692,15.35223703,15.26441478,12.8637381,9.179788733,7.084201569,0.564688941,0.946581643,0.98880424,0.99833546,1,0.984010821,0.898581807,0.740508559,42.72940418,-76.65161667,2018,NYH1
PHN11_OH43_0001/PHB47,IAH4_2017,Y,18.65,713.1006196,1,5,227,96.5,68,65,3.054193612,4.63857133,5.654282844,2.356146022,0.145000003,0.823262634,3.029939984,2.506485397,3.022032747,94.68000197,32.46999931,92.55000019,79.81000018,0.290000005,7.931363713,110.0431818,17.65818187,91.79227275,19.60434628,22.37855189,18.81628808,21.46940114,22.42332305,21.26952374,19.1513695,15.94205759,15.34138578,17.83935482,25.21428544,21.76755785,28.88340452,30.88984893,30.99338411,28.30609907,26.26622464,25.93438806,4.952580655,10.13999993,10.24708413,15.02150207,17.47128796,18.07608078,15.80662465,13.87026602,12.51354651,6.575243948,10.82301274,9.649960621,14.3656457,16.22810104,16.57398155,14.36597852,12.57546566,12.06214068,0.727396317,1,0.910082199,1,1,1,1,0.987168831,41.99455432,-93.69030947,2017,IAH4
B73/TX779,IAH1_2017,Y,24.25,700.2287673,0,2,213.5,110,65,64,3.40562493,4.965384584,4.756276119,1.833606587,3.814090996,2.221484887,3.670808328,1.81325484,2.347473118,108.9799978,64.54999959,71.28272616,63.78727258,4.177727374,22.83863677,118.9068186,13.7622725,72.03681816,16.19865167,17.41178014,18.84198651,22.07722619,19.57094626,20.6423577,19.65334879,19.12382584,16.87809105,17.11343735,15.37846162,22.95951679,28.09807267,26.50742381,30.27960591,29.79948923,26.92834941,26.37674051,5.413125027,4.923076978,11.46549016,14.16962528,11.61757578,16.65775237,16.66504091,13.38757222,12.41510662,6.530778339,5.768563812,10.45370215,13.71965113,11.94783378,15.64262598,15.39964617,12.71239892,12.1737806,0.629988832,0.555054952,0.946458762,1,1,1,1,0.998130952,41.19924609,-91.49402296,2017,IAH1
B73/TX779,TXH1-Early_2018,N,11.1,757.5085102,0,2,240,89,75,72,2.442333295,0.87833333,4.91741256,2.91095925,1.112321411,5.987347663,3.094033648,2.445309502,2.573656677,73.26999886,5.269999981,55.2178573,113.3721426,4.449285643,64.36357035,86.72785865,13.67714274,77.357857,13.4988633,14.49154552,13.92485348,19.6618496,19.390827,19.64184359,19.38410293,21.21373351,18.01258323,19.68933331,26.95833333,25.66614373,26.56996845,30.24238085,29.14372996,31.91805433,33.2644762,34.51160554,6.357666679,15.03999996,15.13755815,13.69055459,18.24071415,16.44843436,20.63070323,20.50154739,23.97494014,7.613570572,13.40715604,12.87528071,12.79536137,16.34410207,15.0664779,18.21233438,18.75919739,20.40606275,0.821476194,1,0.991620595,0.99408643,1,1,1,0.999013392,30.546318,-96.4329965,2018,TXH1-Early
PHG29/PHG47,NEH3_2017,N,20.55,763.9444363,10.5,2,151,64.5,65,64,6.03471326,3.955444498,0.18882913,3.842009577,1.316296295,1.435570981,2.764433094,3.912023778,4.15136979,187.076111,38.21611161,1.987222274,117.8244439,3.948888885,12.8655555,93.99333183,27.38611089,126.3194449,18.53150537,21.70326166,24.15860034,20.80931081,18.66603313,19.02487726,18.75887595,17.51813417,15.15718003,20.20137986,23.21257118,30.13389904,30.13339279,32.06462927,32.76776237,28.39622898,27.87449379,27.0242909,7.908297486,10.26215086,15.17879712,16.87891665,20.62425956,20.98993062,16.95054818,15.08081369,13.75654417,8.47748899,10.0955543,14.95078719,15.67969265,18.3413362,18.75248222,14.77642402,13.79312874,13.00111339,0.783510626,0.953819441,1,1,1,1,1,0.993105158,41.162,-96.409,2017,NEH3
PHN11_PHW65_0323/LH195,IAH3_2019,Y,24.4,690.574878,0,0.5,232.5,117.5,65,64,2.879677419,8.325833271,8.514982687,3.930253796,0.537380945,2.3054841,2.306432914,9.350841805,5.38576807,89.26999998,99.90999925,122.1842849,140.4857139,1.612142835,22.50785688,97.56999955,77.30999979,164.0414292,18.1142604,18.14433392,18.34133211,20.20102762,20.30083813,21.10542726,19.14151731,15.03963484,12.83068274,16.60032246,18.1858333,22.24543073,27.09611601,28.60416662,30.1634999,27.59661349,25.62734982,23.13272506,3.497096781,6.015833348,10.94521806,15.70806976,18.18130992,18.44873807,15.55405048,14.14793364,12.04513443,5.803122395,7.048807354,9.977529243,13.7421048,15.43701566,16.36698878,13.8976006,12.43400485,10.94701098,0.634539169,0.718095232,0.926337681,1,1,1,0.9932483,0.897879883,41.97593131,-92.24310603,2019,IAH3
B73/DK3IIH6,WIH2_2016,N,18.5,749.1418061,0,26.5,282.5,147.5,61,61,2.185483832,6.563333432,3.447094458,4.124693788,6.707159024,6.158880111,5.945293137,1.654273513,4.758742445,67.74999878,39.38000059,44.45545418,149.2718189,18.91272705,63.86318129,228.7613642,17.11772738,143.1609097,20.07161814,17.64681498,20.48120554,20.03716075,21.00097141,18.73971629,16.31911952,14.94670844,10.3303759,18.34677419,27.65666644,25.59626749,27.3504729,29.44640147,29.15349181,26.70938079,24.21329019,20.37268081,4.840000014,15.2516667,12.43660419,15.21846351,16.18390156,17.81047537,15.29826924,12.0891497,9.537770322,6.76617685,13.67923016,11.77429452,13.6256578,15.0809804,15.56950508,13.35737665,11.10536848,8.849967039,0.729688939,1,1,1,1,0.998061418,0.979766622,0.886131912,43.32649075,-89.33882925,2016,WIH2
W10001_0022/PHB47,ILH1_2015,Y,11.75,749.7853988,0,2,252.5,110,66,64.5,4.343437491,1.296153843,7.654899739,5.34311295,3.674999952,2.467291633,4.647268051,0.712819956,1.951907909,138.9899997,16.84999996,99.86750055,177.342501,7.349999905,22.2056247,144.0256246,5.039375113,60.06187434,19.4076893,20.21820178,17.58012378,22.59231729,17.35775694,20.12242863,18.79551315,20.37165926,16.80998738,15.69375022,16.27615364,23.81483975,28.77428317,30.28249967,31.91701372,28.65899596,28.4854072,27.09877011,2.916875011,4.602307732,13.93389792,16.26044709,20.47749984,20.41381959,17.79543547,15.77196732,14.62672175,5.339800043,5.921635642,11.53105666,14.7484369,17.37999976,18.17178164,15.31569586,14.44648847,13.36421336,0.599162964,0.636840646,1,1,1,1,1,0.99828125,40.05982425,-88.23397575,2015,ILH1
B14A/MO17,IAH4_2019,N,35.9,633.6169314,8.75,6.5,253.5,126.75,63.25,62.75,7.44874995,0,6.508814674,5.652572602,2.433809479,0.731547632,2.455795253,7.856419535,5.758725846,238.3599984,0,89.12928634,169.456428,4.779285618,8.60571444,106.5300014,62.81714391,173.1250012,18.61457558,24.25652275,18.80062453,19.64217675,17.01762246,21.29967345,16.82875041,12.82062273,10.73648339,20.72718754,29.98400002,24.57226332,29.58102216,28.11761892,27.58625519,26.21902431,25.70162766,18.66579105,8.655312385,16.39199963,13.30590142,18.52555793,18.42333308,15.4118289,14.78252205,14.57801647,7.354403302,8.719182336,15.28713381,11.55896644,16.12377034,15.4195504,13.79277779,12.9189296,12.78184671,8.051480754,0.866629464,1,1,1,1,0.996735112,0.969646609,0.721601517,42.03193798,-93.79333213,2019,IAH4
B97/PHB47,IAH2_2017,Y,17.7,731.1212129,0,2,229,110,65,64,2.991935476,4.003749907,5.594154361,1.824159742,2.965909053,1.138616173,3.544395797,5.525860929,3.224964342,92.74999976,32.02999926,86.83999968,64.74363607,5.880909015,11.03545466,133.6850016,39.36636487,98.02272796,18.91811151,22.03083944,18.39067038,21.91300981,21.59707026,21.00058551,18.76246256,16.50136756,14.56336975,16.70258062,25.25375009,21.16444029,28.78792803,31.34295403,31.03890899,27.79230679,26.54138994,25.01808603,3.836129038,9.060000002,9.836484062,14.72352594,17.1804546,18.00485339,15.61890002,13.9478747,12.25710857,5.884356407,10.52058178,9.325556586,14.19611432,16.29393371,16.57150033,14.05801276,12.73803514,11.57992501,0.659274195,1,0.882113053,1,1,1,1,0.976890029,42.06582876,-94.72050129,2017,IAH2
PHN11_PHW65_0323/LH195,DEH1_2017,Y,22.6,707.308286,0,1.5,238,112,68.5,68.5,2.917187458,6.201428686,3.00780289,3.517983876,1.211428521,1.632751291,5.214259368,11.31934688,4.882730708,93.34999865,43.4100008,45.34571489,126.7790489,1.268571377,15.48333303,157.8533328,69.24809492,151.3147631,17.05647962,17.73228645,20.71096481,19.57386043,19.15556694,20.88592809,18.21237176,18.15756056,16.58607394,20.26624998,24.66142872,21.72245043,26.82298965,30.35071437,30.31148162,30.69555299,28.43090921,27.29702356,9.32593758,14.19571427,10.68752201,16.75855213,19.906349,19.88150788,21.21690322,18.72144455,17.91444491,8.690479953,12.08402314,9.787934269,14.12431868,17.15482568,17.14050735,17.94790556,15.63546309,14.74613823,0.907287956,1,0.959736116,1,1,1,1,1,38.67025825,-75.4333645,2017,DEH1
LH74/PHN82,WIH2_2018,N,26.35,758.5811645,0.5,2,255.6666667,142.1666667,69.16666667,67.5,3.144193572,1.768571428,3.785071194,5.164846227,1.715952385,3.402224049,3.044948822,9.615599338,3.371772616,97.47000074,12.38,46.28142902,179.8699983,4.560714279,37.70642883,131.4821453,73.47714479,101.7171416,19.25733411,21.12108299,21.47525877,21.2745393,18.31717262,18.53021556,18.66070884,13.62580315,11.37185475,15.52870961,24.66571426,26.09170284,28.23486864,27.86595249,27.65838755,26.70641136,24.92152362,17.96867439,3.195161297,12.95000008,13.88902894,15.13385395,17.40500012,17.0648215,13.77097062,13.5657747,6.887165117,5.289841082,11.57195132,12.6458491,14.08946858,14.71699087,14.50107081,12.89356629,12.23397282,7.279203781,0.580092163,1,1,1,1,0.981419113,0.932006969,0.73866365,43.38075,-89.38645,2018,WIH2
F42/H95,WIH2_2017,Y,17.7,731.1212129,0,2,229,110,65,64,5.048709616,4.636666616,1.142383575,5.763857885,8.001590729,6.160048604,1.607776433,1.167726513,2.257555268,156.5099981,41.72999954,17.5799998,219.3963643,12.14409065,74.04090792,72.28863683,15.04409093,68.0204557,18.1690344,19.72049554,20.64727683,20.23287988,19.13163679,19.37493243,18.51401576,14.93340477,10.89478233,16.03129027,21.86555545,22.15746071,26.59689143,27.90045501,26.76799254,24.73062069,22.38533393,20.51274781,3.24419354,8.791111098,9.553497601,14.54337319,16.81037892,15.37831158,12.19271258,9.193202486,7.868866577,5.438218202,9.209131236,9.451203107,13.05708411,14.51682301,13.37610723,11.31306373,9.686333754,8.853113959,0.624158991,0.847976183,0.950288768,1,1,0.998699911,0.954544862,0.834596302,43.3246415,-89.33688775,2017,WIH2
PHW52/PHM49,MNH1_2019,N,28.65,674.4850626,0.75,1.25,236.75,100,68.5,64.25,5.301249992,3.475999832,3.602993786,6.929571154,0.665000021,5.494791652,5.263070224,5.621187949,3.218817211,169.6399997,17.37999916,52.03749943,225.572501,0.665000021,65.93749982,237.3162515,64.04000057,97.09750019,20.08423158,23.23368454,18.89062728,19.10632096,20.66435087,19.89868527,15.01321032,12.57416254,8.931227934,18.84156254,30.07599983,22.64517247,27.8446756,25.93437445,26.98812485,23.63970818,22.67396729,11.50651745,7.590312487,16.46599998,13.06713844,17.85158404,15.20500028,15.88958326,13.39640844,11.73885282,1.693081995,7.690019481,15.3684929,10.60199808,14.93632352,12.89140505,13.69019131,11.26189256,10.71987293,4.447532915,0.811763395,1,1,1,1,0.985092269,0.878346274,0.404429721,44.0664117,-93.52500471,2019,MNH1
B97/PHB47,IAH3_2017,Y,17.7,731.1212129,0,2,229,110,65,64,4.153750014,4.476666673,3.404720357,2.207347727,0.783636364,2.628276904,1.892687593,2.328876272,1.794257086,132.9200004,67.1500001,54.03954627,78.33863542,1.567272728,28.02681865,71.85545488,19.05045461,54.69545453,16.14493189,17.75127989,18.89303832,22.07985964,20.54923199,20.99384486,19.81852315,17.22919489,15.64326955,15.84312499,15.5066665,21.42652578,27.714982,28.45522753,29.90074383,27.6545798,25.64720852,25.13760955,4.41906251,4.141333344,9.782295063,13.56526933,16.05901469,16.6123348,14.8096002,12.74600627,11.28191352,5.818880471,5.62230391,9.387130072,13.2881535,14.4256186,15.3843105,13.65871261,11.89796048,11.29223634,0.568604913,0.570380948,0.879734313,1,1,1,1,0.979205627,41.9758706,-92.24318881,2017,IAH3
LH195/LH82,IAH4_2017,Y,21.325,719.5365458,0,2,197,88.75,72,69,3.054193612,4.63857133,5.654282844,2.356146022,0.145000003,0.823262634,3.029939984,2.506485397,3.022032747,94.68000197,32.46999931,92.55000019,79.81000018,0.290000005,7.931363713,110.0431818,17.65818187,91.79227275,19.60434628,22.37855189,18.81628808,21.46940114,22.42332305,21.26952374,19.1513695,15.94205759,15.34138578,17.83935482,25.21428544,21.76755785,28.88340452,30.88984893,30.99338411,28.30609907,26.26622464,25.93438806,4.952580655,10.13999993,10.24708413,15.02150207,17.47128796,18.07608078,15.80662465,13.87026602,12.51354651,6.575243948,10.82301274,9.649960621,14.3656457,16.22810104,16.57398155,14.36597852,12.57546566,12.06214068,0.727396317,1,0.910082199,1,1,1,1,0.987168831,41.99455432,-93.69030947,2017,IAH4
CG60/LH162,MNH1_2015,Y,14.95,720.823731,0,2.5,202,102,67,66.5,2.676451665,6.10285713,1.587216104,4.707726326,2.093823531,4.685775359,5.935015669,2.223261507,2.198788145,82.97000162,42.71999991,19.59000013,155.007059,3.965294123,52.23235247,227.0947085,20.90117698,67.40117758,19.81693462,15.87546921,21.62818458,20.65236193,17.21434565,21.12123323,17.7408483,14.5374504,12.06297535,17.43387093,22.63000025,27.28921799,28.46423671,28.36529418,28.07899716,26.14089523,24.73259507,17.90095705,4.567419307,13.73428563,14.30007362,16.89716897,18.65411764,16.19745995,14.75643511,13.57280729,6.634647692,6.2838161,10.87437977,13.26905608,14.87023808,15.64114514,14.35392043,12.99006372,12.46836687,7.55733068,0.722983866,1,1,1,1,0.977703003,0.878626049,0.721229646,44.07038575,-93.53519625,2015,MNH1
PHW52/PHN82,INH1_2020,Y,24.34,729.0617165,0.75,2,207.675,86.075,68.25,64.5,2.63064515,6.092222161,2.380905542,2.638028789,0.629411796,2.977235278,3.349803369,1.095052516,1.575144189,81.54999965,54.82999945,26.35000017,86.90176377,0.755294155,29.77235278,114.9176474,7.60117643,48.41470517,19.12040675,14.46862051,21.68340347,21.75389977,20.24839053,19.66959435,18.78188958,18.00828299,15.45076636,15.20677414,20.6899999,27.1104927,29.42650107,32.0752936,30.36388222,28.15834081,28.66782236,25.41333794,2.934193564,11.51555562,15.17811918,16.46944194,19.37588254,18.23752946,16.66734055,16.5683672,12.52337519,5.193705795,9.337664252,13.54219901,15.16026165,17.73146127,16.3694037,14.61167179,14.83949529,11.90095499,0.576025338,0.994801587,1,1,1,1,1,0.975702381,40.4787965,-86.9895995,2020,INH1
B73/PHM49,GAH2_2018,Y,14.6,738.2007317,0,2,230,108,55,55,4.849677459,0.472857135,6.389842835,2.50728713,2.625000003,3.795198411,2.499668454,2.828785729,3.724124467,150.3400012,3.309999943,84.90856965,76.95785742,5.387857173,33.84785713,66.14142865,15.06428581,115.4478585,20.49558812,21.88511535,20.33298503,19.15998772,23.51626716,19.70790798,20.02489003,19.42019064,16.00793598,23.5748387,25.80428559,25.09824669,29.4338755,32.57678595,32.30446448,33.95531338,34.12885699,31.99587548,8.787742034,10.57714278,11.20780819,18.18961495,18.46904782,20.57888879,21.25284753,21.08492862,21.01629033,9.717543295,11.3392147,11.23425566,15.89113211,17.53376954,18.44167663,19.31882395,19.47290933,18.49284767,0.993778801,1,1,1,1,1,1,1,33.71560925,-83.30894675,2018,GAH2
PB80/PHZ51,ONH2_2016,Y,18.9,752.3597692,0,2.5,244.5,109,75,71,1.435483875,1.740833327,1.463802716,3.022687524,0.150999999,1.134659085,3.046446673,1.693503778,2.765116665,44.50000012,20.88999993,18.84600039,117.1590009,0.150999999,12.25349994,101.0444998,13.16149993,84.26899996,19.72563927,22.19747464,21.68954048,21.77365896,18.98664827,19.92678304,16.69906166,15.68152671,12.9072029,14.10741935,17.58083336,26.00758685,26.04894451,27.78099985,28.79287246,28.2480382,25.9224786,23.75348014,4.257419363,7.13166666,15.03828811,14.1477789,17.72699971,17.33924119,18.24672102,15.95494667,14.17526013,5.131346137,6.986841243,12.85116395,12.65171997,14.84296497,15.26027205,15.31782021,13.26534606,11.67621189,0.511244241,0.799851209,1,1,1,1,1,0.975829282,42.4530035,-81.88279875,2016,ONH2
B73/PHN82,TXH2_2019,N,14.08,757.0451235,0,0,210.5,74,69,68.5,1.71448275,0.072857141,3.656594302,9.095434564,0.409285716,1.207678571,5.355850783,1.246142852,1.574419343,49.71999974,0.50999999,52.00785631,328.2121388,0.592857139,9.661428571,146.4478573,6.531428533,47.51499965,15.42805705,20.52131135,18.76898834,18.57032559,21.42349659,18.85281525,20.14881361,21.03072751,19.84089234,18.45000007,25.76428577,24.43254944,27.27586732,31.09000002,32.37866099,32.72435205,34.04471448,34.98200776,6.826206914,10.35000004,10.67963154,14.78766739,18.65857179,21.85071427,21.02442735,21.79614282,22.6049739,7.457816468,11.1589152,10.85119479,13.46630403,16.91193677,19.11412105,18.84765314,19.77807102,20.01419559,0.749667494,1,0.945308164,1,1,1,1,0.999698925,30.546318,-96.4329965,2019,TXH2
WF9/H95,MOH2_2015,N,15.25,731.1212129,0.5,0.5,217.5,97.5,74,71.5,3.914838722,3.534545422,2.891676029,5.446623968,2.505882375,1.1137255,5.068586465,0.980448186,4.011119538,121.3600004,38.87999964,35.23176398,173.6929392,5.011764751,10.0235295,148.9223525,6.487058864,124.3447057,19.08701148,18.12534948,17.16717858,21.59629129,16.88945411,20.34516158,18.32895435,19.90608894,16.95494386,18.756129,18.24727275,23.87322904,29.02836507,30.59176479,31.93248319,30.27285599,28.73220747,28.34062618,6.152580692,8.059091026,15.30129973,17.80114352,21.94705907,21.39261428,20.17023127,17.40519331,17.20941189,7.288196993,7.58478923,12.05891064,15.51775091,18.26941193,18.66254873,17.2518739,15.21359182,14.97078901,0.75554147,0.814935086,1,1,1,1,1,1,38.89807917,-92.2079,2015,MOH2
B14A/MO17,MIH1_2020,N,19.45,666.1183586,1,33,241.5,122.75,55,52,4.984838709,2.447142908,2.78018427,2.64718347,5.506875038,1.476884461,2.688717092,6.006552647,2.65185957,154.53,17.13000035,30.43499947,89.07562375,6.053750038,16.17374991,112.2143753,49.72375022,79.8756258,20.40588462,19.28742858,24.32683064,21.06964646,18.47526628,19.40802789,18.05267967,13.18055513,11.8632568,17.75483874,24.12857165,28.18736501,29.25734834,30.47187495,29.12451894,27.19720882,23.65947149,18.53645566,5.91032262,13.18571418,13.36449351,15.87753885,17.57625037,17.40439215,14.2199518,12.09430501,6.603961046,6.886871568,11.64218502,13.33305563,14.86544572,16.04104967,15.33737973,13.2580117,11.17810785,7.349100415,0.70564517,0.993469382,1,1,1,0.990981538,0.929873564,0.775463757,42.7085775,-84.4705825,2020,MIH1
CG119/CG108,NCH1_2020,Y,17.7,731.1212129,1.75,0.25,151.979175,62.5,65,64,3.811250031,6.583749771,1.870150701,7.593384547,0.8842857,2.636686467,3.330713381,6.121142871,7.323433169,121.960001,52.66999817,29.28357046,255.9407139,2.652857099,23.48571392,94.03142862,30.32857149,227.0264283,17.79310012,18.2030313,21.90311614,16.62410426,22.73441878,20.97653859,20.54309533,18.15988809,15.65141399,21.6678125,23.21999979,23.34870433,27.04964214,28.2173808,30.95634976,33.07043217,33.2972859,31.24656685,8.082812505,11.53125006,9.51933213,18.09668861,18.19142909,20.58560522,22.1124513,22.85800005,21.91055295,8.88590596,10.34544598,9.896418393,14.69404398,15.249625,17.76881847,19.50312724,19.99035698,18.5620876,0.935200903,1,0.995619773,1,1,1,1,1,35.30009892,-77.57131746,2020,NCH1
LH82/PHB47,OHH1_2016,N,15.85,716.9621753,0,2.5,237.5,111.5,65,64,4.328064465,1.776000023,3.915145208,2.580740659,3.890757626,4.17049496,5.079069289,3.957741935,3.614594814,134.1699984,8.880000114,44.70363614,85.9177286,9.330454675,39.94818193,160.1854537,27.69772666,110.1186362,18.3437644,22.24283047,20.73146956,20.35982518,19.15233416,18.82824642,16.72048491,17.98730955,14.71797893,19.63580645,29.63200035,26.56953589,28.59263588,29.59106055,30.69283836,29.21689182,28.27188687,26.30588322,8.120967747,16.89599972,14.9739129,16.70528562,18.30318191,19.74443426,18.9160149,15.44500838,13.40262461,8.117657052,15.32722009,13.17028057,14.81678154,15.96857054,17.23303236,16.11713161,14.21502474,12.5845871,0.859331788,1,1,1,1,1,0.999172078,0.989049277,39.860924,-83.6755995,2016,OHH1
CG44/CGR01,IAH1_2020,N,12.55,731.1212129,0.166666667,0.5,229,110,65,64,1.688064506,6.196000195,3.0793737,6.533057926,1.271428551,2.673269776,1.85421064,0.708456624,3.755616013,52.32999969,61.96000195,37.23499918,213.6221428,2.198571375,25.9085708,60.11785651,6.012142782,115.3728583,19.46953177,15.04660187,20.64247086,20.31598349,21.99207742,21.09552252,19.7297914,19.80455556,15.11692591,15.87290319,18.70700045,25.72176895,28.50674309,31.92999949,30.87921407,28.61147391,29.37327705,24.63079501,3.348387095,9.753000152,14.65929334,17.38633346,19.85714286,19.28849194,17.27261165,15.46819038,11.83183106,5.5584858,8.125456457,12.65757338,15.09801966,17.89357117,17.09078834,15.12121856,14.7539709,11.47694483,0.621440085,0.927035726,1,1,1,0.998514142,0.992713009,0.918334154,41.19774214,-91.48767072,2020,IAH1
LH82/PHB47,NEH4_2015,N,14.5,795.4804746,0,2,190,100,65,51,2.821875036,0,3.668207424,2.0125769,1.951249957,2.654893884,1.684158262,0.190010425,1.166079967,90.30000114,0,33.89000034,59.04687595,1.951249957,28.04999942,59.1787506,1.401875056,35.09749981,18.84220009,27.31064491,20.41342533,20.52862815,19.03072298,18.81303122,18.33826559,17.15407273,12.68489203,24.01437524,30.79399948,29.66091772,30.90712841,30.81250072,28.65153035,29.50292414,26.73776808,20.93262179,13.35843744,15.59799976,18.4981335,19.26878801,20.26031268,17.34358901,16.24316685,11.04417556,7.09840123,11.80342709,15.44887437,16.14310254,17.09436255,17.53736601,15.18702607,15.25106182,11.88303257,8.618375536,0.931774556,1,1,1,1,0.97284651,0.984144349,0.784438609,41.16732275,-96.41663225,2015,NEH4
F42/H95,DEH1_2018,N,20.775,733.6955833,0,2.75,208.5,100.5,68.25,69.25,3.413225795,4.724545566,2.007753279,2.760624154,0.287142856,8.862777665,3.915865231,4.933581623,5.971971652,105.8099996,51.97000122,28.2621423,90.35856978,0.861428567,79.76499898,101.102142,26.37928568,184.7400021,18.24738333,20.30334785,18.96061465,21.19242313,20.3949075,18.85770366,17.73482038,14.47844699,15.08372737,17.38161278,18.28454564,22.01469092,28.14795471,32.28714262,31.68230149,32.09286912,30.42106803,28.79790015,6.703871004,7.41363637,12.85857977,17.97497576,22.0019049,21.31992057,22.76420594,22.26141136,20.21526036,6.825711165,7.366383816,10.38385741,15.21158117,19.10753111,18.47850441,19.35879976,18.34204267,16.58274325,0.781601378,0.839058448,0.989425295,1,1,1,1,1,38.65164475,-75.44913625,2018,DEH1
PHG80/PHZ51,WIH1_2016,Y,20.85,751.072584,0,2.5,249.5,126,73.5,72.5,2.076129018,1.94750002,4.430291291,4.068377178,0.606590927,8.204471101,6.520888551,7.285801826,4.413191112,64.35999957,23.37000024,50.66818307,153.9786358,1.017727305,87.41727302,222.4604529,58.95590957,134.9268184,19.92805462,20.9108026,19.53546339,20.65690042,18.97296773,19.76360502,17.50876714,15.21370917,12.23883056,16.70258062,17.57583312,27.08182728,26.49130857,27.22159082,28.35833875,27.6700069,25.1458901,22.98674642,3.327419363,4.990833327,14.04723809,14.47423798,17.58636334,16.7186736,17.17399145,14.32051147,12.5735533,5.875866612,6.419508974,12.98865398,12.92924289,14.50224274,14.72651534,14.55658067,12.23924581,10.7486024,0.621198161,0.7653869,1,1,1,0.999967803,0.998306277,0.970976554,43.05632525,-89.53194975,2016,WIH1
W10004_0216/PHZ51,IAH2_2017,Y,17.7,731.1212129,0,2,229,110,65,64,2.991935476,4.003749907,5.594154361,1.824159742,2.965909053,1.138616173,3.544395797,5.525860929,3.224964342,92.74999976,32.02999926,86.83999968,64.74363607,5.880909015,11.03545466,133.6850016,39.36636487,98.02272796,18.91811151,22.03083944,18.39067038,21.91300981,21.59707026,21.00058551,18.76246256,16.50136756,14.56336975,16.70258062,25.25375009,21.16444029,28.78792803,31.34295403,31.03890899,27.79230679,26.54138994,25.01808603,3.836129038,9.060000002,9.836484062,14.72352594,17.1804546,18.00485339,15.61890002,13.9478747,12.25710857,5.884356407,10.52058178,9.325556586,14.19611432,16.29393371,16.57150033,14.05801276,12.73803514,11.57992501,0.659274195,1,0.882113053,1,1,1,1,0.976890029,42.06582876,-94.72050129,2017,IAH2
W10004_0216/PHZ51,NCH1_2016,N,13.9,731.1212129,5,3.5,249,139,65,64,2.901562452,3.125714166,7.137907935,4.683034439,4.3177271,0.863030289,5.226283407,5.104181825,4.507668668,92.84999847,21.87999916,91.86318315,160.7736342,8.497726928,8.495454409,139.9318182,26.12772732,139.7377287,16.36857818,22.27138465,15.49498623,18.72849078,21.8793198,21.8664799,18.529992,18.05675722,17.32656161,20.86125001,25.58571407,25.68946269,27.1054564,30.20318166,31.0559697,32.42423852,33.59766701,33.26035177,7.692187494,8.212857212,14.27003911,16.07300028,18.02681784,18.80169681,21.2796372,22.62190931,22.7218182,8.383421821,10.43985322,12.46468669,13.95599298,16.17160042,16.99727481,18.83160592,19.980567,19.86697781,0.913761163,1,1,1,1,1,1,1,35.30015175,-77.57127825,2016,NCH1
PHN11_PHW65_0323/LH195,INH1_2015,N,16.5,715.6749901,0,0,191,71,70,70,2.968064535,5.608750075,2.401797478,2.620596579,1.049062505,3.048312443,3.454130844,1.332533481,1.484370975,92.01000059,44.8700006,26.44312483,85.12437463,1.715625018,30.48312443,116.5724995,9.316249996,45.68062523,19.44608656,13.59046638,21.88315593,21.65689439,20.60130358,19.73326552,18.77560381,17.99738388,15.64927463,15.67580632,21.0562501,27.44396829,29.52449332,32.66781175,30.16981242,28.17317586,28.46934151,25.5406298,3.004516139,13.05249977,15.22068343,16.62214482,19.56843758,18.02818774,16.71489706,16.46563638,12.56847521,5.360930658,9.9438759,13.725819,15.26696414,18.11812466,16.1828721,14.63810214,14.67667849,11.95902497,0.609504607,1,1,1,1,1,1,0.986081101,40.477075,-87.000205,2015,INH1
B37/OH43,IAH3_2017,Y,17.7,731.1212129,0,2,229,110,65,64,4.153750014,4.476666673,3.404720357,2.207347727,0.783636364,2.628276904,1.892687593,2.328876272,1.794257086,132.9200004,67.1500001,54.03954627,78.33863542,1.567272728,28.02681865,71.85545488,19.05045461,54.69545453,16.14493189,17.75127989,18.89303832,22.07985964,20.54923199,20.99384486,19.81852315,17.22919489,15.64326955,15.84312499,15.5066665,21.42652578,27.714982,28.45522753,29.90074383,27.6545798,25.64720852,25.13760955,4.41906251,4.141333344,9.782295063,13.56526933,16.05901469,16.6123348,14.8096002,12.74600627,11.28191352,5.818880471,5.62230391,9.387130072,13.2881535,14.4256186,15.3843105,13.65871261,11.89796048,11.29223634,0.568604913,0.570380948,0.879734313,1,1,1,1,0.979205627,41.9758706,-92.24318881,2017,IAH3
LH195/PHZ51,IAH4_2017,N,21.675,737.557139,0,1.75,241,111.5,73.75,71.5,3.054193612,4.63857133,5.654282844,2.356146022,0.145000003,0.823262634,3.029939984,2.506485397,3.022032747,94.68000197,32.46999931,92.55000019,79.81000018,0.290000005,7.931363713,110.0431818,17.65818187,91.79227275,19.60434628,22.37855189,18.81628808,21.46940114,22.42332305,21.26952374,19.1513695,15.94205759,15.34138578,17.83935482,25.21428544,21.76755785,28.88340452,30.88984893,30.99338411,28.30609907,26.26622464,25.93438806,4.952580655,10.13999993,10.24708413,15.02150207,17.47128796,18.07608078,15.80662465,13.87026602,12.51354651,6.575243948,10.82301274,9.649960621,14.3656457,16.22810104,16.57398155,14.36597852,12.57546566,12.06214068,0.727396317,1,0.910082199,1,1,1,1,0.987168831,41.99455432,-93.69030947,2017,IAH4
TX777/LH195,TXH2_2019,N,10.015,785.8265853,0,0,208,62.5,68,67,1.71448275,0.072857141,3.656594302,9.095434564,0.409285716,1.207678571,5.355850783,1.246142852,1.574419343,49.71999974,0.50999999,52.00785631,328.2121388,0.592857139,9.661428571,146.4478573,6.531428533,47.51499965,15.42805705,20.52131135,18.76898834,18.57032559,21.42349659,18.85281525,20.14881361,21.03072751,19.84089234,18.45000007,25.76428577,24.43254944,27.27586732,31.09000002,32.37866099,32.72435205,34.04471448,34.98200776,6.826206914,10.35000004,10.67963154,14.78766739,18.65857179,21.85071427,21.02442735,21.79614282,22.6049739,7.457816468,11.1589152,10.85119479,13.46630403,16.91193677,19.11412105,18.84765314,19.77807102,20.01419559,0.749667494,1,0.945308164,1,1,1,1,0.999698925,30.546318,-96.4329965,2019,TXH2
LH212HT/LH195,NEH1_2015,N,15.1,788.4009558,0,2,260,130,65,59.5,2.959062506,0.753999996,4.745632833,2.187040691,0.179999996,3.601448917,1.548000793,0.057812502,1.589214364,94.69000018,3.769999981,46.84999943,63.50812512,0.239999995,39.12187557,55.49499987,0.586250016,47.85812447,19.07194562,25.84699936,20.00593662,19.96245842,20.96463704,17.86296284,18.31175333,17.30405645,12.3794141,23.74906254,30.51399994,29.13009987,30.74148671,30.73750019,28.43858622,29.13031746,26.88374984,20.12342532,13.19218739,15.46999989,18.04036499,19.18092822,19.11281252,17.33248289,15.92131484,11.1533021,6.525200269,11.64481375,15.25955733,15.68336601,16.96891106,16.93845514,15.07345461,14.95183393,12.01070089,8.15887847,0.924598212,1,1,1,1,0.96969665,0.982957588,0.758540943,41.290979,-96.41664325,2015,NEH1
WF9/H95,DEH1_2016,Y,21.85,695.7236189,0.5,2,254.5,113.5,77,77.5,2.701875035,7.431818214,3.891344367,3.01543569,5.358105985,2.453055546,7.028031294,2.624318106,3.1968602,86.46000111,81.75000036,66.39499953,101.6163622,13.33454524,24.02227264,188.3231781,15.05272682,98.58045408,18.33047433,10.1000462,19.40971708,21.02938559,18.25055452,17.64652011,18.94468483,17.7865103,16.44449792,18.09,16.60090897,19.90208421,27.67646738,27.79681775,28.9030859,31.91379825,31.21812112,30.57169607,5.529687506,9.93090907,10.11289786,16.8589893,18.02106052,19.78800518,21.90881045,21.62957593,20.16127331,6.825577378,7.645605865,8.606637786,14.43603228,14.98401645,16.37610101,18.85541374,18.37748956,17.3477875,0.726328134,0.729318176,0.990929859,1,1,1,1,1,38.6482025,-75.44606,2016,DEH1
CG44/CGR01,OHH1_2018,Y,18.75,726.6160645,0,2,289.5,140,60.5,61,3.056774178,9.537500136,1.922452157,2.385565957,3.342142727,1.8544286,3.625787622,3.100846839,2.007798001,94.75999951,76.30000108,21.73714328,80.43785755,3.342142727,18.544286,121.7649994,22.15357072,61.29071423,19.31095449,14.64635724,20.72885596,20.94366931,19.27592959,20.95649317,17.99811894,17.37176276,15.4204415,15.33419351,20.99500024,26.65036435,28.81994394,32.41071347,30.66092864,28.53085842,26.94730604,24.73435724,3.376129027,12.14624989,14.55931522,16.57316253,19.49428545,18.47499986,17.24720124,15.03980618,12.05347394,5.35712311,9.832246518,13.13485159,14.9051591,17.95401161,16.59941793,15.03822312,13.39555861,11.48513665,0.534285712,0.926785712,1,1,1,1,0.999125,0.970735544,39.85688825,-83.671225,2018,OHH1
B37/MO17,MOH1_2017,Y,17.7,731.1212129,0,2,229,110,65,64,8.937741737,9.40166688,2.512230721,3.318030003,5.035714369,1.794490762,1.996986524,1.220079397,1.67255761,277.0699939,56.41000128,33.26619119,103.9014299,11.93095259,15.87761924,65.30142803,7.334762096,51.25476209,18.72482054,18.08832916,22.62422694,21.00800173,18.77514496,19.93438148,19.70533138,19.36646121,17.34329115,21.92032254,25.32999992,25.47495036,29.30087203,30.46650729,32.25412016,29.92026774,28.22145964,28.04827898,10.06000005,15.27666648,12.99827088,17.39768618,19.78222205,21.21359122,18.70404881,16.33857143,14.9717184,9.612847321,12.76903024,11.94928206,15.49761919,17.12130987,18.67277384,16.20463701,14.48208578,13.92850008,0.915472353,1,1,1,1,1,1,0.999239796,38.89264,-92.2057525,2017,MOH1
B73/MO17,MNH1_2018,N,21.16857143,695.4477935,0,2,255,128.1428571,64.14285714,62,2.793871032,5.664285694,1.881383508,4.66962568,0.280777779,5.314848416,5.503097756,4.902593174,1.744490341,86.61000198,39.64999986,19.66333312,156.0266671,0.653333338,61.18466587,207.3246693,42.5680015,52.61600056,18.68617175,18.6483766,23.22190313,20.23498137,21.88409551,21.20453879,17.43849101,14.02805899,11.47763682,18.24580648,23.51142883,30.49568208,28.40295697,27.67288871,27.88288382,26.24424925,23.489937,17.2954947,6.62290317,13.35285704,16.1020056,17.07111629,16.25377796,15.7901465,14.83515609,12.42970144,6.347470975,7.12789267,11.15082684,15.42136783,14.91719499,14.1582049,14.10491894,13.08066536,11.20324133,7.126560519,0.79756912,1,1,1,1,0.978734696,0.910102722,0.699884152,44.07044721,-93.53494127,2018,MNH1
TX777/LH195,MOH1_2_2020,N,22.06,731.1212129,0.2,0.2,249.6,121.2,65.8,64.2,2.765624954,8.119999743,10.23533287,1.900197364,6.862941181,7.496322061,3.61617108,2.901626778,3.303786197,88.49999854,40.59999871,96.12411712,56.39411764,8.455882353,68.01117661,117.8082348,21.52705885,101.3270584,18.75466287,21.25211372,22.58999711,20.28617166,20.64270943,17.48834951,18.15902921,17.2011884,14.69335169,22.18656257,30.76999931,28.84882905,30.74339714,30.90558787,31.2308437,28.74780649,29.21697892,24.17436303,12.23093753,19.21800041,17.30516703,20.0610583,19.70343171,21.50444419,18.15153395,17.40346693,12.7162556,10.41798935,16.99399986,15.18178367,17.42227064,17.30450979,18.37429674,15.5665539,15.53509051,11.41105442,0.936383936,1,1,1,1,1,0.996694042,0.965786214,38.8958275,-92.2071575,2020,MOH1
TX951/LH195,GAH1_2016,N,19.05,747.8546209,7.5,3.5,225,125,62.5,61,6.466250051,4.395000041,0.566421492,2.549627568,3.17469698,5.859943136,4.096967014,2.330999996,2.476261007,206.9200016,35.16000032,6.21000006,86.0200003,9.52409094,52.42727233,105.6731797,11.65499998,76.76409122,15.95696127,18.25385642,20.33100053,20.74024209,20.01064868,19.54302735,19.38198769,19.26953352,18.21451922,23.62687498,22.98249984,28.56134937,29.4983659,33.37075638,32.62719045,33.25026907,34.51499955,33.94928126,11.29749997,10.47000009,15.64744728,16.2846205,20.78287862,20.61269551,21.56927107,22.51809092,22.40467728,10.53971422,9.962440438,14.36481163,15.11313475,19.02952924,18.56859265,19.26668195,20.34390963,19.99415841,0.993928569,1,1,1,1,1,1,1,31.5079175,-83.55854775,2016,GAH1
LH74/PHN82,DEH1_2015,Y,19,742.70588,0,0,205.5,84,63,62,2.877187484,6.848000002,1.658122271,2.899811139,0.533124998,6.398055441,4.542065261,4.666333417,5.694818618,92.06999949,68.48000002,26.86312445,94.40374921,0.778750002,57.58249897,115.8581242,26.73625046,176.5393772,18.09789148,17.20138936,20.11151884,21.0089777,21.53492481,19.24730516,17.70191113,15.05628078,15.14846735,16.82656264,19.24400005,20.72376954,27.68890342,31.56656283,31.86354174,32.09465687,30.43364003,29.09395151,6.265937505,9.858999991,10.7453803,17.67876376,20.38750017,21.35659703,22.77220607,22.28250884,20.56647162,6.521960329,8.412914767,9.229957748,14.85993723,17.9770315,18.58170739,19.36170697,18.35807444,16.86736745,0.750435273,0.870857151,0.962682184,1,1,1,1,1,38.62935675,-75.4656925,2015,DEH1
CG60/LH162,ARH2_2017,Y,16.45,731.1212129,0,2,146,66,58,58,2.789999995,15.83285686,4.776016413,2.853949028,1.142500003,5.651818152,3.905948255,2.4430325,4.688621725,89.27999985,110.829998,61.6427269,88.95863769,3.003181826,52.42863608,105.2449988,13.33772746,145.3472735,17.14489296,19.09436907,20.93439511,19.65670258,19.84409681,19.1211903,18.81176407,19.65259997,17.546866,23.65656266,24.55142866,25.38541455,28.9612549,32.40098458,30.84565692,31.84241473,32.83627249,30.20087953,12.07343751,12.16142872,12.7110645,18.0477898,21.78734854,20.24410098,21.87781566,22.25639174,20.26112908,10.83878158,11.22094165,11.88579938,15.62584547,19.09416656,17.54487895,18.8103181,19.27693671,17.25265116,0.991674107,1,0.97315368,1,1,1,1,1,35.67418125,-90.0752695,2017,ARH2
PHW52/PHM49,WIH2_2015,N,49.5,906.8219973,0,0,252.5,140,65,64,3.126774188,2.655000041,4.103605878,5.336067251,1.868823528,3.142847566,3.066358713,6.463272165,3.426278957,96.92999983,15.93000025,53.58117651,186.0694135,5.435882344,36.03705852,132.4747064,52.80117733,103.4994124,19.63646212,20.57311455,21.5892617,21.07111177,18.36300238,19.20517036,18.54583572,13.68038168,11.37476292,15.6409678,24.97666677,26.11823115,28.09529077,27.51588227,27.91298604,26.4469062,23.95331443,17.63645543,3.355806466,13.62666686,13.88922494,15.17788174,17.2276475,16.92946091,13.73434519,12.63733902,6.343913375,5.370860554,11.93138906,12.65256426,14.04290221,14.43586033,14.57588984,12.76646014,11.49482956,7.023163717,0.588214292,1,1,1,1,0.979783322,0.914260835,0.715230077,43.3264485,-89.33359975,2015,WIH2
F42/MO17,DEH1_2017,Y,19.75,673.1978773,0,10.5,242,132.5,69.5,68.5,2.917187458,6.201428686,3.00780289,3.517983876,1.211428521,1.632751291,5.214259368,11.31934688,4.882730708,93.34999865,43.4100008,45.34571489,126.7790489,1.268571377,15.48333303,157.8533328,69.24809492,151.3147631,17.05647962,17.73228645,20.71096481,19.57386043,19.15556694,20.88592809,18.21237176,18.15756056,16.58607394,20.26624998,24.66142872,21.72245043,26.82298965,30.35071437,30.31148162,30.69555299,28.43090921,27.29702356,9.32593758,14.19571427,10.68752201,16.75855213,19.906349,19.88150788,21.21690322,18.72144455,17.91444491,8.690479953,12.08402314,9.787934269,14.12431868,17.15482568,17.14050735,17.94790556,15.63546309,14.74613823,0.907287956,1,0.959736116,1,1,1,1,1,38.67025825,-75.4333645,2017,DEH1
B14A/H95,MIH1_2020,N,21.45,706.6646934,0.5,8,231.75,131.5,64,61.5,4.984838709,2.447142908,2.78018427,2.64718347,5.506875038,1.476884461,2.688717092,6.006552647,2.65185957,154.53,17.13000035,30.43499947,89.07562375,6.053750038,16.17374991,112.2143753,49.72375022,79.8756258,20.40588462,19.28742858,24.32683064,21.06964646,18.47526628,19.40802789,18.05267967,13.18055513,11.8632568,17.75483874,24.12857165,28.18736501,29.25734834,30.47187495,29.12451894,27.19720882,23.65947149,18.53645566,5.91032262,13.18571418,13.36449351,15.87753885,17.57625037,17.40439215,14.2199518,12.09430501,6.603961046,6.886871568,11.64218502,13.33305563,14.86544572,16.04104967,15.33737973,13.2580117,11.17810785,7.349100415,0.70564517,0.993469382,1,1,1,0.990981538,0.929873564,0.775463757,42.7085775,-84.4705825,2020,MIH1
CG44/CGR01,MOH1_1_2020,N,12.53333333,731.1212129,0,0.666666667,199.6666667,80.66666667,49.33333333,48.33333333,2.765624954,8.119999743,10.49656654,1.909885915,5.802857127,7.415295831,3.691475556,2.293301892,3.400930865,88.49999854,40.59999871,96.7978566,57.0957143,7.737142835,67.39857156,118.848571,17.52928566,104.715714,18.75466287,21.25211372,22.49923535,20.31658939,20.84622072,17.68630925,18.12476098,17.46293798,14.64158327,22.18656257,30.76999931,28.86546125,30.72469998,30.62226157,31.26253243,28.67352632,29.54480095,24.35225034,12.23093753,19.21800041,17.35636515,20.03188031,19.40511944,21.45309498,18.10676495,17.58972003,12.9136675,10.41798935,16.99399986,15.213465,17.3995364,17.01369051,18.36589209,15.51205264,15.80164337,11.56818364,0.936383936,1,1,1,1,1,0.995985623,0.962870504,38.8978375,-92.2070925,2020,MOH1
PHG39/TX205,MNH1_2016,N,25.5,731.1212129,0,2,229,110,71.5,70,2.893225764,0.170000008,5.030425272,6.121705224,6.438583227,6.210954471,8.179238718,7.617170889,9.394742846,89.68999869,1.190000057,67.79499967,212.8530004,13.67999972,65.11499918,295.599999,62.20750045,287.315495,17.89673604,26.28611401,18.122652,20.29948324,15.80941307,17.87578139,16.93568638,15.29315111,12.15008877,17.5148386,25.45428576,24.53269911,27.63337014,28.14450006,28.70269129,27.15887183,24.8505404,22.53032632,6.338387108,9.824285678,13.68155402,15.81410535,17.82425013,18.42635015,16.92976579,13.57123889,11.50456607,6.871134867,10.90204251,11.6566452,13.98369248,15.05511886,15.68076391,14.22086787,11.86153057,10.26982602,0.734527645,1,1,1,1,0.999952477,0.98729881,0.936092645,44.06646925,-93.533648,2016,MNH1
B73/PHN82,WIH2_2020,N,25.3375,692.0229614,9.4375,0.25,265.25,138.25,73.6875,71.8125,1.142258063,7.375000167,3.772605813,4.528143625,15.91411821,3.015240613,2.848395651,6.559665308,3.073983535,35.40999997,73.75000167,42.96999988,163.850588,31.01764819,33.16764674,117.7699986,59.84176376,94.45823468,20.73953056,16.04352899,21.23354675,21.58093245,19.01370295,17.88573252,19.32013515,13.57540027,12.27254504,13.56999995,18.91099977,26.0938683,28.2322475,29.46647072,27.75422455,27.09322103,24.80509675,19.00189054,0.762580661,9.396999884,13.99892158,14.99589118,17.7452939,17.49807463,14.22893102,13.29211059,7.459399134,4.176897214,8.107987139,12.68677404,14.02444379,15.66411489,14.70790633,13.20588953,12.26960615,7.833960257,0.443168195,0.881928567,1,1,1,0.990384734,0.880973437,0.780679991,43.294786,-89.383968,2020,WIH2
PB80/PHZ51,DEH1_2015,Y,18.65,712.457027,0,0,257,126.5,62.5,61,2.877187484,6.848000002,1.658122271,2.899811139,0.533124998,6.398055441,4.542065261,4.666333417,5.694818618,92.06999949,68.48000002,26.86312445,94.40374921,0.778750002,57.58249897,115.8581242,26.73625046,176.5393772,18.09789148,17.20138936,20.11151884,21.0089777,21.53492481,19.24730516,17.70191113,15.05628078,15.14846735,16.82656264,19.24400005,20.72376954,27.68890342,31.56656283,31.86354174,32.09465687,30.43364003,29.09395151,6.265937505,9.858999991,10.7453803,17.67876376,20.38750017,21.35659703,22.77220607,22.28250884,20.56647162,6.521960329,8.412914767,9.229957748,14.85993723,17.9770315,18.58170739,19.36170697,18.35807444,16.86736745,0.750435273,0.870857151,0.962682184,1,1,1,1,1,38.62935675,-75.4656925,2015,DEH1
W10004_0216/PHZ51,OHH1_2015,Y,14.9,792.9061041,0,2.5,300,131,65.5,66,4.820000016,2.056666652,1.801667061,2.430255425,2.070588264,2.75488235,3.664772063,1.623969288,1.874022108,149.4200005,12.33999991,20.27235275,82.00588303,2.23529414,26.29176468,128.0200007,12.16764697,57.18411674,17.71339239,20.831882,20.85048625,20.93566426,20.28419298,19.59839119,17.66236547,17.23782846,14.83481447,16.95064511,28.03666687,26.64173705,29.01382079,31.07970569,30.59522857,27.99762273,26.69097183,23.34659959,5.9283871,15.42166694,14.66308043,16.74801267,19.23764672,18.74322206,16.69895781,13.90980629,10.26308727,6.580773377,14.04730329,13.19467995,15.08203889,17.16864649,16.69143216,14.53513226,12.92347397,10.29932856,0.672569122,1,1,1,1,1,0.994932126,0.947361455,39.855785,-83.66477375,2015,OHH1
2369/LH123HT,WIH1_2018,Y,20.936,797.3855087,0,2,288.2,134.4,69,69.2,1.609999989,7.097692302,4.543300024,5.384655594,12.90857152,6.684415526,1.835393967,1.490247701,3.282350194,49.90999967,92.26999992,56.1414287,188.537143,17.774286,73.52857079,76.14071582,18.50214262,100.642856,20.21844376,17.61529163,19.67186989,21.74517717,19.19342093,18.08513378,19.62003162,16.98075827,12.74863056,13.31193533,16.25923072,24.73561688,28.00164855,31.39095186,28.11097395,26.99453296,26.15077082,19.9357303,1.183225821,5.521538512,13.28283365,14.89542408,18.89249983,17.62870117,14.61713968,12.9208708,8.385953947,4.208379921,6.163069931,11.75441076,13.86262536,17.16453014,14.91796624,13.29691021,12.54059059,8.511099252,0.430714275,0.66777473,1,1,1,0.987929958,0.939058758,0.805939432,43.0544,-89.5317,2018,WIH1
PHW52/PHN82,DEH1_2016,N,20.25,721.1455273,0,2,251.75,106.75,78.75,77,2.701875035,7.431818214,3.891344367,3.01543569,5.358105985,2.453055546,7.028031294,2.624318106,3.1968602,86.46000111,81.75000036,66.39499953,101.6163622,13.33454524,24.02227264,188.3231781,15.05272682,98.58045408,18.33047433,10.1000462,19.40971708,21.02938559,18.25055452,17.64652011,18.94468483,17.7865103,16.44449792,18.09,16.60090897,19.90208421,27.67646738,27.79681775,28.9030859,31.91379825,31.21812112,30.57169607,5.529687506,9.93090907,10.11289786,16.8589893,18.02106052,19.78800518,21.90881045,21.62957593,20.16127331,6.825577378,7.645605865,8.606637786,14.43603228,14.98401645,16.37610101,18.85541374,18.37748956,17.3477875,0.726328134,0.729318176,0.990929859,1,1,1,1,1,38.6482025,-75.44606,2016,DEH1
B37/OH43,TXH1_2019,N,11.31,849.8640507,0,0,176.5,56,68.5,66.5,1.71448275,0.072857141,3.656594302,9.095434564,0.409285716,1.207678571,5.355850783,1.246142852,1.574419343,49.71999974,0.50999999,52.00785631,328.2121388,0.592857139,9.661428571,146.4478573,6.531428533,47.51499965,15.42805705,20.52131135,18.76898834,18.57032559,21.42349659,18.85281525,20.14881361,21.03072751,19.84089234,18.45000007,25.76428577,24.43254944,27.27586732,31.09000002,32.37866099,32.72435205,34.04471448,34.98200776,6.826206914,10.35000004,10.67963154,14.78766739,18.65857179,21.85071427,21.02442735,21.79614282,22.6049739,7.457816468,11.1589152,10.85119479,13.46630403,16.91193677,19.11412105,18.84765314,19.77807102,20.01419559,0.749667494,1,0.945308164,1,1,1,1,0.999698925,30.546318,-96.4329965,2019,TXH1
TX779/LH195,NCH1_2020,N,22.075,720.3410365,1.75,0.125,202.5,103.75,65,64,3.811250031,6.583749771,1.870150701,7.593384547,0.8842857,2.636686467,3.330713381,6.121142871,7.323433169,121.960001,52.66999817,29.28357046,255.9407139,2.652857099,23.48571392,94.03142862,30.32857149,227.0264283,17.79310012,18.2030313,21.90311614,16.62410426,22.73441878,20.97653859,20.54309533,18.15988809,15.65141399,21.6678125,23.21999979,23.34870433,27.04964214,28.2173808,30.95634976,33.07043217,33.2972859,31.24656685,8.082812505,11.53125006,9.51933213,18.09668861,18.19142909,20.58560522,22.1124513,22.85800005,21.91055295,8.88590596,10.34544598,9.896418393,14.69404398,15.249625,17.76881847,19.50312724,19.99035698,18.5620876,0.935200903,1,0.995619773,1,1,1,1,1,35.30009892,-77.57131746,2020,NCH1
B73/TX779,DEH1_2020,N,27,677.7030257,0.375,5,257.375,139.75,69.125,67.875,3.884838689,2.918749928,0.484801506,3.712682555,3.963928495,10.54878945,3.680508849,4.08975176,5.319973187,120.4299994,23.34999943,5.74999997,113.1935704,6.565714155,94.92928366,102.5935729,23.16642891,164.6128593,19.34389959,17.33862388,21.23126246,20.37262205,20.84469896,18.13380163,16.82964191,15.50064315,15.14081803,17.43483888,21.1624999,25.02143811,29.01024665,32.25440507,31.30417669,31.95048154,29.3682824,28.21514964,6.792903194,12.85250008,15.40184434,18.86790491,21.28607132,21.93053571,22.84339264,21.06525136,19.30786859,6.86665098,10.04482466,12.64072343,16.02028347,18.72161765,18.60397455,19.32804006,17.22313801,15.91003144,0.79362904,0.982098209,1,1,1,1,1,1,38.628981,-75.46566025,2020,DEH1
W10005_0107/PHB47,IAH3_2015,Y,16.2,722.7545088,0,19,236.5,114,65,64,1.888124991,2.913571392,3.784813995,6.971928843,0,3.257500064,1.487385228,2.541446469,4.507444947,60.41999972,40.78999949,55.43999982,241.6600003,0,32.57500064,50.31437471,24.68500039,138.7756267,19.80172794,20.03998334,15.9141292,20.68283491,21.69136486,21.24428636,20.63784564,18.68301758,14.92198489,14.64187506,16.6814285,21.6371088,27.61372247,30.87885427,30.3035625,28.596254,28.51656267,24.33389908,0.83250004,3.600714236,12.24542872,16.05178152,19.47364565,18.11006255,15.99319583,14.30373217,10.64901215,4.605131548,5.787499831,10.11465775,14.1164012,17.17624996,16.25391669,14.57670766,13.97583386,10.87542788,0.501462055,0.634540813,0.981270753,1,1,1,0.968879463,0.933929792,41.97585629,-92.24291804,2015,IAH3
PHB47/PHZ51,GAH1_2016,N,14.05,757.5085102,4.5,3.5,195,77.5,57.25,56,6.466250051,4.395000041,0.566421492,2.549627568,3.17469698,5.859943136,4.096967014,2.330999996,2.476261007,206.9200016,35.16000032,6.21000006,86.0200003,9.52409094,52.42727233,105.6731797,11.65499998,76.76409122,15.95696127,18.25385642,20.33100053,20.74024209,20.01064868,19.54302735,19.38198769,19.26953352,18.21451922,23.62687498,22.98249984,28.56134937,29.4983659,33.37075638,32.62719045,33.25026907,34.51499955,33.94928126,11.29749997,10.47000009,15.64744728,16.2846205,20.78287862,20.61269551,21.56927107,22.51809092,22.40467728,10.53971422,9.962440438,14.36481163,15.11313475,19.02952924,18.56859265,19.26668195,20.34390963,19.99415841,0.993928569,1,1,1,1,1,1,1,31.5079175,-83.55854775,2016,GAH1
F42/H95,GAH2_2020,N,15.55,751.072584,6.75,34.25,241.75,117.5,61.25,60,4.57387094,0.441111114,8.353941854,2.596292498,5.733571683,2.103095203,2.179001438,2.485142878,3.918548365,141.7899991,3.970000029,91.39071568,80.77428585,11.41500051,18.92785683,57.71499962,12.42571439,121.4749993,20.66171874,23.27184486,17.58943298,19.5164109,18.75300796,20.35385684,20.26001561,17.11426864,16.01109332,24.32935487,22.81222216,27.25049476,29.76903398,31.23452386,32.73428517,34.13891635,33.4245718,31.64458511,9.683548431,7.437777784,15.07002369,18.41195949,20.46821458,20.95039675,21.2406723,21.91714281,20.83905522,10.34437265,8.95024402,13.55540875,16.15181668,17.85136922,18.84234096,19.40061188,19.58004094,18.23728962,0.993479262,1,1,1,1,1,1,1,33.72355555,-83.30265185,2020,GAH2
PHN11_OH43_0001/PHB47,KSH1_2016,N,15.5,746.5674357,0,2,180,80,93,93,0.381562503,5.593749881,9.031136959,3.981909994,0,0.897724769,5.011421387,3.322424253,5.670073263,12.2100001,44.74999905,140.9509078,148.5090918,0,8.374091108,139.438637,19.93454552,175.7722711,18.43315426,14.04582843,18.34613738,20.88446512,22.70328743,20.59441801,18.34986672,18.15379387,17.32510191,19.15124996,21.70124984,22.33901244,27.19377063,36.31272689,35.17540036,32.01078432,33.85633352,30.76895891,2.130625044,11.46499991,9.568238579,14.2621368,21.58727247,22.04353923,20.78061301,22.71134866,19.49139311,6.3158573,9.667291017,9.626890379,13.35418843,19.56599107,19.14397536,18.06824645,19.12054732,17.03744615,0.741573662,1,0.921279778,0.986042268,0.991287871,0.998977631,0.993550002,1,39.14480675,-96.62898225,2016,KSH1
B73/PHM49,WIH2_2019,N,23.4,670.3017106,0,0,252.0833333,113.3333335,67.25,66.75,5.084687524,1.186666648,3.682690384,5.868440751,0.695238091,4.73009737,4.315774648,4.395502279,4.547947068,162.7100008,7.119999886,58.08928529,183.8007161,1.222857135,55.05428533,207.5435701,59.53000056,136.8792876,20.51840827,23.10255337,19.84622659,19.54978709,22.13574316,19.04821964,14.90817086,12.98397937,9.337872891,18.93468753,26.85500018,22.80729416,28.92841129,27.86750015,27.53142967,23.33864799,22.30785619,12.19546616,7.173437506,12.79833317,11.75963315,17.3057567,14.67845241,15.42498763,12.56161555,11.34993986,2.687473085,7.568173943,12.44054354,10.32084191,15.24419851,13.63574066,13.78240318,10.8770868,10.55092288,4.713570865,0.808549105,1,0.995612408,1,1,0.966295589,0.875965566,0.450550638,43.320768,-89.33189475,2019,WIH2
B73/PHN82,GAH1_2020,Y,19.565,703.8972452,0,1.5,195,90,68,64,4.279687563,0,6.08243138,3.811420537,2.267976227,2.530000055,3.98378478,1.741833346,2.910207357,136.950002,0,84.37571335,135.9278565,4.833571502,22.77000049,107.9378566,9.115000069,90.21642806,16.61263859,21.5972875,19.10636237,20.72286693,14.54687945,18.15584731,20.08605453,19.68634889,18.27781732,25.37343752,26.77166684,25.94144379,27.77824619,29.55357116,30.6518255,31.78195276,33.48178532,33.56322575,12.43875006,10.55666669,12.19035929,13.80720781,20.58059497,20.26111097,20.57386992,21.96838095,22.25456222,11.80508215,11.69113274,11.88989525,13.35432975,17.06708306,17.45646823,18.17996521,19.67032327,19.80166763,0.988537947,1,1,1,1,1,1,1,31.5079775,-83.558517,2020,GAH1
B37/MO17,MIH1_2017,Y,17.7,731.1212129,0,2,229,110,65,64,2.651290334,1.642500043,0.365195355,3.685889798,0.022982455,0.462972321,1.745768067,1.924198947,6.215848807,82.19000036,13.14000034,4.417894763,131.6678931,0.068947365,5.871578781,77.40789432,25.15789459,187.919471,20.75480046,19.52619267,24.47429891,19.89055103,21.94334328,22.12060477,17.47908742,14.76431364,9.641321864,18.99677434,22.1187501,26.44652255,27.49693157,27.7329823,27.82492569,25.37386911,24.10071042,20.63989867,5.961290348,11.91874993,11.36318641,16.0503933,16.08877179,14.96255052,12.27657104,9.93890341,8.936309075,7.303217139,10.01258026,11.86785018,14.06113521,14.11607898,13.75096176,11.67659513,10.59348898,9.148775778,0.770126733,1,1,1,1,0.999072621,0.949278334,0.816440377,42.68116575,-84.49434125,2017,MIH1
B37/OH43,WIH1_2015,Y,37.7,733.6955833,0,0,270,145,65,64,4.730000059,9.059999784,2.430610682,6.190059866,3.242812514,1.739310909,2.563222068,2.582604527,2.064862235,151.3600019,54.3599987,32.30062549,198.0887501,6.485625029,21.11437514,113.2525011,35.42937557,62.48000012,19.32367544,22.19104989,23.8972515,19.04105101,21.62804324,20.72553659,16.09255797,13.7227876,9.595561915,19.95718755,28.15000025,26.05326099,28.85932006,29.07385437,26.51056077,24.82739399,20.18089026,14.51549808,8.517187543,15.30499983,11.82802944,17.48783518,16.48010375,14.49615378,12.31509137,8.581945626,2.680440183,8.558350873,13.98301754,11.81015597,15.26183828,14.95581898,12.98753542,11.68123469,8.628108428,5.087550731,0.777276777,1,1,1,1,0.929186389,0.833919484,0.505939954,43.05511725,-89.528525,2015,WIH1
PHG29/PHG47,TXH1_2020,Y,17.7,731.1212129,0,2,177.8,49.53,65,64,2.284333333,0,4.613530444,2.949806388,1.362941181,6.741056464,2.844869093,3.829088224,2.301094231,68.53,0,55.97058804,110.7988238,1.362941181,71.52235312,82.32059028,18.97352936,69.29117607,13.91343843,13.3863348,15.08816438,19.79337859,19.48130546,19.24170726,19.77113757,20.7945973,17.91495332,20.02266652,27.17999992,26.60815942,26.52479293,29.39617636,29.12989124,32.2266946,33.03076485,34.59511331,6.794333295,17.20400028,15.2455437,13.65359797,17.29686298,16.61337131,20.73348334,20.06167624,24.24037069,7.901247141,14.27292515,13.38037585,12.76738989,15.58009007,15.11126374,18.39892159,18.53701373,20.50202011,0.821357143,1,0.99243504,0.993791594,1,1,1,0.999042533,30.53781575,-96.4283715,2020,TXH1
B73/MO17,NCH1_2018,N,17.2,731.1212129,0,2,210,110.25,56,55.25,4.157741868,0,6.852651043,4.101575565,0.281428576,2.753968325,7.265916583,9.606714405,8.963617552,128.8899979,0,78.76714403,125.545715,0.410714286,22.4842863,196.6735732,49.18571489,277.8721441,19.15814344,24.86455965,15.13897653,19.38558293,23.18458939,19.6068393,18.38664919,15.55735787,15.52161696,22.42709686,23.6650002,25.05504787,28.99162569,32.21999972,32.77589287,33.41271207,32.57228504,30.53730396,9.272903273,8.262500107,16.63082339,19.21430847,20.43714251,21.48106165,22.41052549,22.8214047,21.52269578,9.383610038,9.710722454,13.07063738,16.1524193,18.32857112,19.12847726,19.83450897,19.67052049,18.05632483,0.990449307,1,1,1,1,1,1,1,35.6667825,-78.492372,2018,NCH1
LH74/PHN82,MOH1_1_2020,N,13,731.1212129,0,0.333333333,206.6666667,90.66666667,53.33333333,52.66666667,2.765624954,8.119999743,10.49656654,1.909885915,5.802857127,7.415295831,3.691475556,2.293301892,3.400930865,88.49999854,40.59999871,96.7978566,57.0957143,7.737142835,67.39857156,118.848571,17.52928566,104.715714,18.75466287,21.25211372,22.49923535,20.31658939,20.84622072,17.68630925,18.12476098,17.46293798,14.64158327,22.18656257,30.76999931,28.86546125,30.72469998,30.62226157,31.26253243,28.67352632,29.54480095,24.35225034,12.23093753,19.21800041,17.35636515,20.03188031,19.40511944,21.45309498,18.10676495,17.58972003,12.9136675,10.41798935,16.99399986,15.213465,17.3995364,17.01369051,18.36589209,15.51205264,15.80164337,11.56818364,0.936383936,1,1,1,1,1,0.995985623,0.962870504,38.8978375,-92.2070925,2020,MOH1
LH198/PHZ51,DEH1_2017,Y,19.95,761.6918622,0,6,248.25,128,66,66,2.917187458,6.201428686,3.00780289,3.517983876,1.211428521,1.632751291,5.214259368,11.31934688,4.882730708,93.34999865,43.4100008,45.34571489,126.7790489,1.268571377,15.48333303,157.8533328,69.24809492,151.3147631,17.05647962,17.73228645,20.71096481,19.57386043,19.15556694,20.88592809,18.21237176,18.15756056,16.58607394,20.26624998,24.66142872,21.72245043,26.82298965,30.35071437,30.31148162,30.69555299,28.43090921,27.29702356,9.32593758,14.19571427,10.68752201,16.75855213,19.906349,19.88150788,21.21690322,18.72144455,17.91444491,8.690479953,12.08402314,9.787934269,14.12431868,17.15482568,17.14050735,17.94790556,15.63546309,14.74613823,0.907287956,1,0.959736116,1,1,1,1,1,38.67025825,-75.4333645,2017,DEH1
CG108/CGR03,NYH3_2015,N,16.15,731.1212129,0,9,207.5,99,68.5,69,4.268387075,0,1.234803629,3.315485905,3.744705864,3.708743319,2.034738589,2.091907533,2.160160663,132.3199993,0,17.66999944,111.4647067,9.843529393,38.42352946,75.35117763,21.49235322,65.37235311,20.95885717,21.76160183,22.01003167,20.47654391,19.37507164,18.84800849,18.09954582,14.25866518,12.17165493,15.21516129,28.41399994,23.9726608,27.94852153,28.22411762,29.00645443,26.88612691,22.65429039,19.02039094,3.206451565,16.00799999,11.62235867,15.61032629,16.7502941,17.72633694,14.88804443,11.60832066,7.356588233,5.349626667,14.38734971,10.95773449,14.17183136,14.61937489,15.41213998,13.31670354,10.34569698,7.707711279,0.504331792,1,0.97267375,0.996219796,1,0.995345527,0.95775528,0.812032548,42.7233625,-76.6555945,2015,NYH3
TX951/LH195,MOH1_1_2020,N,20.06666667,731.1212129,0,0,241,128.3333333,61.66666667,60,2.765624954,8.119999743,10.49656654,1.909885915,5.802857127,7.415295831,3.691475556,2.293301892,3.400930865,88.49999854,40.59999871,96.7978566,57.0957143,7.737142835,67.39857156,118.848571,17.52928566,104.715714,18.75466287,21.25211372,22.49923535,20.31658939,20.84622072,17.68630925,18.12476098,17.46293798,14.64158327,22.18656257,30.76999931,28.86546125,30.72469998,30.62226157,31.26253243,28.67352632,29.54480095,24.35225034,12.23093753,19.21800041,17.35636515,20.03188031,19.40511944,21.45309498,18.10676495,17.58972003,12.9136675,10.41798935,16.99399986,15.213465,17.3995364,17.01369051,18.36589209,15.51205264,15.80164337,11.56818364,0.936383936,1,1,1,1,1,0.995985623,0.962870504,38.8978375,-92.2070925,2020,MOH1
CG119/CG108,DEH1_2016,Y,19.65,702.1595451,0,20.5,217.5,103.5,70,69.5,2.701875035,7.431818214,3.891344367,3.01543569,5.358105985,2.453055546,7.028031294,2.624318106,3.1968602,86.46000111,81.75000036,66.39499953,101.6163622,13.33454524,24.02227264,188.3231781,15.05272682,98.58045408,18.33047433,10.1000462,19.40971708,21.02938559,18.25055452,17.64652011,18.94468483,17.7865103,16.44449792,18.09,16.60090897,19.90208421,27.67646738,27.79681775,28.9030859,31.91379825,31.21812112,30.57169607,5.529687506,9.93090907,10.11289786,16.8589893,18.02106052,19.78800518,21.90881045,21.62957593,20.16127331,6.825577378,7.645605865,8.606637786,14.43603228,14.98401645,16.37610101,18.85541374,18.37748956,17.3477875,0.726328134,0.729318176,0.990929859,1,1,1,1,1,38.6482025,-75.44606,2016,DEH1
TX951/LH195,SDH1_2015,N,33.4,596.6103559,0,2,168.5,94,80.5,76,1.890000034,2.68444448,2.847212523,0.928406021,1.08916667,1.213193166,1.12388612,3.994558873,0.570569385,58.59000105,24.16000032,33.86000057,31.14874977,1.720000006,12.77624983,39.02562428,27.90249949,17.65812508,21.16446504,23.3864585,24.03054242,23.94878495,21.74335716,21.42490048,20.60212775,16.27746828,15.18579983,19.04290341,22.5888888,27.20826416,30.46229654,29.54760476,31.86073879,31.47770382,29.48664523,24.89733582,4.208709664,8.468888919,11.69082143,14.25969647,14.29062517,16.06534098,14.02269822,14.11578116,6.942900096,6.807516906,9.210660666,12.27390437,14.67606113,14.18888263,15.81431879,15.00552731,14.17539039,9.834808296,0.77025346,0.983690483,1,1,1,0.983472358,0.961069402,0.950039755,44.208745,-102.928745,2015,SDH1
LH195/LH82,ARH2_2017,N,17.65,731.1212129,0,2,156,84,66,65,2.789999995,15.83285686,4.776016413,2.853949028,1.142500003,5.651818152,3.905948255,2.4430325,4.688621725,89.27999985,110.829998,61.6427269,88.95863769,3.003181826,52.42863608,105.2449988,13.33772746,145.3472735,17.14489296,19.09436907,20.93439511,19.65670258,19.84409681,19.1211903,18.81176407,19.65259997,17.546866,23.65656266,24.55142866,25.38541455,28.9612549,32.40098458,30.84565692,31.84241473,32.83627249,30.20087953,12.07343751,12.16142872,12.7110645,18.0477898,21.78734854,20.24410098,21.87781566,22.25639174,20.26112908,10.83878158,11.22094165,11.88579938,15.62584547,19.09416656,17.54487895,18.8103181,19.27693671,17.25265116,0.991674107,1,0.97315368,1,1,1,1,1,35.67418125,-90.0752695,2017,ARH2
B73/PHM49,MOH1_2015,N,10.95,731.1212129,0,0.5,207.5,102.5,77,74.5,3.914838722,3.002727248,2.7038834,5.646226268,2.268750012,1.183333344,4.736744086,1.740401796,3.666491943,121.3600004,33.02999973,34.41999933,178.8712478,5.868750036,10.6500001,140.2618746,11.88312507,113.6612502,18.81846694,18.88703156,16.92919735,21.70591481,15.72154266,19.94530069,18.47422179,20.12873028,17.02653892,18.28451609,18.00181831,23.77805456,28.93028285,29.85593748,31.76118019,30.42140763,28.58050013,28.43143147,5.857096827,7.500000065,15.21487777,17.6487962,21.67281234,21.45979159,20.28182538,17.09899995,17.28669369,7.068544315,7.302193139,11.97142579,15.39796361,17.76437491,18.61048589,17.380694,14.99182695,15.05317439,0.723283405,0.814935086,1,1,1,1,1,1,38.8965375,-92.20800417,2015,MOH1
PHN11_PHG47_0251/PHB47,ONH1_2017,Y,28.05,637.8002834,0,1.5,247.5,107.5,75.5,76.5,4.42290319,4.904999876,1.545173221,3.420435244,1.695375006,2.594700004,1.855534774,1.54565171,2.383111348,137.1099989,49.04999876,23.52600009,140.8034994,5.378000009,36.46150006,95.23350107,29.85300009,72.44250006,18.65662235,17.08545341,23.10813164,20.12586768,18.11232318,19.44819915,16.33652997,11.62209215,7.957733996,13.94322577,18.20700026,22.35689536,24.80045755,25.17183321,25.2296929,22.79396283,22.13957367,13.29532023,3.578387066,9.706999969,10.10387851,14.12185296,14.82349991,13.63261195,10.3904862,9.847475595,3.166289439,4.958212412,8.025894563,9.659097931,11.97096233,12.35740613,11.98311106,9.953455995,10.0654016,5.273375752,0.439723498,0.877642858,1,1,1,0.972410901,0.840292505,0.515578473,43.49546,-80.42596875,2017,ONH1
PHW52/PHN82,KSH1_2018,N,15.05,793.871493,14.5,10.5,229,110,65,64,0.123225804,1.309000027,2.835063753,1.245921432,6.190769489,0.847777789,5.121826591,3.691923017,0.576771715,3.819999933,13.09000027,33.35999966,37.39923182,6.190769489,7.630000105,140.8584615,22.1515381,17.82230777,23.1370286,19.20606413,23.76917973,25.01946837,21.72317813,23.99633906,18.76579115,18.12170014,19.24157322,22.75709664,20.771,27.08892973,34.13484851,36.79923102,35.27700868,33.17677556,30.51957897,31.48973893,3.915806478,6.778999925,10.75682887,16.60383588,18.26846137,18.37008543,18.87125761,16.15291204,15.043086,8.255034949,8.267600828,11.90551203,16.73972083,17.84021903,17.73256873,17.54545708,15.43757555,15.43621363,0.847615199,0.789999991,1,1,1,1,1,0.970122947,37.810107,-100.775188,2018,KSH1
LH74/PHN82,IAH3_2017,Y,18.8,755.5777323,0,2,229,110,65,64,4.153750014,4.476666673,3.404720357,2.207347727,0.783636364,2.628276904,1.892687593,2.328876272,1.794257086,132.9200004,67.1500001,54.03954627,78.33863542,1.567272728,28.02681865,71.85545488,19.05045461,54.69545453,16.14493189,17.75127989,18.89303832,22.07985964,20.54923199,20.99384486,19.81852315,17.22919489,15.64326955,15.84312499,15.5066665,21.42652578,27.714982,28.45522753,29.90074383,27.6545798,25.64720852,25.13760955,4.41906251,4.141333344,9.782295063,13.56526933,16.05901469,16.6123348,14.8096002,12.74600627,11.28191352,5.818880471,5.62230391,9.387130072,13.2881535,14.4256186,15.3843105,13.65871261,11.89796048,11.29223634,0.568604913,0.570380948,0.879734313,1,1,1,1,0.979205627,41.9758706,-92.24318881,2017,IAH3
LH195/LH82,ONH1_2016,Y,29.05,635.2259129,0,1.5,188,97.5,86,83.5,1.979032247,2.105714291,0.92181366,1.439738287,4.720833318,2.435439396,4.62931563,1.31185227,2.043303741,61.34999967,29.48000008,13.31600007,60.28400005,10.99249999,28.54150001,172.0475013,11.37649985,61.38049932,20.24883872,21.56727634,23.77365349,22.41142308,19.3081847,20.61473607,17.12813691,15.31534219,11.6349499,10.49290321,16.47999988,25.01561457,25.51466922,28.22516696,27.99415914,27.31356147,24.49017951,20.3886015,-0.735806467,3.753571405,10.93050922,11.61184699,15.55325019,14.71775745,15.07244109,12.71620509,9.185787659,3.269306411,5.688768484,11.09209761,11.56175859,14.2216101,13.76399544,13.57642435,11.5133866,8.776899495,0.291105988,0.684668367,0.99891379,0.988093962,1,0.998165816,0.971212584,0.877977401,43.4997965,-80.451125,2016,ONH1
F42/OH43,GAH2_2016,N,14.1,731.1212129,0,2,229,186,55,50,1.486129045,0,7.316392826,2.079782856,1.718421064,1.264671045,2.43256314,4.61773679,3.235456168,46.07000041,0,60.50999928,55.97210474,3.436842128,10.11736836,67.31736801,23.15894711,100.2847377,20.21189387,22.87583466,19.10112302,21.34036575,17.85876091,19.83818451,18.50479945,15.9975398,17.29687983,27.80677426,30.50400009,32.06010812,34.2138269,34.93842035,34.86282896,34.62455114,33.33373696,32.80003392,13.8351613,16.55600014,19.35906305,20.32019684,22.9621054,21.76434208,22.04984942,22.29670187,20.14649938,13.32566871,15.60302283,17.72531793,18.78372546,20.36638125,19.89190838,19.9091667,19.70080105,18.42340329,1,1,1,1,1,1,1,1,33.717295,-83.3110275,2016,GAH2
B73/PHZ51,WIH2_2017,Y,21.2,762.0136585,0,2,291.5,159,78.5,79.5,5.048709616,4.636666616,1.142383575,5.763857885,8.001590729,6.160048604,1.607776433,1.167726513,2.257555268,156.5099981,41.72999954,17.5799998,219.3963643,12.14409065,74.04090792,72.28863683,15.04409093,68.0204557,18.1690344,19.72049554,20.64727683,20.23287988,19.13163679,19.37493243,18.51401576,14.93340477,10.89478233,16.03129027,21.86555545,22.15746071,26.59689143,27.90045501,26.76799254,24.73062069,22.38533393,20.51274781,3.24419354,8.791111098,9.553497601,14.54337319,16.81037892,15.37831158,12.19271258,9.193202486,7.868866577,5.438218202,9.209131236,9.451203107,13.05708411,14.51682301,13.37610723,11.31306373,9.686333754,8.853113959,0.624158991,0.847976183,0.950288768,1,1,0.998699911,0.954544862,0.834596302,43.3246415,-89.33688775,2017,WIH2
B73/PHZ51,MIH1_2016,N,18.35,730.4776202,0,1.5,245,128.5,63,61.5,3.213870927,0.372000003,1.277668238,2.072144594,0.204761899,2.382636341,6.277866916,3.129595251,4.115734243,99.62999874,1.860000014,16.77857134,74.4033328,0.614285696,24.34142835,217.3680916,23.88571438,123.5814282,20.04481233,22.69628944,22.57460654,21.19066928,19.62511718,19.41470496,17.43536011,14.16523572,12.41239439,17.74322581,29.20999985,25.57947765,28.1508514,27.23547651,30.32783564,28.27294529,26.6388532,22.50219404,5.299677434,16.33600006,11.90361174,14.70447611,15.74579377,17.52671,16.25511672,15.58650841,10.86825081,6.615827776,14.89908974,11.62365975,13.82943527,13.70908531,16.01583991,14.48649579,13.48265,10.09129455,0.734400922,1,1,1,1,0.999987733,0.99326559,0.936590208,42.41206675,-84.2952625,2016,MIH1
LH195/LH82,NYH3_2017,N,22.95,726.6160645,0,6.5,231.5,106,78,76.5,4.985806354,2.593333337,3.440292244,5.924553407,1.051666657,3.381140065,2.23243854,2.798625029,4.018371008,154.559997,23.34000003,54.13749945,222.2425004,2.049999952,44.44499943,102.8575006,24.55750025,123.6625012,18.91896409,18.22902181,21.60070221,19.42377057,18.75741065,18.65984774,17.28846846,13.47436078,9.528870152,16.54903238,19.80111122,22.34799835,25.7161787,25.88750029,25.25326924,23.49877068,24.29574993,19.15391932,5.239677404,10.2422222,10.56618324,15.20414844,15.99166679,14.88818678,11.70967484,11.14050002,8.077069991,6.267898103,8.570747831,9.800943694,12.82521906,13.14722321,12.44715548,10.67530521,10.86002668,8.093424028,0.638917053,1,1,1,1,0.987943118,0.977741071,0.791930495,42.73339625,-76.652747,2017,NYH3
B37/H95,NEH3_2015,N,16.05,760.0828806,0,2.5,229,110,65,63,3.231250057,0.918000031,0.565093977,1.286692195,3.19749999,1.391136354,0.258061221,1.474667183,0.155891338,103.4000018,4.590000153,6.150000095,39.04749978,4.720000029,15.30249989,11.17999983,14.52874985,4.648125023,21.79127574,25.69442635,22.86725485,21.82271665,15.26317632,20.59079,20.06412842,16.27968968,13.53861776,24.28750017,32.64599991,30.58771447,32.67731329,28.91593772,29.87238656,30.80707127,25.39031645,21.32018275,9.278749934,13.0079998,13.8828633,15.7826582,17.05531204,14.62710229,13.18313307,8.87540479,3.334017086,10.46257825,15.28330691,14.45465852,16.22005678,15.0938879,14.496454,14.53020136,10.90039565,7.851747396,0.909587052,1,1,1,1,0.965712824,0.862507779,0.80953931,41.15824525,-101.9872958,2015,NEH3
LH195/PHN37,INH1_2016,N,18.55,721.4673236,0,2,251,121,63.5,63.5,3.034516148,1.382857186,3.106568823,3.966270256,3.500454469,6.752636371,3.451172643,3.198528118,3.024422797,94.07000059,9.680000305,31.26000059,138.8759105,3.500454469,67.52636371,113.8927274,21.6654544,92.62590972,17.63328649,23.97511796,20.66441577,20.1236558,19.9706746,19.39149484,18.14527656,15.98533716,14.62820237,18.74516109,26.31142807,27.84898846,28.12893417,28.20272714,29.14504538,29.16779001,27.95564941,27.07739093,7.950322636,11.69428553,16.31817922,16.10606538,16.8522731,18.34872752,18.58889605,17.50284626,15.03841012,7.677100472,11.91689015,14.24288378,14.4184555,14.68521604,15.7994256,15.9329094,14.92238151,13.51734692,0.852649763,1,1,1,1,1,1,0.996102814,40.4787595,-86.98982,2016,INH1
CG119/CG108,WIH1_2018,N,16.362,812.26537,0,2,203.8,92,65,64,1.609999989,7.097692302,4.543300024,5.384655594,12.90857152,6.684415526,1.835393967,1.490247701,3.282350194,49.90999967,92.26999992,56.1414287,188.537143,17.774286,73.52857079,76.14071582,18.50214262,100.642856,20.21844376,17.61529163,19.67186989,21.74517717,19.19342093,18.08513378,19.62003162,16.98075827,12.74863056,13.31193533,16.25923072,24.73561688,28.00164855,31.39095186,28.11097395,26.99453296,26.15077082,19.9357303,1.183225821,5.521538512,13.28283365,14.89542408,18.89249983,17.62870117,14.61713968,12.9208708,8.385953947,4.208379921,6.163069931,11.75441076,13.86262536,17.16453014,14.91796624,13.29691021,12.54059059,8.511099252,0.430714275,0.66777473,1,1,1,0.987929958,0.939058758,0.805939432,43.0544,-89.5317,2018,WIH1
PHN11_PHW65_0323/LH195,IAH4_2019,N,35.25,653.2465062,14,0,270.5,128.5,62,61,7.44874995,0,6.508814674,5.652572602,2.433809479,0.731547632,2.455795253,7.856419535,5.758725846,238.3599984,0,89.12928634,169.456428,4.779285618,8.60571444,106.5300014,62.81714391,173.1250012,18.61457558,24.25652275,18.80062453,19.64217675,17.01762246,21.29967345,16.82875041,12.82062273,10.73648339,20.72718754,29.98400002,24.57226332,29.58102216,28.11761892,27.58625519,26.21902431,25.70162766,18.66579105,8.655312385,16.39199963,13.30590142,18.52555793,18.42333308,15.4118289,14.78252205,14.57801647,7.354403302,8.719182336,15.28713381,11.55896644,16.12377034,15.4195504,13.79277779,12.9189296,12.78184671,8.051480754,0.866629464,1,1,1,1,0.996735112,0.969646609,0.721601517,42.03193798,-93.79333213,2019,IAH4
B14A/H95,WIH3_2020,N,21.15,683.4953592,0,0.5,254.25,123.75,70.5,68,2.733870995,5.446666638,6.112394342,4.74655674,3.655208389,1.04360979,2.527373572,3.69928986,2.61452892,84.75000083,32.67999983,82.9068754,167.6149986,8.003125131,12.58312517,113.8450009,40.74312496,78.93437568,20.41919384,18.2775027,21.33639865,20.40337995,19.49413761,18.99324058,17.80850823,14.15156863,10.1168501,15.48354838,26.52499994,25.39100386,27.30541678,28.00124967,27.24401428,25.77617537,21.78088819,14.67245705,3.106129019,15.18500026,12.31273591,15.12317531,16.14624966,16.31340126,13.17330579,9.92591724,4.431311843,5.287102842,13.2823578,11.70416503,13.61992535,14.28505882,13.97808988,12.29059579,9.657643491,5.630137727,0.571854837,1,1,1,1,0.965668942,0.879609054,0.560799012,44.115703,-89.54491325,2020,WIH3
B73/PHN82,ILH1_2018,Y,14.25,762.6572511,0,2,214,101,58,57,4.93870967,7.677000022,2.588106254,5.605117571,0.281428576,3.456349163,4.202656593,1.004543384,2.183824858,153.0999998,76.77000022,33.4678576,176.7721435,0.281428576,32.73642816,135.7042854,6.586428666,67.2342849,18.91812334,19.3164753,20.10278531,22.12028957,18.91592986,20.16297878,19.11980649,19.09856314,16.2127272,15.99580652,18.50399971,25.32625123,29.19453127,30.85535676,31.83740471,28.20358558,28.86124239,26.43877647,3.618387117,7.573000085,14.94700907,16.75211974,20.46500043,20.0205478,17.14982155,16.71822788,13.95248539,5.629456993,7.587936205,12.64486739,15.17263993,17.66017859,17.94105007,14.82889519,14.97382886,12.85823928,0.640783421,0.72660713,1,1,1,1,1,0.984431123,40.06300125,-88.2291765,2018,ILH1
B73/PHZ51,ILH1_2015,N,13.15,758.7956954,0,4,250,127.5,66,70,4.343437491,1.296153843,7.654899739,5.34311295,3.674999952,2.467291633,4.647268051,0.712819956,1.951907909,138.9899997,16.84999996,99.86750055,177.342501,7.349999905,22.2056247,144.0256246,5.039375113,60.06187434,19.4076893,20.21820178,17.58012378,22.59231729,17.35775694,20.12242863,18.79551315,20.37165926,16.80998738,15.69375022,16.27615364,23.81483975,28.77428317,30.28249967,31.91701372,28.65899596,28.4854072,27.09877011,2.916875011,4.602307732,13.93389792,16.26044709,20.47749984,20.41381959,17.79543547,15.77196732,14.62672175,5.339800043,5.921635642,11.53105666,14.7484369,17.37999976,18.17178164,15.31569586,14.44648847,13.36421336,0.599162964,0.636840646,1,1,1,1,1,0.99828125,40.05982425,-88.23397575,2015,ILH1
B37/OH43,MNH1_2016,N,23.75,731.1212129,0,2,229,110,72.5,72,2.893225764,0.170000008,5.030425272,6.121705224,6.438583227,6.210954471,8.179238718,7.617170889,9.394742846,89.68999869,1.190000057,67.79499967,212.8530004,13.67999972,65.11499918,295.599999,62.20750045,287.315495,17.89673604,26.28611401,18.122652,20.29948324,15.80941307,17.87578139,16.93568638,15.29315111,12.15008877,17.5148386,25.45428576,24.53269911,27.63337014,28.14450006,28.70269129,27.15887183,24.8505404,22.53032632,6.338387108,9.824285678,13.68155402,15.81410535,17.82425013,18.42635015,16.92976579,13.57123889,11.50456607,6.871134867,10.90204251,11.6566452,13.98369248,15.05511886,15.68076391,14.22086787,11.86153057,10.26982602,0.734527645,1,1,1,1,0.999952477,0.98729881,0.936092645,44.06646925,-93.533648,2016,MNH1
B37/H95,IAH3_2015,Y,22.1,713.7442122,12,2,291.5,137.5,65,64,1.888124991,2.913571392,3.784813995,6.971928843,0,3.257500064,1.487385228,2.541446469,4.507444947,60.41999972,40.78999949,55.43999982,241.6600003,0,32.57500064,50.31437471,24.68500039,138.7756267,19.80172794,20.03998334,15.9141292,20.68283491,21.69136486,21.24428636,20.63784564,18.68301758,14.92198489,14.64187506,16.6814285,21.6371088,27.61372247,30.87885427,30.3035625,28.596254,28.51656267,24.33389908,0.83250004,3.600714236,12.24542872,16.05178152,19.47364565,18.11006255,15.99319583,14.30373217,10.64901215,4.605131548,5.787499831,10.11465775,14.1164012,17.17624996,16.25391669,14.57670766,13.97583386,10.87542788,0.501462055,0.634540813,0.981270753,1,1,1,0.968879463,0.933929792,41.97585629,-92.24291804,2015,IAH3
PHB47/PHN82,COH1_2017,N,30.0125,599.0238282,1.75,3,209.5,83.75,73.375,71.25,3.393124943,0,0.001708684,0.360843908,0.891428554,3.560382097,1.42287895,1.565670675,1.770870451,108.5799982,0,0.02904762,12.29476177,1.600476163,43.78523833,56.48285717,21.02523811,53.20285701,22.26802993,25.65694836,25.9931063,24.2875628,21.26982858,19.37652668,19.65631787,15.92591012,11.99136935,20.38624986,26.27857154,29.00990249,30.95750085,32.84396765,29.24597739,27.87075516,24.49812031,17.64004964,4.676250031,9.955714362,11.44166305,13.33492254,15.64190474,14.2894836,11.55992968,8.650869984,2.505724526,7.387813889,11.22152513,12.97827389,14.53136664,16.23032426,14.11586508,12.58015619,10.40568176,6.007000116,0.859799101,1,1,1,1,0.978368119,0.882220332,0.653649732,40.64850025,-104.9997825,2017,COH1
PHN11_PHG47_0251/PHB47,ONH1_2015,Y,26.1,691.2184706,0,0,225,110,81,82,1.605625002,2.296315821,1.411426091,1.973297954,0.512941169,3.436769168,2.641035405,1.799953816,2.360571209,51.38000005,43.63000059,20.30117703,73.50294104,0.81882352,40.73352947,103.9364728,19.58470627,71.14882509,18.02169462,20.4737019,23.34007091,22.64543997,20.24065375,18.07254412,18.60447299,14.22755231,12.21920895,9.771562532,12.63473691,23.7578119,26.83441686,29.90941261,27.46928249,26.11972075,22.82201755,18.35250846,-0.327500018,2.045263152,11.01347606,13.31919887,17.43313718,16.50329302,14.06775752,11.69572195,7.013714688,2.851211725,4.201400589,10.67713105,12.77399982,15.76589753,14.15032606,12.63577386,10.48249806,7.379159901,0.167098218,0.403345874,0.957007131,0.991950294,1,0.994472794,0.939113043,0.772366561,43.49741975,-80.44806025,2015,ONH1
PHG80/PHZ51,ARH2_2016,N,15.65,731.1212129,0,2,215.5,116,61,61,5.780937422,12.26500018,3.712120208,7.0222886,1.105000019,0.295568184,1.931287914,1.454696927,6.280835692,184.9899975,73.59000111,50.67409075,233.2059098,2.210000038,2.364545475,51.29727264,7.656817956,194.7059064,17.76457119,17.22719622,20.14058537,19.80644481,18.88262117,19.79738723,18.69440654,19.88854878,15.60714355,21.02781257,25.69833342,24.88224707,27.55747889,33.1628785,33.38017045,32.40728063,33.71248445,31.37684753,8.517187547,14.13833332,13.26693003,16.75834882,22.79151535,23.21522755,22.56353312,22.95024234,22.3752492,8.626308124,12.37618007,11.75818796,14.46644855,19.89189903,20.24263088,19.43024202,20.23735303,18.81126952,0.958649555,1,1,1,1,1,1,1,35.838614,-90.66530155,2016,ARH2
2369/LH123HT,TXH3_2020,N,8.525,2240.024103,0,2,259.715,105.41,62.5,61.25,3.45875001,5.345714297,0.996479651,4.090893152,11.37176514,0.055555557,3.334418123,0.880352915,2.226110039,110.6800003,37.42000008,12.08058808,124.9758839,22.74353027,0.450000013,88.32823513,3.714117541,69.00941121,15.8034201,18.34009743,21.30541133,19.40762275,20.16580067,20.62125497,19.02899565,16.94703156,18.75160362,25.77062485,24.00285694,27.63577502,29.95402965,30.19186265,32.38063702,33.36328143,35.03835301,35.63206825,14.19906271,12.24428552,13.92062761,17.60156859,18.33921522,21.14142164,21.88591696,25.71364726,24.34760913,12.60372436,11.20425028,13.29865333,15.96364287,16.27361839,18.69618421,19.4144726,21.47019646,20.81901077,0.989866069,1,1,1,1,0.99995416,0.999321567,0.998827006,30.53869475,-96.4274175,2020,TXH3
F42/MO17,NYH2_2018,Y,18.70333333,713.7871184,1.666666667,2.666666667,209.3333333,106,70.33333333,69.33333333,4.152903213,0.855714253,1.31693108,2.056877316,18.60714291,4.17142208,1.796460541,3.71345921,2.001911684,128.7399996,5.989999771,17.50499944,73.5107149,37.6500001,45.13714288,70.0178584,34.82000022,60.53000028,20.64383799,23.73438372,20.97980276,21.28373647,15.72294375,18.26843876,18.50915054,13.77481919,12.83457813,12.82806446,24.72714315,24.76775456,27.60101009,28.96428537,28.5122727,26.91050025,24.01606741,19.66558606,1.452258048,10.48999977,13.07559666,14.8719081,19.08642861,17.4819286,14.95013511,12.80738491,7.865124395,4.113027627,10.74522894,11.82847182,13.74928068,16.05096628,15.06575239,13.37181447,11.42873851,8.144119245,0.351670502,1,0.973410204,0.99504728,1,0.991140913,0.940533101,0.821942422,42.72611075,-76.65530175,2018,NYH2
PHG80/PHZ51,IAH3_2017,Y,20.45,738.8443243,0,2,229,110,65,64,4.153750014,4.476666673,3.404720357,2.207347727,0.783636364,2.628276904,1.892687593,2.328876272,1.794257086,132.9200004,67.1500001,54.03954627,78.33863542,1.567272728,28.02681865,71.85545488,19.05045461,54.69545453,16.14493189,17.75127989,18.89303832,22.07985964,20.54923199,20.99384486,19.81852315,17.22919489,15.64326955,15.84312499,15.5066665,21.42652578,27.714982,28.45522753,29.90074383,27.6545798,25.64720852,25.13760955,4.41906251,4.141333344,9.782295063,13.56526933,16.05901469,16.6123348,14.8096002,12.74600627,11.28191352,5.818880471,5.62230391,9.387130072,13.2881535,14.4256186,15.3843105,13.65871261,11.89796048,11.29223634,0.568604913,0.570380948,0.879734313,1,1,1,1,0.979205627,41.9758706,-92.24318881,2017,IAH3
PHW52/PHN82,ILH1_2015,Y,11.65,737.557139,0,0,197.5,107.5,70,68.5,4.343437491,1.296153843,7.654899739,5.34311295,3.674999952,2.467291633,4.647268051,0.712819956,1.951907909,138.9899997,16.84999996,99.86750055,177.342501,7.349999905,22.2056247,144.0256246,5.039375113,60.06187434,19.4076893,20.21820178,17.58012378,22.59231729,17.35775694,20.12242863,18.79551315,20.37165926,16.80998738,15.69375022,16.27615364,23.81483975,28.77428317,30.28249967,31.91701372,28.65899596,28.4854072,27.09877011,2.916875011,4.602307732,13.93389792,16.26044709,20.47749984,20.41381959,17.79543547,15.77196732,14.62672175,5.339800043,5.921635642,11.53105666,14.7484369,17.37999976,18.17178164,15.31569586,14.44648847,13.36421336,0.599162964,0.636840646,1,1,1,1,1,0.99828125,40.05982425,-88.23397575,2015,ILH1
LH195/PHZ51,TXH1_2015,Y,11.95,754.9341397,0,2,161.5,98,72,70,2.435333351,0.886666695,4.529386736,2.992210444,0,5.407499953,3.236240411,4.528416659,2.205666663,73.06000052,5.320000172,54.16999972,113.7899998,0,59.48249948,89.11249819,24.54499996,66.1699999,13.38128519,15.80308406,13.73749678,19.48289484,22.46598899,19.96463979,19.54848583,19.57031498,18.03135075,19.61999995,26.26833312,25.8489028,26.4780255,30.37177098,28.79539756,31.9014052,33.48070828,34.35516661,6.122333375,12.74499997,15.39155332,13.69439061,15.83385423,15.9580683,20.41172374,21.45270844,23.93220836,7.516768444,12.28221354,13.06030889,12.7550996,15.35592881,14.67426974,18.11040569,19.30603111,20.37775841,0.822428569,1,0.992325397,0.994092815,1,1,1,0.999431249,30.54708625,-96.43393475,2015,TXH1
B37/H95,MIH1_2018,N,24.85,680.2773961,2.5,1,220,115,65,64.5,5.012258064,1.858571376,2.303311915,3.259516918,0,1.604151199,2.926198314,4.215530212,2.830074039,155.38,13.00999963,29.79071396,101.4421425,0,18.16214306,122.3414291,36.1057143,85.34142821,19.78619528,22.4124418,25.08845985,20.26124585,21.4032747,19.63779009,17.59687557,14.64655727,11.33533343,19.08258061,24.4042857,26.50594484,29.85917276,29.20761908,28.94024759,27.00181445,23.87253837,17.74080494,7.633548365,11.57000004,11.5577044,16.90410614,16.77238059,17.0588351,14.06431329,11.77329027,6.160183734,7.985580948,11.08545818,11.96011996,15.51317333,15.06763476,15.11768347,13.15911947,11.00371024,6.94989994,0.750656678,0.993928569,1,1,1,0.982067155,0.951173414,0.716707841,42.689234,-84.49755575,2018,MIH1
LH74/PHN82,DEH1_2019,N,20.85,703.7685266,0,1.25,208.75,94.75,59,58.25,4.885483834,0.129999995,2.22754366,2.838879743,7.092619056,13.09007943,2.376059147,7.246095167,5.291338731,151.4499989,1.169999957,29.41999924,87.75142762,13.32785715,117.8107149,70.17642808,38.82285679,163.7607149,18.09422633,22.52754413,19.09832956,21.10549391,16.87992425,18.38683534,17.43790908,14.47643482,15.18822094,17.49129031,20.55777783,23.08374535,28.61102885,30.70333358,31.53571423,31.96636291,30.10673826,28.44137569,7.04516129,9.184444467,14.30050877,18.34149326,20.74333359,21.70119062,22.68293302,22.03347627,19.57253904,6.992168387,8.735510177,11.41430501,15.6056687,17.71122979,18.59296506,19.259015,18.07354239,16.13042035,0.769815656,0.948412699,0.988507504,1,1,1,1,1,38.670675,-75.433225,2019,DEH1
B73/PHN82,NYS1_2020,N,15.5,732.4083981,0.5,2,233.5,107,70,69.5,4.422257993,0,1.465106888,3.112730419,5.226388772,3.791500035,2.252145842,1.205606062,2.258500008,137.0899978,0,18.69000064,111.7083327,11.12166643,40.23500037,81.04333365,12.37166667,67.75500025,20.93932216,21.78258165,21.50902141,20.73125831,19.36904918,18.75308368,18.06102422,15.18229782,12.07034185,14.51129027,27.91833337,23.80048522,27.65661692,28.12555557,28.75518193,26.95460769,22.41267031,19.20822226,2.574516131,15.64333328,11.50500006,15.28648379,16.42583349,17.59142435,15.02631586,10.71009203,7.777611178,4.955392842,14.00347271,10.82536169,13.9247866,14.40689442,15.2259098,13.37336426,9.961154016,7.871549184,0.467914747,1,0.970676975,0.994134504,1,0.998779762,0.945742115,0.836474207,42.7322645,-76.651743,2020,NYS1
B73/PHM49,GAH2_2016,N,11.3,731.1212129,0,2,267,218,54,53,1.486129045,0,7.316392826,2.079782856,1.718421064,1.264671045,2.43256314,4.61773679,3.235456168,46.07000041,0,60.50999928,55.97210474,3.436842128,10.11736836,67.31736801,23.15894711,100.2847377,20.21189387,22.87583466,19.10112302,21.34036575,17.85876091,19.83818451,18.50479945,15.9975398,17.29687983,27.80677426,30.50400009,32.06010812,34.2138269,34.93842035,34.86282896,34.62455114,33.33373696,32.80003392,13.8351613,16.55600014,19.35906305,20.32019684,22.9621054,21.76434208,22.04984942,22.29670187,20.14649938,13.32566871,15.60302283,17.72531793,18.78372546,20.36638125,19.89190838,19.9091667,19.70080105,18.42340329,1,1,1,1,1,1,1,1,33.717295,-83.3110275,2016,GAH2
B14A/MO17,TXH2_2019,N,9.985,775.477616,0,0,184,72.5,69.5,70,1.71448275,0.072857141,3.656594302,9.095434564,0.409285716,1.207678571,5.355850783,1.246142852,1.574419343,49.71999974,0.50999999,52.00785631,328.2121388,0.592857139,9.661428571,146.4478573,6.531428533,47.51499965,15.42805705,20.52131135,18.76898834,18.57032559,21.42349659,18.85281525,20.14881361,21.03072751,19.84089234,18.45000007,25.76428577,24.43254944,27.27586732,31.09000002,32.37866099,32.72435205,34.04471448,34.98200776,6.826206914,10.35000004,10.67963154,14.78766739,18.65857179,21.85071427,21.02442735,21.79614282,22.6049739,7.457816468,11.1589152,10.85119479,13.46630403,16.91193677,19.11412105,18.84765314,19.77807102,20.01419559,0.749667494,1,0.945308164,1,1,1,1,0.999698925,30.546318,-96.4329965,2019,TXH2
B73/MO17,WIH1_2016,Y,19.8,768.4495847,0,2.5,265,152.5,74.5,74,2.076129018,1.94750002,4.430291291,4.068377178,0.606590927,8.204471101,6.520888551,7.285801826,4.413191112,64.35999957,23.37000024,50.66818307,153.9786358,1.017727305,87.41727302,222.4604529,58.95590957,134.9268184,19.92805462,20.9108026,19.53546339,20.65690042,18.97296773,19.76360502,17.50876714,15.21370917,12.23883056,16.70258062,17.57583312,27.08182728,26.49130857,27.22159082,28.35833875,27.6700069,25.1458901,22.98674642,3.327419363,4.990833327,14.04723809,14.47423798,17.58636334,16.7186736,17.17399145,14.32051147,12.5735533,5.875866612,6.419508974,12.98865398,12.92924289,14.50224274,14.72651534,14.55658067,12.23924581,10.7486024,0.621198161,0.7653869,1,1,1,0.999967803,0.998306277,0.970976554,43.05632525,-89.53194975,2016,WIH1
F42/MO17,NCH1_2018,N,16.4,731.1212129,0.25,2,217,106.25,54.5,53,4.157741868,0,6.852651043,4.101575565,0.281428576,2.753968325,7.265916583,9.606714405,8.963617552,128.8899979,0,78.76714403,125.545715,0.410714286,22.4842863,196.6735732,49.18571489,277.8721441,19.15814344,24.86455965,15.13897653,19.38558293,23.18458939,19.6068393,18.38664919,15.55735787,15.52161696,22.42709686,23.6650002,25.05504787,28.99162569,32.21999972,32.77589287,33.41271207,32.57228504,30.53730396,9.272903273,8.262500107,16.63082339,19.21430847,20.43714251,21.48106165,22.41052549,22.8214047,21.52269578,9.383610038,9.710722454,13.07063738,16.1524193,18.32857112,19.12847726,19.83450897,19.67052049,18.05632483,0.990449307,1,1,1,1,1,1,1,35.6667825,-78.492372,2018,NCH1
B73/PHN82,MOH1_2017,Y,17.45,731.1212129,0,1,246,133.5,64,62.5,8.937741737,9.40166688,2.512230721,3.318030003,5.035714369,1.794490762,1.996986524,1.220079397,1.67255761,277.0699939,56.41000128,33.26619119,103.9014299,11.93095259,15.87761924,65.30142803,7.334762096,51.25476209,18.72482054,18.08832916,22.62422694,21.00800173,18.77514496,19.93438148,19.70533138,19.36646121,17.34329115,21.92032254,25.32999992,25.47495036,29.30087203,30.46650729,32.25412016,29.92026774,28.22145964,28.04827898,10.06000005,15.27666648,12.99827088,17.39768618,19.78222205,21.21359122,18.70404881,16.33857143,14.9717184,9.612847321,12.76903024,11.94928206,15.49761919,17.12130987,18.67277384,16.20463701,14.48208578,13.92850008,0.915472353,1,1,1,1,1,1,0.999239796,38.89264,-92.2057525,2017,MOH1
B73/PHN82,TXH3_2019,Y,11.12,809.4657421,0,0,206,80,69.5,69.5,1.71448275,0.072857141,3.656594302,9.095434564,0.409285716,1.207678571,5.355850783,1.246142852,1.574419343,49.71999974,0.50999999,52.00785631,328.2121388,0.592857139,9.661428571,146.4478573,6.531428533,47.51499965,15.42805705,20.52131135,18.76898834,18.57032559,21.42349659,18.85281525,20.14881361,21.03072751,19.84089234,18.45000007,25.76428577,24.43254944,27.27586732,31.09000002,32.37866099,32.72435205,34.04471448,34.98200776,6.826206914,10.35000004,10.67963154,14.78766739,18.65857179,21.85071427,21.02442735,21.79614282,22.6049739,7.457816468,11.1589152,10.85119479,13.46630403,16.91193677,19.11412105,18.84765314,19.77807102,20.01419559,0.749667494,1,0.945308164,1,1,1,1,0.999698925,30.546318,-96.4329965,2019,TXH3
B14A/MO17,INH1_2016,N,21.6,644.2362096,8.5,18.5,268.5,144,64,64,3.034516148,1.382857186,3.106568823,3.966270256,3.500454469,6.752636371,3.451172643,3.198528118,3.024422797,94.07000059,9.680000305,31.26000059,138.8759105,3.500454469,67.52636371,113.8927274,21.6654544,92.62590972,17.63328649,23.97511796,20.66441577,20.1236558,19.9706746,19.39149484,18.14527656,15.98533716,14.62820237,18.74516109,26.31142807,27.84898846,28.12893417,28.20272714,29.14504538,29.16779001,27.95564941,27.07739093,7.950322636,11.69428553,16.31817922,16.10606538,16.8522731,18.34872752,18.58889605,17.50284626,15.03841012,7.677100472,11.91689015,14.24288378,14.4184555,14.68521604,15.7994256,15.9329094,14.92238151,13.51734692,0.852649763,1,1,1,1,1,1,0.996102814,40.4787595,-86.98982,2016,INH1
PHN11_PHG47_0251/PHB47,GAH1_2017,N,12.3,646.1669874,0,2.5,175,80,56,56,1.929687474,5.730000019,0.343252103,3.449286585,2.107618968,4.586772466,5.884115127,3.462793619,5.790337869,61.74999917,45.84000015,4.185237975,115.4628578,3.161428452,44.24761888,164.3961923,18.00285697,179.500474,16.80249013,20.13732326,20.17342047,19.27076224,21.20480144,16.6798163,18.15858085,19.37517402,17.73704587,23.5584375,24.76124978,28.73884546,29.02932191,29.79031757,30.11825943,30.88468736,33.04158726,32.39466959,8.654999979,9.073749959,13.81601286,15.94569083,16.85142871,20.07059283,21.0580027,22.24365102,22.03411694,9.935165979,10.3201674,13.6844889,14.81363998,15.5596332,17.10789698,17.95959829,19.61349988,19.1980032,0.8834375,1,1,1,1,1,1,1,31.50794425,-83.55854475,2017,GAH1
B37/OH43,WIH1_2017,Y,17.7,731.1212129,0,2,229,110,65,64,3.894838602,1.694000003,3.49156578,6.251914317,26.29780264,12.3515148,1.782621048,1.031219451,2.019413967,120.7399967,16.94000003,60.77000046,238.2086357,55.48409002,148.2181776,77.27181808,11.13545426,60.74545419,17.96009764,21.56986256,18.71582301,20.73316127,19.69440102,19.58726141,19.1692292,15.69151392,12.21998586,16.03451621,20.2119998,20.22998088,26.71060266,27.00553033,27.16428033,24.80808837,24.03641879,21.845045,3.37838715,6.260000002,9.268565708,14.6662765,15.35575767,16.21109857,13.17589581,11.52521119,9.509429623,5.507434962,7.720411242,8.664602637,13.14891279,13.46068042,13.9043846,11.67856357,10.90146065,9.608265423,0.606900932,0.8735357,0.867893568,1,1,0.998220242,0.971647403,0.89569217,43.05668125,-89.5308135,2017,WIH1
B37/MO17,DEH1_2020,N,22.44285714,670.8073905,3.571428571,31.28571429,245.8571429,124.7142857,66.14285714,63.42857143,3.884838689,2.918749928,0.484801506,3.712682555,3.963928495,10.54878945,3.680508849,4.08975176,5.319973187,120.4299994,23.34999943,5.74999997,113.1935704,6.565714155,94.92928366,102.5935729,23.16642891,164.6128593,19.34389959,17.33862388,21.23126246,20.37262205,20.84469896,18.13380163,16.82964191,15.50064315,15.14081803,17.43483888,21.1624999,25.02143811,29.01024665,32.25440507,31.30417669,31.95048154,29.3682824,28.21514964,6.792903194,12.85250008,15.40184434,18.86790491,21.28607132,21.93053571,22.84339264,21.06525136,19.30786859,6.86665098,10.04482466,12.64072343,16.02028347,18.72161765,18.60397455,19.32804006,17.22313801,15.91003144,0.79362904,0.982098209,1,1,1,1,1,1,38.628981,-75.46566025,2020,DEH1
B37/H95,GAH1_2020,N,19.71,711.2985603,21.5,19,185,80,68,66.5,4.279687563,0,6.08243138,3.811420537,2.267976227,2.530000055,3.98378478,1.741833346,2.910207357,136.950002,0,84.37571335,135.9278565,4.833571502,22.77000049,107.9378566,9.115000069,90.21642806,16.61263859,21.5972875,19.10636237,20.72286693,14.54687945,18.15584731,20.08605453,19.68634889,18.27781732,25.37343752,26.77166684,25.94144379,27.77824619,29.55357116,30.6518255,31.78195276,33.48178532,33.56322575,12.43875006,10.55666669,12.19035929,13.80720781,20.58059497,20.26111097,20.57386992,21.96838095,22.25456222,11.80508215,11.69113274,11.88989525,13.35432975,17.06708306,17.45646823,18.17996521,19.67032327,19.80166763,0.988537947,1,1,1,1,1,1,1,31.5079775,-83.558517,2020,GAH1
B14A/H95,IAH3_2019,Y,26.4,680.9209887,1.5,0,241,129,65,64,2.879677419,8.325833271,8.514982687,3.930253796,0.537380945,2.3054841,2.306432914,9.350841805,5.38576807,89.26999998,99.90999925,122.1842849,140.4857139,1.612142835,22.50785688,97.56999955,77.30999979,164.0414292,18.1142604,18.14433392,18.34133211,20.20102762,20.30083813,21.10542726,19.14151731,15.03963484,12.83068274,16.60032246,18.1858333,22.24543073,27.09611601,28.60416662,30.1634999,27.59661349,25.62734982,23.13272506,3.497096781,6.015833348,10.94521806,15.70806976,18.18130992,18.44873807,15.55405048,14.14793364,12.04513443,5.803122395,7.048807354,9.977529243,13.7421048,15.43701566,16.36698878,13.8976006,12.43400485,10.94701098,0.634539169,0.718095232,0.926337681,1,1,1,0.9932483,0.897879883,41.97593131,-92.24310603,2019,IAH3
B37/MO17,WIH2_2020,N,25.35,676.5767386,36.75,0.125,252,128.25,75.5,72.5,1.142258063,7.375000167,3.772605813,4.528143625,15.91411821,3.015240613,2.848395651,6.559665308,3.073983535,35.40999997,73.75000167,42.96999988,163.850588,31.01764819,33.16764674,117.7699986,59.84176376,94.45823468,20.73953056,16.04352899,21.23354675,21.58093245,19.01370295,17.88573252,19.32013515,13.57540027,12.27254504,13.56999995,18.91099977,26.0938683,28.2322475,29.46647072,27.75422455,27.09322103,24.80509675,19.00189054,0.762580661,9.396999884,13.99892158,14.99589118,17.7452939,17.49807463,14.22893102,13.29211059,7.459399134,4.176897214,8.107987139,12.68677404,14.02444379,15.66411489,14.70790633,13.20588953,12.26960615,7.833960257,0.443168195,0.881928567,1,1,1,0.990384734,0.880973437,0.780679991,43.294786,-89.383968,2020,WIH2
PHP02/PHB47,DEH1_2016,Y,17.85,706.6646934,16,2,241.5,114,78.5,78,2.701875035,7.431818214,3.891344367,3.01543569,5.358105985,2.453055546,7.028031294,2.624318106,3.1968602,86.46000111,81.75000036,66.39499953,101.6163622,13.33454524,24.02227264,188.3231781,15.05272682,98.58045408,18.33047433,10.1000462,19.40971708,21.02938559,18.25055452,17.64652011,18.94468483,17.7865103,16.44449792,18.09,16.60090897,19.90208421,27.67646738,27.79681775,28.9030859,31.91379825,31.21812112,30.57169607,5.529687506,9.93090907,10.11289786,16.8589893,18.02106052,19.78800518,21.90881045,21.62957593,20.16127331,6.825577378,7.645605865,8.606637786,14.43603228,14.98401645,16.37610101,18.85541374,18.37748956,17.3477875,0.726328134,0.729318176,0.990929859,1,1,1,1,1,38.6482025,-75.44606,2016,DEH1
PHG80/PHZ51,INH1_2015,Y,15.6,739.4879169,0,3,242.5,117,68.5,68.5,2.968064535,5.608750075,2.401797478,2.620596579,1.049062505,3.048312443,3.454130844,1.332533481,1.484370975,92.01000059,44.8700006,26.44312483,85.12437463,1.715625018,30.48312443,116.5724995,9.316249996,45.68062523,19.44608656,13.59046638,21.88315593,21.65689439,20.60130358,19.73326552,18.77560381,17.99738388,15.64927463,15.67580632,21.0562501,27.44396829,29.52449332,32.66781175,30.16981242,28.17317586,28.46934151,25.5406298,3.004516139,13.05249977,15.22068343,16.62214482,19.56843758,18.02818774,16.71489706,16.46563638,12.56847521,5.360930658,9.9438759,13.725819,15.26696414,18.11812466,16.1828721,14.63810214,14.67667849,11.95902497,0.609504607,1,1,1,1,1,1,0.986081101,40.477075,-87.000205,2015,INH1
LH212HT/LH195,ONH1_2017,N,26.55,684.1389518,0,1.5,247,122.5,74.5,74,4.42290319,4.904999876,1.545173221,3.420435244,1.695375006,2.594700004,1.855534774,1.54565171,2.383111348,137.1099989,49.04999876,23.52600009,140.8034994,5.378000009,36.46150006,95.23350107,29.85300009,72.44250006,18.65662235,17.08545341,23.10813164,20.12586768,18.11232318,19.44819915,16.33652997,11.62209215,7.957733996,13.94322577,18.20700026,22.35689536,24.80045755,25.17183321,25.2296929,22.79396283,22.13957367,13.29532023,3.578387066,9.706999969,10.10387851,14.12185296,14.82349991,13.63261195,10.3904862,9.847475595,3.166289439,4.958212412,8.025894563,9.659097931,11.97096233,12.35740613,11.98311106,9.953455995,10.0654016,5.273375752,0.439723498,0.877642858,1,1,1,0.972410901,0.840292505,0.515578473,43.49546,-80.42596875,2017,ONH1
B37/MO17,ONH1_2017,Y,17.7,731.1212129,0,2,229,110,65,64,4.42290319,4.904999876,1.545173221,3.420435244,1.695375006,2.594700004,1.855534774,1.54565171,2.383111348,137.1099989,49.04999876,23.52600009,140.8034994,5.378000009,36.46150006,95.23350107,29.85300009,72.44250006,18.65662235,17.08545341,23.10813164,20.12586768,18.11232318,19.44819915,16.33652997,11.62209215,7.957733996,13.94322577,18.20700026,22.35689536,24.80045755,25.17183321,25.2296929,22.79396283,22.13957367,13.29532023,3.578387066,9.706999969,10.10387851,14.12185296,14.82349991,13.63261195,10.3904862,9.847475595,3.166289439,4.958212412,8.025894563,9.659097931,11.97096233,12.35740613,11.98311106,9.953455995,10.0654016,5.273375752,0.439723498,0.877642858,1,1,1,0.972410901,0.840292505,0.515578473,43.49546,-80.42596875,2017,ONH1
PHN11_PHG47_0251/PHB47,MIH1_2017,Y,22.2,681.5645814,0,3.5,102,49.5,63,63.5,2.651290334,1.642500043,0.365195355,3.685889798,0.022982455,0.462972321,1.745768067,1.924198947,6.215848807,82.19000036,13.14000034,4.417894763,131.6678931,0.068947365,5.871578781,77.40789432,25.15789459,187.919471,20.75480046,19.52619267,24.47429891,19.89055103,21.94334328,22.12060477,17.47908742,14.76431364,9.641321864,18.99677434,22.1187501,26.44652255,27.49693157,27.7329823,27.82492569,25.37386911,24.10071042,20.63989867,5.961290348,11.91874993,11.36318641,16.0503933,16.08877179,14.96255052,12.27657104,9.93890341,8.936309075,7.303217139,10.01258026,11.86785018,14.06113521,14.11607898,13.75096176,11.67659513,10.59348898,9.148775778,0.770126733,1,1,1,1,0.999072621,0.949278334,0.816440377,42.68116575,-84.49434125,2017,MIH1
PHN11_PHW65_0323/LH195,COH1_2017,N,39.675,559.9255768,0,5,223.75,92.5,78.5,75.75,3.393124943,0,0.001708684,0.360843908,0.891428554,3.560382097,1.42287895,1.565670675,1.770870451,108.5799982,0,0.02904762,12.29476177,1.600476163,43.78523833,56.48285717,21.02523811,53.20285701,22.26802993,25.65694836,25.9931063,24.2875628,21.26982858,19.37652668,19.65631787,15.92591012,11.99136935,20.38624986,26.27857154,29.00990249,30.95750085,32.84396765,29.24597739,27.87075516,24.49812031,17.64004964,4.676250031,9.955714362,11.44166305,13.33492254,15.64190474,14.2894836,11.55992968,8.650869984,2.505724526,7.387813889,11.22152513,12.97827389,14.53136664,16.23032426,14.11586508,12.58015619,10.40568176,6.007000116,0.859799101,1,1,1,1,0.978368119,0.882220332,0.653649732,40.64850025,-104.9997825,2017,COH1
B37/MO17,ONH2_2019,N,40.15,645.6521133,22.5,6.5,256.5,158,61,59,3.148749955,1.707142813,2.884788786,4.447732757,0.559615387,2.381315681,1.591062148,2.963873616,2.693056068,100.7599986,11.94999969,28.24076917,155.5976948,1.398461539,27.51692318,83.67846091,41.8892306,82.50307587,19.66548085,22.32332843,21.1459014,19.53903082,19.21471346,16.24443645,13.80926932,11.15414419,7.415876262,21.25437486,24.3300002,28.12065395,27.65940311,26.58807711,26.0777262,22.19925608,19.8977064,9.549499144,11.33624993,14.43999985,17.94791472,17.45486711,16.31807709,16.95925516,13.13253797,10.95349597,1.834706344,9.515816833,11.92539607,15.12217856,14.69848405,13.62366511,13.69445237,10.64536319,9.344594814,3.453371008,0.985803572,1,1,1,1,0.93986372,0.838029257,0.289255913,42.45221275,-81.881844,2019,ONH2
2369/LH123HT,DEH1_2016,Y,23.5,673.84147,3.5,1.5,282.5,143,80,78.5,2.701875035,7.431818214,3.891344367,3.01543569,5.358105985,2.453055546,7.028031294,2.624318106,3.1968602,86.46000111,81.75000036,66.39499953,101.6163622,13.33454524,24.02227264,188.3231781,15.05272682,98.58045408,18.33047433,10.1000462,19.40971708,21.02938559,18.25055452,17.64652011,18.94468483,17.7865103,16.44449792,18.09,16.60090897,19.90208421,27.67646738,27.79681775,28.9030859,31.91379825,31.21812112,30.57169607,5.529687506,9.93090907,10.11289786,16.8589893,18.02106052,19.78800518,21.90881045,21.62957593,20.16127331,6.825577378,7.645605865,8.606637786,14.43603228,14.98401645,16.37610101,18.85541374,18.37748956,17.3477875,0.726328134,0.729318176,0.990929859,1,1,1,1,1,38.6482025,-75.44606,2016,DEH1
B73/DK3IIH6,OHH1_2017,N,16.95,732.4083981,0,2,229,110,65,64,4.401935447,12.29571451,4.299880116,6.252045262,18.36299991,4.892395558,3.195317293,3.431958172,3.794688752,136.4599988,86.0700016,53.63949916,223.8204996,40.86499989,50.26800107,124.097,30.99400014,115.4320013,19.0647902,19.03427505,21.00226491,20.15032754,19.69555429,18.89580098,18.69837911,16.0400155,13.85510684,20.47903239,25.43142836,25.24002704,27.25803818,28.09541678,28.73270468,26.30456447,24.69395371,24.25720733,8.011935501,13.44999967,12.59882409,15.91673102,16.75358336,18.39824095,14.97688189,13.11535887,11.81284403,8.407228033,12.106522,11.63721293,13.8931373,14.6377479,15.63224373,13.07252875,11.66012039,11.13333271,0.85352535,1,1,1,1,0.996926048,1,0.96495674,39.855785,-83.66477375,2017,OHH1
2369/LH123HT,WIH2_2020,Y,25.3875,689.4485909,5.875,0,296,161.875,74.5,72.875,1.142258063,7.375000167,3.772605813,4.528143625,15.91411821,3.015240613,2.848395651,6.559665308,3.073983535,35.40999997,73.75000167,42.96999988,163.850588,31.01764819,33.16764674,117.7699986,59.84176376,94.45823468,20.73953056,16.04352899,21.23354675,21.58093245,19.01370295,17.88573252,19.32013515,13.57540027,12.27254504,13.56999995,18.91099977,26.0938683,28.2322475,29.46647072,27.75422455,27.09322103,24.80509675,19.00189054,0.762580661,9.396999884,13.99892158,14.99589118,17.7452939,17.49807463,14.22893102,13.29211059,7.459399134,4.176897214,8.107987139,12.68677404,14.02444379,15.66411489,14.70790633,13.20588953,12.26960615,7.833960257,0.443168195,0.881928567,1,1,1,0.990384734,0.880973437,0.780679991,43.294786,-89.383968,2020,WIH2
B14A/H95,NCH1_2018,Y,16.875,731.1212129,0,2,212.5,110,54.75,54,4.157741868,0,6.852651043,4.101575565,0.281428576,2.753968325,7.265916583,9.606714405,8.963617552,128.8899979,0,78.76714403,125.545715,0.410714286,22.4842863,196.6735732,49.18571489,277.8721441,19.15814344,24.86455965,15.13897653,19.38558293,23.18458939,19.6068393,18.38664919,15.55735787,15.52161696,22.42709686,23.6650002,25.05504787,28.99162569,32.21999972,32.77589287,33.41271207,32.57228504,30.53730396,9.272903273,8.262500107,16.63082339,19.21430847,20.43714251,21.48106165,22.41052549,22.8214047,21.52269578,9.383610038,9.710722454,13.07063738,16.1524193,18.32857112,19.12847726,19.83450897,19.67052049,18.05632483,0.990449307,1,1,1,1,1,1,1,35.6667825,-78.492372,2018,NCH1
B14A/H95,IAH4_2019,N,30.725,663.8657844,3.75,2,237,125.75,59.5,58,7.44874995,0,6.508814674,5.652572602,2.433809479,0.731547632,2.455795253,7.856419535,5.758725846,238.3599984,0,89.12928634,169.456428,4.779285618,8.60571444,106.5300014,62.81714391,173.1250012,18.61457558,24.25652275,18.80062453,19.64217675,17.01762246,21.29967345,16.82875041,12.82062273,10.73648339,20.72718754,29.98400002,24.57226332,29.58102216,28.11761892,27.58625519,26.21902431,25.70162766,18.66579105,8.655312385,16.39199963,13.30590142,18.52555793,18.42333308,15.4118289,14.78252205,14.57801647,7.354403302,8.719182336,15.28713381,11.55896644,16.12377034,15.4195504,13.79277779,12.9189296,12.78184671,8.051480754,0.866629464,1,1,1,1,0.996735112,0.969646609,0.721601517,42.03193798,-93.79333213,2019,IAH4
WF9/H95,GAH1_2016,N,14.15,769.7367699,9,19.5,185,85,62,59,6.466250051,4.395000041,0.566421492,2.549627568,3.17469698,5.859943136,4.096967014,2.330999996,2.476261007,206.9200016,35.16000032,6.21000006,86.0200003,9.52409094,52.42727233,105.6731797,11.65499998,76.76409122,15.95696127,18.25385642,20.33100053,20.74024209,20.01064868,19.54302735,19.38198769,19.26953352,18.21451922,23.62687498,22.98249984,28.56134937,29.4983659,33.37075638,32.62719045,33.25026907,34.51499955,33.94928126,11.29749997,10.47000009,15.64744728,16.2846205,20.78287862,20.61269551,21.56927107,22.51809092,22.40467728,10.53971422,9.962440438,14.36481163,15.11313475,19.02952924,18.56859265,19.26668195,20.34390963,19.99415841,0.993928569,1,1,1,1,1,1,1,31.5079175,-83.55854775,2016,GAH1
LH82/PHB47,NYH1_2017,Y,17.75,731.1212129,4.5,9,206,82,73,72.5,4.758709581,4.139999986,2.953024942,5.715506232,4.320872878,2.701732063,2.616328443,1.022630585,3.614268439,147.519997,37.25999987,45.12618999,219.9223815,11.26857107,35.6957141,128.4247627,13.30476207,110.8900009,18.97444351,17.81005277,22.0763727,19.38397475,18.56141379,19.22534974,16.71382568,13.43506643,9.037548332,17.06967752,20.23333359,22.7745171,25.66488699,26.70396817,25.32691524,23.26007272,23.96840526,17.61119819,5.964193534,10.19,10.93717632,15.20362294,16.36293638,14.60656728,11.31793404,11.56685323,6.669544781,6.641127344,8.727253675,10.15270493,12.79474615,13.71935226,12.37567782,10.45035179,10.9124923,7.239151369,0.685760371,1,1,1,1,0.982493678,0.953634339,0.701363064,42.72880835,-76.6515625,2017,NYH1
F42/MO17,GAH2_2016,N,10.5,731.1212129,0,2,263,224,57,52,1.486129045,0,7.316392826,2.079782856,1.718421064,1.264671045,2.43256314,4.61773679,3.235456168,46.07000041,0,60.50999928,55.97210474,3.436842128,10.11736836,67.31736801,23.15894711,100.2847377,20.21189387,22.87583466,19.10112302,21.34036575,17.85876091,19.83818451,18.50479945,15.9975398,17.29687983,27.80677426,30.50400009,32.06010812,34.2138269,34.93842035,34.86282896,34.62455114,33.33373696,32.80003392,13.8351613,16.55600014,19.35906305,20.32019684,22.9621054,21.76434208,22.04984942,22.29670187,20.14649938,13.32566871,15.60302283,17.72531793,18.78372546,20.36638125,19.89190838,19.9091667,19.70080105,18.42340329,1,1,1,1,1,1,1,1,33.717295,-83.3110275,2016,GAH2
B73/TX779,TXH1_2019,N,10.285,839.0967462,0,0,219.5,72.5,68.5,67.5,1.71448275,0.072857141,3.656594302,9.095434564,0.409285716,1.207678571,5.355850783,1.246142852,1.574419343,49.71999974,0.50999999,52.00785631,328.2121388,0.592857139,9.661428571,146.4478573,6.531428533,47.51499965,15.42805705,20.52131135,18.76898834,18.57032559,21.42349659,18.85281525,20.14881361,21.03072751,19.84089234,18.45000007,25.76428577,24.43254944,27.27586732,31.09000002,32.37866099,32.72435205,34.04471448,34.98200776,6.826206914,10.35000004,10.67963154,14.78766739,18.65857179,21.85071427,21.02442735,21.79614282,22.6049739,7.457816468,11.1589152,10.85119479,13.46630403,16.91193677,19.11412105,18.84765314,19.77807102,20.01419559,0.749667494,1,0.945308164,1,1,1,1,0.999698925,30.546318,-96.4329965,2019,TXH1
LH195/LH82,ONH2_2016,N,21.3,725.3288793,0,13,219,93,75,73.5,1.435483875,1.740833327,1.463802716,3.022687524,0.150999999,1.134659085,3.046446673,1.693503778,2.765116665,44.50000012,20.88999993,18.84600039,117.1590009,0.150999999,12.25349994,101.0444998,13.16149993,84.26899996,19.72563927,22.19747464,21.68954048,21.77365896,18.98664827,19.92678304,16.69906166,15.68152671,12.9072029,14.10741935,17.58083336,26.00758685,26.04894451,27.78099985,28.79287246,28.2480382,25.9224786,23.75348014,4.257419363,7.13166666,15.03828811,14.1477789,17.72699971,17.33924119,18.24672102,15.95494667,14.17526013,5.131346137,6.986841243,12.85116395,12.65171997,14.84296497,15.26027205,15.31782021,13.26534606,11.67621189,0.511244241,0.799851209,1,1,1,1,1,0.975829282,42.4530035,-81.88279875,2016,ONH2
LH82/PHB47,TXH1_2015,N,11.3,771.0239551,0,2,170,61,65,65,2.435333351,0.886666695,4.529386736,2.992210444,0,5.407499953,3.236240411,4.528416659,2.205666663,73.06000052,5.320000172,54.16999972,113.7899998,0,59.48249948,89.11249819,24.54499996,66.1699999,13.38128519,15.80308406,13.73749678,19.48289484,22.46598899,19.96463979,19.54848583,19.57031498,18.03135075,19.61999995,26.26833312,25.8489028,26.4780255,30.37177098,28.79539756,31.9014052,33.48070828,34.35516661,6.122333375,12.74499997,15.39155332,13.69439061,15.83385423,15.9580683,20.41172374,21.45270844,23.93220836,7.516768444,12.28221354,13.06030889,12.7550996,15.35592881,14.67426974,18.11040569,19.30603111,20.37775841,0.822428569,1,0.992325397,0.994092815,1,1,1,0.999431249,30.54708625,-96.43393475,2015,TXH1
B73/TX779,GAH1_2019,N,15.37,757.1867139,0,0,195,100,60.5,60.5,4.224827643,1.980000006,1.908236784,2.106472486,0,0.090714284,5.691865924,1.473428559,3.045620547,122.5200016,17.82000005,22.37999977,72.04999958,0,0.725714275,156.5528547,7.367142797,92.8692846,16.4500471,17.48633936,17.40259385,20.9384506,22.51147406,21.84430948,17.66714436,19.76491442,19.71139218,21.20655165,22.58666695,26.81574745,29.5228407,35.04273814,35.70196446,32.62270198,33.62814315,33.36893722,7.214827602,8.595555623,14.04498416,14.47543411,19.21654783,20.58464301,20.89661115,21.78014287,21.253149,8.370628681,9.274220075,12.91642218,14.40044999,18.67726543,19.28313207,18.63395398,19.63555568,19.18049021,0.90216748,0.984365085,1,1,1,1,1,1,31.50582525,-83.55515025,2019,GAH1
LH82/PHB47,NYH2_2016,N,18.55,731.1212129,1.5,1,179,79.5,70.5,69,2.034516133,1.030000001,1.88805842,0.867300396,1.140952366,2.326450204,3.376451109,4.287746575,3.208572451,63.07000011,12.36000001,22.4085716,34.4438095,2.622857094,25.59095225,116.65619,31.75809508,97.82571426,19.21240982,23.35584625,23.40556822,22.17883586,23.94456446,21.25361649,17.18897092,16.17245816,13.35906413,14.04935483,18.68749992,27.50851283,26.23633728,28.78071431,29.31692664,28.41638555,26.44500865,23.15297547,1.686774175,4.439999988,12.92699036,12.85534504,13.89476193,15.65588736,16.863818,13.58818034,10.55762265,4.511298309,6.607155497,12.88765676,12.33330427,13.7996272,14.74166699,14.82295673,12.66050813,10.26842414,0.447315667,0.804761906,0.999400038,0.994542932,1,0.999880088,0.994843294,0.949842165,42.726117,-76.655339,2016,NYH2
CG60/LH162,NEH3_2015,N,14,773.5983256,0,0,229,110,60,60,3.231250057,0.918000031,0.565093977,1.286692195,3.19749999,1.391136354,0.258061221,1.474667183,0.155891338,103.4000018,4.590000153,6.150000095,39.04749978,4.720000029,15.30249989,11.17999983,14.52874985,4.648125023,21.79127574,25.69442635,22.86725485,21.82271665,15.26317632,20.59079,20.06412842,16.27968968,13.53861776,24.28750017,32.64599991,30.58771447,32.67731329,28.91593772,29.87238656,30.80707127,25.39031645,21.32018275,9.278749934,13.0079998,13.8828633,15.7826582,17.05531204,14.62710229,13.18313307,8.87540479,3.334017086,10.46257825,15.28330691,14.45465852,16.22005678,15.0938879,14.496454,14.53020136,10.90039565,7.851747396,0.909587052,1,1,1,1,0.965712824,0.862507779,0.80953931,41.15824525,-101.9872958,2015,NEH3
PHN11_PHG47_0251/PHB47,ONH1_2016,Y,24.6,639.7310613,0,1.5,212.5,122.5,81,80,1.979032247,2.105714291,0.92181366,1.439738287,4.720833318,2.435439396,4.62931563,1.31185227,2.043303741,61.34999967,29.48000008,13.31600007,60.28400005,10.99249999,28.54150001,172.0475013,11.37649985,61.38049932,20.24883872,21.56727634,23.77365349,22.41142308,19.3081847,20.61473607,17.12813691,15.31534219,11.6349499,10.49290321,16.47999988,25.01561457,25.51466922,28.22516696,27.99415914,27.31356147,24.49017951,20.3886015,-0.735806467,3.753571405,10.93050922,11.61184699,15.55325019,14.71775745,15.07244109,12.71620509,9.185787659,3.269306411,5.688768484,11.09209761,11.56175859,14.2216101,13.76399544,13.57642435,11.5133866,8.776899495,0.291105988,0.684668367,0.99891379,0.988093962,1,0.998165816,0.971212584,0.877977401,43.4997965,-80.451125,2016,ONH1
B37/OH43,INH1_2016,N,22.6,648.0977653,4.5,35,270,134.5,64,63,3.034516148,1.382857186,3.106568823,3.966270256,3.500454469,6.752636371,3.451172643,3.198528118,3.024422797,94.07000059,9.680000305,31.26000059,138.8759105,3.500454469,67.52636371,113.8927274,21.6654544,92.62590972,17.63328649,23.97511796,20.66441577,20.1236558,19.9706746,19.39149484,18.14527656,15.98533716,14.62820237,18.74516109,26.31142807,27.84898846,28.12893417,28.20272714,29.14504538,29.16779001,27.95564941,27.07739093,7.950322636,11.69428553,16.31817922,16.10606538,16.8522731,18.34872752,18.58889605,17.50284626,15.03841012,7.677100472,11.91689015,14.24288378,14.4184555,14.68521604,15.7994256,15.9329094,14.92238151,13.51734692,0.852649763,1,1,1,1,1,1,0.996102814,40.4787595,-86.98982,2016,INH1
PHG80/PHZ51,ONH1_2016,Y,29.15,633.9387277,0,2,213,122,84.5,81.5,1.979032247,2.105714291,0.92181366,1.439738287,4.720833318,2.435439396,4.62931563,1.31185227,2.043303741,61.34999967,29.48000008,13.31600007,60.28400005,10.99249999,28.54150001,172.0475013,11.37649985,61.38049932,20.24883872,21.56727634,23.77365349,22.41142308,19.3081847,20.61473607,17.12813691,15.31534219,11.6349499,10.49290321,16.47999988,25.01561457,25.51466922,28.22516696,27.99415914,27.31356147,24.49017951,20.3886015,-0.735806467,3.753571405,10.93050922,11.61184699,15.55325019,14.71775745,15.07244109,12.71620509,9.185787659,3.269306411,5.688768484,11.09209761,11.56175859,14.2216101,13.76399544,13.57642435,11.5133866,8.776899495,0.291105988,0.684668367,0.99891379,0.988093962,1,0.998165816,0.971212584,0.877977401,43.4997965,-80.451125,2016,ONH1
B37/MO17,WIH1_2020,Y,21.5,692.5056558,2.5,0.5,290,166,79.5,77.5,1.598387111,6.507143004,4.413520471,5.455426438,9.576153682,6.848251811,1.847198819,1.302442385,3.233674973,49.55000043,91.10000205,54.05307698,191.9769218,14.76999958,75.33076992,75.52923148,17.19923096,99.29769339,20.3303612,17.70938441,19.63774696,21.71928057,19.47191414,18.08778093,19.52506722,17.02277317,12.74244368,13.80935484,15.78214281,24.71870171,28.0331271,31.3961547,28.17125902,26.95535567,26.2427393,20.06715065,1.332903252,5.150000061,13.25869882,14.90724568,18.80923077,17.63741262,14.66820073,13.00544381,8.429758508,4.404075426,5.920121855,11.73838603,13.88054584,17.12955683,14.95247276,13.30208011,12.63591888,8.588509069,0.46481566,0.623010193,1,1,1,0.987099279,0.934776512,0.808464704,43.05505505,-89.52853825,2020,WIH1
B37/OH43,INH1_2015,Y,16.3,714.3878048,0,9,251,137,65,65,2.968064535,5.608750075,2.401797478,2.620596579,1.049062505,3.048312443,3.454130844,1.332533481,1.484370975,92.01000059,44.8700006,26.44312483,85.12437463,1.715625018,30.48312443,116.5724995,9.316249996,45.68062523,19.44608656,13.59046638,21.88315593,21.65689439,20.60130358,19.73326552,18.77560381,17.99738388,15.64927463,15.67580632,21.0562501,27.44396829,29.52449332,32.66781175,30.16981242,28.17317586,28.46934151,25.5406298,3.004516139,13.05249977,15.22068343,16.62214482,19.56843758,18.02818774,16.71489706,16.46563638,12.56847521,5.360930658,9.9438759,13.725819,15.26696414,18.11812466,16.1828721,14.63810214,14.67667849,11.95902497,0.609504607,1,1,1,1,1,1,0.986081101,40.477075,-87.000205,2015,INH1
LH198/PHZ51,INH1_2015,Y,14.3,743.3494726,2.5,1.5,237.5,116.5,67.5,67,2.968064535,5.608750075,2.401797478,2.620596579,1.049062505,3.048312443,3.454130844,1.332533481,1.484370975,92.01000059,44.8700006,26.44312483,85.12437463,1.715625018,30.48312443,116.5724995,9.316249996,45.68062523,19.44608656,13.59046638,21.88315593,21.65689439,20.60130358,19.73326552,18.77560381,17.99738388,15.64927463,15.67580632,21.0562501,27.44396829,29.52449332,32.66781175,30.16981242,28.17317586,28.46934151,25.5406298,3.004516139,13.05249977,15.22068343,16.62214482,19.56843758,18.02818774,16.71489706,16.46563638,12.56847521,5.360930658,9.9438759,13.725819,15.26696414,18.11812466,16.1828721,14.63810214,14.67667849,11.95902497,0.609504607,1,1,1,1,1,1,0.986081101,40.477075,-87.000205,2015,INH1
B14A/MO17,KSH1_2016,N,13,782.6086222,0,2,180,70,89,89,0.381562503,5.593749881,9.031136959,3.981909994,0,0.897724769,5.011421387,3.322424253,5.670073263,12.2100001,44.74999905,140.9509078,148.5090918,0,8.374091108,139.438637,19.93454552,175.7722711,18.43315426,14.04582843,18.34613738,20.88446512,22.70328743,20.59441801,18.34986672,18.15379387,17.32510191,19.15124996,21.70124984,22.33901244,27.19377063,36.31272689,35.17540036,32.01078432,33.85633352,30.76895891,2.130625044,11.46499991,9.568238579,14.2621368,21.58727247,22.04353923,20.78061301,22.71134866,19.49139311,6.3158573,9.667291017,9.626890379,13.35418843,19.56599107,19.14397536,18.06824645,19.12054732,17.03744615,0.741573662,1,0.921279778,0.986042268,0.991287871,0.998977631,0.993550002,1,39.14480675,-96.62898225,2016,KSH1
B73/PHN82,GAH1_2017,N,13.15,695.0800263,0,2,165,75,60,60,1.929687474,5.730000019,0.343252103,3.449286585,2.107618968,4.586772466,5.884115127,3.462793619,5.790337869,61.74999917,45.84000015,4.185237975,115.4628578,3.161428452,44.24761888,164.3961923,18.00285697,179.500474,16.80249013,20.13732326,20.17342047,19.27076224,21.20480144,16.6798163,18.15858085,19.37517402,17.73704587,23.5584375,24.76124978,28.73884546,29.02932191,29.79031757,30.11825943,30.88468736,33.04158726,32.39466959,8.654999979,9.073749959,13.81601286,15.94569083,16.85142871,20.07059283,21.0580027,22.24365102,22.03411694,9.935165979,10.3201674,13.6844889,14.81363998,15.5596332,17.10789698,17.95959829,19.61349988,19.1980032,0.8834375,1,1,1,1,1,1,1,31.50794425,-83.55854475,2017,GAH1
LH198/PHZ51,KSH1_2015,N,14.4,782.6086222,0,2,229,110,85,83.5,0.688124985,3.518749885,2.537239536,4.634326915,6.340784251,4.013516285,5.753010874,3.95559662,1.81791271,22.01999953,28.14999908,47.40176476,147.1705882,9.165882307,38.18235242,161.646473,23.74705871,56.35529401,19.48910828,20.34062409,19.21958791,21.30664108,18.00351726,18.80818483,18.60066932,17.86718078,18.78253622,17.69406253,22.96750021,19.85221485,29.31892792,29.11705877,31.41670577,31.16760655,30.50505886,29.96204923,3.297187492,8.938749969,8.792561365,16.998743,18.09705929,19.84989561,20.1377744,20.03282345,17.06836811,6.184738542,9.476230158,8.381520189,15.38816616,15.61697663,17.65547515,17.65556265,17.32458654,15.75670183,0.6778125,1,0.850138809,1,1,1,1,0.98304554,39.21641775,-96.60482225,2015,KSH1
PHN11_PHW65_0323/LH195,TXH2_2019,N,10.25,779.0431191,0,0,201,64,68,69,1.71448275,0.072857141,3.656594302,9.095434564,0.409285716,1.207678571,5.355850783,1.246142852,1.574419343,49.71999974,0.50999999,52.00785631,328.2121388,0.592857139,9.661428571,146.4478573,6.531428533,47.51499965,15.42805705,20.52131135,18.76898834,18.57032559,21.42349659,18.85281525,20.14881361,21.03072751,19.84089234,18.45000007,25.76428577,24.43254944,27.27586732,31.09000002,32.37866099,32.72435205,34.04471448,34.98200776,6.826206914,10.35000004,10.67963154,14.78766739,18.65857179,21.85071427,21.02442735,21.79614282,22.6049739,7.457816468,11.1589152,10.85119479,13.46630403,16.91193677,19.11412105,18.84765314,19.77807102,20.01419559,0.749667494,1,0.945308164,1,1,1,1,0.999698925,30.546318,-96.4329965,2019,TXH2
F42/H95,SCH1_2020,N,15.69,731.1212129,0,1.5,168.5,73,61.5,60.5,6.726129055,12.61950016,14.6709951,2.000047064,2.505749965,4.425319405,2.268462711,6.18714998,5.023091868,208.5100007,84.13000107,163.6860008,61.50999924,5.011499929,39.68149965,62.57699943,33.64599986,155.4654979,20.36817608,19.66978326,14.75526058,19.85961082,19.96014466,19.24465486,19.87809105,16.40752662,15.64625104,22.32567731,25.33999968,25.31846332,29.19710574,32.4110003,31.66961065,33.32032281,31.92909988,30.24042268,7.936741977,12.70899997,16.31955663,18.65521183,21.09725013,21.1736526,21.46883008,21.19136654,20.48826235,8.963701593,11.76593586,13.23428606,15.98846211,18.75412521,18.42141037,19.32426,18.56023321,17.40294316,0.984170504,1,0.973950938,1,1,1,1,1,34.62225,-82.736661,2020,SCH1
PHP02/PHB47,ONH1_2016,Y,30.95,634.5823203,0,1.5,198,101.5,81,80,1.979032247,2.105714291,0.92181366,1.439738287,4.720833318,2.435439396,4.62931563,1.31185227,2.043303741,61.34999967,29.48000008,13.31600007,60.28400005,10.99249999,28.54150001,172.0475013,11.37649985,61.38049932,20.24883872,21.56727634,23.77365349,22.41142308,19.3081847,20.61473607,17.12813691,15.31534219,11.6349499,10.49290321,16.47999988,25.01561457,25.51466922,28.22516696,27.99415914,27.31356147,24.49017951,20.3886015,-0.735806467,3.753571405,10.93050922,11.61184699,15.55325019,14.71775745,15.07244109,12.71620509,9.185787659,3.269306411,5.688768484,11.09209761,11.56175859,14.2216101,13.76399544,13.57642435,11.5133866,8.776899495,0.291105988,0.684668367,0.99891379,0.988093962,1,0.998165816,0.971212584,0.877977401,43.4997965,-80.451125,2016,ONH1
B14A/H95,MNH1_2020,N,23.35,738.2007317,2,1.5,234.5,119,73,69,0.943005099,6.546073051,4.140359128,4.707487639,0.452236841,2.543512757,5.928901117,4.270615044,2.501087783,29.23315806,64.90105435,50.61684199,155.384737,0.714736844,28.61736839,219.2994748,34.34473765,76.93105461,20.83516212,15.73399946,19.74828467,20.97522671,19.78574355,20.20086134,18.41063051,15.8353279,12.84776632,15.708455,18.53155205,25.82840423,28.49526052,29.92499944,28.21992409,26.52185226,25.93987928,19.74067922,2.261239378,9.186207707,13.99244036,16.68286788,19.34447405,16.90528318,15.09377646,14.30914312,8.593217323,5.370680578,7.953384306,12.46596379,14.77865871,16.66236577,14.75116185,13.25288188,13.01752467,8.666130292,0.622613994,0.838417993,1,1,1,0.988450437,0.93066422,0.780758993,44.06907839,-93.53263028,2020,MNH1
CG44/CGR01,MOH1_2019,N,17.675,731.1212129,0.25,0.75,185.5,78.5,60.75,60,4.907419428,9.604285649,1.196872498,5.110410132,2.801666578,0.134444442,2.379708247,7.113428694,4.895301043,152.1300023,67.22999954,11.80625023,164.838749,8.404999733,1.209999979,75.06875065,40.48125055,151.407499,17.06584337,18.93672998,19.67293901,19.7601386,19.15913832,21.9354776,19.8853634,16.02367873,15.25367059,21.02129029,24.39000021,28.1749685,28.34324165,30.6675001,31.10263872,30.50513849,30.12964257,28.72433606,9.960645122,13.42857129,17.39529908,18.05620523,21.36166632,20.47986097,19.32223721,20.23911926,18.26780907,9.14854411,11.68484074,14.86417974,15.32069344,18.01458321,17.78759074,16.90970541,17.17973687,15.57482707,0.941624426,1,1,1,1,1,1,1,38.8956125,-92.20883,2019,MOH1
B73/PHM49,MOH1_2_2020,N,17.7,731.1212129,0,2,229,110,65,64,2.765624954,8.119999743,10.23533287,1.900197364,6.862941181,7.496322061,3.61617108,2.901626778,3.303786197,88.49999854,40.59999871,96.12411712,56.39411764,8.455882353,68.01117661,117.8082348,21.52705885,101.3270584,18.75466287,21.25211372,22.58999711,20.28617166,20.64270943,17.48834951,18.15902921,17.2011884,14.69335169,22.18656257,30.76999931,28.84882905,30.74339714,30.90558787,31.2308437,28.74780649,29.21697892,24.17436303,12.23093753,19.21800041,17.30516703,20.0610583,19.70343171,21.50444419,18.15153395,17.40346693,12.7162556,10.41798935,16.99399986,15.18178367,17.42227064,17.30450979,18.37429674,15.5665539,15.53509051,11.41105442,0.936383936,1,1,1,1,1,0.996694042,0.965786214,38.8958275,-92.2071575,2020,MOH1
B37/H95,OHH1_2018,Y,19.6,753.0033618,0,2,274,131,60,61,3.056774178,9.537500136,1.922452157,2.385565957,3.342142727,1.8544286,3.625787622,3.100846839,2.007798001,94.75999951,76.30000108,21.73714328,80.43785755,3.342142727,18.544286,121.7649994,22.15357072,61.29071423,19.31095449,14.64635724,20.72885596,20.94366931,19.27592959,20.95649317,17.99811894,17.37176276,15.4204415,15.33419351,20.99500024,26.65036435,28.81994394,32.41071347,30.66092864,28.53085842,26.94730604,24.73435724,3.376129027,12.14624989,14.55931522,16.57316253,19.49428545,18.47499986,17.24720124,15.03980618,12.05347394,5.35712311,9.832246518,13.13485159,14.9051591,17.95401161,16.59941793,15.03822312,13.39555861,11.48513665,0.534285712,0.926785712,1,1,1,1,0.999125,0.970735544,39.85688825,-83.671225,2018,OHH1
B37/H95,GAH1_2019,N,15.31,745.3446097,27.5,1.5,182.5,95,65,62.5,4.224827643,1.980000006,1.908236784,2.106472486,0,0.090714284,5.691865924,1.473428559,3.045620547,122.5200016,17.82000005,22.37999977,72.04999958,0,0.725714275,156.5528547,7.367142797,92.8692846,16.4500471,17.48633936,17.40259385,20.9384506,22.51147406,21.84430948,17.66714436,19.76491442,19.71139218,21.20655165,22.58666695,26.81574745,29.5228407,35.04273814,35.70196446,32.62270198,33.62814315,33.36893722,7.214827602,8.595555623,14.04498416,14.47543411,19.21654783,20.58464301,20.89661115,21.78014287,21.253149,8.370628681,9.274220075,12.91642218,14.40044999,18.67726543,19.28313207,18.63395398,19.63555568,19.18049021,0.90216748,0.984365085,1,1,1,1,1,1,31.50582525,-83.55515025,2019,GAH1
CG119/CG108,ILH1_2019,Y,13.85,757.5085102,0,0,228,116.5,56.5,54.5,3.922903261,5.481666605,1.00366755,4.244691953,0.864761892,1.289377346,1.227411081,2.864647074,2.116070648,121.6100011,32.88999963,10.01785682,147.0385723,1.34571428,11.77428573,45.42428628,20.70571404,64.49999962,18.80145381,19.65322081,22.67392072,19.84274881,20.61125065,20.0231267,19.28032854,15.59344345,14.97056188,19.78774188,27.49499989,27.66771062,28.39175175,31.90428638,30.86753304,28.53869606,27.75133519,26.64299619,8.822580737,16.11666648,15.73801632,17.44140675,20.6435711,19.81749468,16.71837596,16.74759351,14.38373492,8.392897398,14.01107102,13.933587,15.08804109,18.28423173,17.40393302,14.78980986,14.45116262,13.1086535,0.871382484,1,1,1,1,1,1,0.979387755,40.0587105,-88.2298385,2019,ILH1
CG44/CGR01,NYH3_2015,N,15.5,731.1212129,0,4.5,213,95,68,67.5,4.268387075,0,1.234803629,3.315485905,3.744705864,3.708743319,2.034738589,2.091907533,2.160160663,132.3199993,0,17.66999944,111.4647067,9.843529393,38.42352946,75.35117763,21.49235322,65.37235311,20.95885717,21.76160183,22.01003167,20.47654391,19.37507164,18.84800849,18.09954582,14.25866518,12.17165493,15.21516129,28.41399994,23.9726608,27.94852153,28.22411762,29.00645443,26.88612691,22.65429039,19.02039094,3.206451565,16.00799999,11.62235867,15.61032629,16.7502941,17.72633694,14.88804443,11.60832066,7.356588233,5.349626667,14.38734971,10.95773449,14.17183136,14.61937489,15.41213998,13.31670354,10.34569698,7.707711279,0.504331792,1,0.97267375,0.996219796,1,0.995345527,0.95775528,0.812032548,42.7233625,-76.6555945,2015,NYH3
B14A/OH43,WIH1_2016,Y,22.6,696.3672116,0,2.5,258.5,142,73,72.5,2.076129018,1.94750002,4.430291291,4.068377178,0.606590927,8.204471101,6.520888551,7.285801826,4.413191112,64.35999957,23.37000024,50.66818307,153.9786358,1.017727305,87.41727302,222.4604529,58.95590957,134.9268184,19.92805462,20.9108026,19.53546339,20.65690042,18.97296773,19.76360502,17.50876714,15.21370917,12.23883056,16.70258062,17.57583312,27.08182728,26.49130857,27.22159082,28.35833875,27.6700069,25.1458901,22.98674642,3.327419363,4.990833327,14.04723809,14.47423798,17.58636334,16.7186736,17.17399145,14.32051147,12.5735533,5.875866612,6.419508974,12.98865398,12.92924289,14.50224274,14.72651534,14.55658067,12.23924581,10.7486024,0.621198161,0.7653869,1,1,1,0.999967803,0.998306277,0.970976554,43.05632525,-89.53194975,2016,WIH1
B73/PHN82,SCH1_2020,N,13.93,731.1212129,2,1,102,37,59,58,6.726129055,12.61950016,14.6709951,2.000047064,2.505749965,4.425319405,2.268462711,6.18714998,5.023091868,208.5100007,84.13000107,163.6860008,61.50999924,5.011499929,39.68149965,62.57699943,33.64599986,155.4654979,20.36817608,19.66978326,14.75526058,19.85961082,19.96014466,19.24465486,19.87809105,16.40752662,15.64625104,22.32567731,25.33999968,25.31846332,29.19710574,32.4110003,31.66961065,33.32032281,31.92909988,30.24042268,7.936741977,12.70899997,16.31955663,18.65521183,21.09725013,21.1736526,21.46883008,21.19136654,20.48826235,8.963701593,11.76593586,13.23428606,15.98846211,18.75412521,18.42141037,19.32426,18.56023321,17.40294316,0.984170504,1,0.973950938,1,1,1,1,1,34.62225,-82.736661,2020,SCH1
B73/PHM49,ILH1_2016,N,16.75,718.2493605,0,2,258.5,122,74.5,72.5,2.976905237,4.388409027,2.266536067,5.61207631,2.384848472,3.596551307,3.312350719,4.357499975,4.793790319,93.71999985,46.35499933,33.46068128,180.4177266,4.628863606,41.73386359,104.1413657,28.32431801,148.2020453,18.82488241,16.77241452,21.32061235,20.18653607,20.74234538,18.07981042,18.8666989,17.85818253,16.07680721,18.05081144,19.20204525,23.0422997,29.42292662,27.90308728,26.97317812,29.60218573,29.15938829,28.17592877,4.960040295,8.531272602,10.4507586,17.10049505,15.99717794,16.84881478,19.41054858,18.84383108,17.09740687,6.781235125,7.969267807,10.17119166,15.41614171,14.29579798,14.15384892,16.51995977,16.04951253,14.84458937,0.666766271,0.897956159,0.946860721,1,1,1,1,0.999883117,40.0607245,-88.2338815,2016,ILH1
B37/H95,TXH3_2019,Y,10.96,804.3556168,0,0,217.5,90,70.5,70,1.71448275,0.072857141,3.656594302,9.095434564,0.409285716,1.207678571,5.355850783,1.246142852,1.574419343,49.71999974,0.50999999,52.00785631,328.2121388,0.592857139,9.661428571,146.4478573,6.531428533,47.51499965,15.42805705,20.52131135,18.76898834,18.57032559,21.42349659,18.85281525,20.14881361,21.03072751,19.84089234,18.45000007,25.76428577,24.43254944,27.27586732,31.09000002,32.37866099,32.72435205,34.04471448,34.98200776,6.826206914,10.35000004,10.67963154,14.78766739,18.65857179,21.85071427,21.02442735,21.79614282,22.6049739,7.457816468,11.1589152,10.85119479,13.46630403,16.91193677,19.11412105,18.84765314,19.77807102,20.01419559,0.749667494,1,0.945308164,1,1,1,1,0.999698925,30.546318,-96.4329965,2019,TXH3
PHB47/PHZ51,TXH1_2016,N,10.4,711.491638,0,2,215.25,68.75,68.5,68.75,1.633666698,16.13999993,0.99702422,4.719865603,0.129393939,3.277272727,13.06232457,0.703636358,1.017125621,49.01000094,112.9799995,14.5313639,177.3549991,0.33090909,36.05,378.0672674,3.179999969,30.53454577,13.9726292,10.72874144,17.88940951,17.80076093,20.55685321,19.77792414,17.90480363,20.8338604,20.14326093,22.32500016,23.95000022,24.48309256,26.40498513,28.5388636,28.63545455,30.12870319,34.35404525,35.58838723,6.034666632,13.33571414,9.675379644,13.12758779,15.78530267,16.33764454,20.13902853,23.08186362,24.00118421,8.473379033,11.29783551,10.5045992,12.46111665,14.43681279,14.72204148,17.12368238,20.53225114,20.87599038,0.915869048,1,0.972225207,1,1,1,1,1,30.54708625,-96.43393475,2016,TXH1
LH195/PHN37,ARH1_2016,N,16.5,792.2625115,0,2,199,117,69,68,12.62656226,6.052222146,7.859593922,4.411032368,3.769999921,0.095833332,1.834913509,2.950363528,2.931715563,404.0499923,54.46999931,101.1431819,160.496816,7.539999843,0.824999988,46.86636396,14.75181764,90.88318244,16.40757677,14.40289243,17.41332625,19.31399891,17.48165414,22.15918181,19.7781726,18.25208951,17.22596404,20.37124979,20.08666674,25.25253507,26.30445415,29.50681779,32.27019592,33.22074717,33.17606868,32.75999986,8.53968759,10.04999993,14.84655054,15.67568893,20.10318184,20.90335237,23.01320039,23.46584116,23.35664232,8.376579132,8.623890092,12.4075181,13.38568101,16.80499981,18.57005087,20.09384313,20.24603027,19.89808151,0.932198657,0.999841266,1,1,1,1,1,1,34.72952,-90.7603555,2016,ARH1
W10001_0022/PHB47,WIH1_2017,Y,17.05,719.5365458,0,2,235,113.5,73,73,3.894838602,1.694000003,3.49156578,6.251914317,26.29780264,12.3515148,1.782621048,1.031219451,2.019413967,120.7399967,16.94000003,60.77000046,238.2086357,55.48409002,148.2181776,77.27181808,11.13545426,60.74545419,17.96009764,21.56986256,18.71582301,20.73316127,19.69440102,19.58726141,19.1692292,15.69151392,12.21998586,16.03451621,20.2119998,20.22998088,26.71060266,27.00553033,27.16428033,24.80808837,24.03641879,21.845045,3.37838715,6.260000002,9.268565708,14.6662765,15.35575767,16.21109857,13.17589581,11.52521119,9.509429623,5.507434962,7.720411242,8.664602637,13.14891279,13.46068042,13.9043846,11.67856357,10.90146065,9.608265423,0.606900932,0.8735357,0.867893568,1,1,0.998220242,0.971647403,0.89569217,43.05668125,-89.5308135,2017,WIH1
PHW52/PHN82,INH1_2015,N,14.6,719.5365458,0,5.5,203,76,69.5,67.5,2.968064535,5.608750075,2.401797478,2.620596579,1.049062505,3.048312443,3.454130844,1.332533481,1.484370975,92.01000059,44.8700006,26.44312483,85.12437463,1.715625018,30.48312443,116.5724995,9.316249996,45.68062523,19.44608656,13.59046638,21.88315593,21.65689439,20.60130358,19.73326552,18.77560381,17.99738388,15.64927463,15.67580632,21.0562501,27.44396829,29.52449332,32.66781175,30.16981242,28.17317586,28.46934151,25.5406298,3.004516139,13.05249977,15.22068343,16.62214482,19.56843758,18.02818774,16.71489706,16.46563638,12.56847521,5.360930658,9.9438759,13.725819,15.26696414,18.11812466,16.1828721,14.63810214,14.67667849,11.95902497,0.609504607,1,1,1,1,1,1,0.986081101,40.477075,-87.000205,2015,INH1
LH74/PHN82,WIH1_2016,Y,20.6,777.4598813,0,2,234,119.5,73,74,2.076129018,1.94750002,4.430291291,4.068377178,0.606590927,8.204471101,6.520888551,7.285801826,4.413191112,64.35999957,23.37000024,50.66818307,153.9786358,1.017727305,87.41727302,222.4604529,58.95590957,134.9268184,19.92805462,20.9108026,19.53546339,20.65690042,18.97296773,19.76360502,17.50876714,15.21370917,12.23883056,16.70258062,17.57583312,27.08182728,26.49130857,27.22159082,28.35833875,27.6700069,25.1458901,22.98674642,3.327419363,4.990833327,14.04723809,14.47423798,17.58636334,16.7186736,17.17399145,14.32051147,12.5735533,5.875866612,6.419508974,12.98865398,12.92924289,14.50224274,14.72651534,14.55658067,12.23924581,10.7486024,0.621198161,0.7653869,1,1,1,0.999967803,0.998306277,0.970976554,43.05632525,-89.53194975,2016,WIH1
LH198/PHZ51,GAH2_2016,N,12.1,731.1212129,0,2,258,213,55,52,1.486129045,0,7.316392826,2.079782856,1.718421064,1.264671045,2.43256314,4.61773679,3.235456168,46.07000041,0,60.50999928,55.97210474,3.436842128,10.11736836,67.31736801,23.15894711,100.2847377,20.21189387,22.87583466,19.10112302,21.34036575,17.85876091,19.83818451,18.50479945,15.9975398,17.29687983,27.80677426,30.50400009,32.06010812,34.2138269,34.93842035,34.86282896,34.62455114,33.33373696,32.80003392,13.8351613,16.55600014,19.35906305,20.32019684,22.9621054,21.76434208,22.04984942,22.29670187,20.14649938,13.32566871,15.60302283,17.72531793,18.78372546,20.36638125,19.89190838,19.9091667,19.70080105,18.42340329,1,1,1,1,1,1,1,1,33.717295,-83.3110275,2016,GAH2
B14A/OH43,ARH1_2016,N,18.75,767.1623994,0,4,194,118,71,69,12.62656226,6.052222146,7.859593922,4.411032368,3.769999921,0.095833332,1.834913509,2.950363528,2.931715563,404.0499923,54.46999931,101.1431819,160.496816,7.539999843,0.824999988,46.86636396,14.75181764,90.88318244,16.40757677,14.40289243,17.41332625,19.31399891,17.48165414,22.15918181,19.7781726,18.25208951,17.22596404,20.37124979,20.08666674,25.25253507,26.30445415,29.50681779,32.27019592,33.22074717,33.17606868,32.75999986,8.53968759,10.04999993,14.84655054,15.67568893,20.10318184,20.90335237,23.01320039,23.46584116,23.35664232,8.376579132,8.623890092,12.4075181,13.38568101,16.80499981,18.57005087,20.09384313,20.24603027,19.89808151,0.932198657,0.999841266,1,1,1,1,1,1,34.72952,-90.7603555,2016,ARH1
B37/MO17,SCH1_2018,N,14.555,731.1212129,29,2,209,128,62.5,64.5,5.509375073,3.372500002,5.775327928,7.728127661,4.71095229,3.130603142,3.123485158,2.01328566,5.79306447,176.3000023,26.98000002,97.60999952,245.6735731,5.415714213,31.8442854,83.93428482,10.53785687,179.5849986,18.64772365,19.28692877,21.1730546,18.16318131,18.84742333,19.2548603,19.994513,19.31783344,16.30139442,22.53906247,22.53374982,23.09020479,27.61870045,28.0654766,28.90856809,32.58479132,33.48333298,31.1168664,9.301562469,9.311250091,8.762400081,17.50665347,16.7615475,18.38295894,21.20797915,21.67128537,20.80767273,9.591191253,9.400074843,9.574505228,14.76793775,14.51962258,15.72381397,18.86169653,19.45105318,17.96288574,0.951841518,1,0.982626499,0.991514695,1,1,1,1,34.6223015,-82.7364835,2018,SCH1
LH74/PHN82,KSH1_2015,N,15.2,765.8752142,0,2,229,110,85,82,0.688124985,3.518749885,2.537239536,4.634326915,6.340784251,4.013516285,5.753010874,3.95559662,1.81791271,22.01999953,28.14999908,47.40176476,147.1705882,9.165882307,38.18235242,161.646473,23.74705871,56.35529401,19.48910828,20.34062409,19.21958791,21.30664108,18.00351726,18.80818483,18.60066932,17.86718078,18.78253622,17.69406253,22.96750021,19.85221485,29.31892792,29.11705877,31.41670577,31.16760655,30.50505886,29.96204923,3.297187492,8.938749969,8.792561365,16.998743,18.09705929,19.84989561,20.1377744,20.03282345,17.06836811,6.184738542,9.476230158,8.381520189,15.38816616,15.61697663,17.65547515,17.65556265,17.32458654,15.75670183,0.6778125,1,0.850138809,1,1,1,1,0.98304554,39.21641775,-96.60482225,2015,KSH1
B37/OH43,DEH1_2018,N,18.425,723.0763052,0,1.75,198,86.5,63.25,63.75,3.413225795,4.724545566,2.007753279,2.760624154,0.287142856,8.862777665,3.915865231,4.933581623,5.971971652,105.8099996,51.97000122,28.2621423,90.35856978,0.861428567,79.76499898,101.102142,26.37928568,184.7400021,18.24738333,20.30334785,18.96061465,21.19242313,20.3949075,18.85770366,17.73482038,14.47844699,15.08372737,17.38161278,18.28454564,22.01469092,28.14795471,32.28714262,31.68230149,32.09286912,30.42106803,28.79790015,6.703871004,7.41363637,12.85857977,17.97497576,22.0019049,21.31992057,22.76420594,22.26141136,20.21526036,6.825711165,7.366383816,10.38385741,15.21158117,19.10753111,18.47850441,19.35879976,18.34204267,16.58274325,0.781601378,0.839058448,0.989425295,1,1,1,1,1,38.65164475,-75.44913625,2018,DEH1
PHG39/PHN82,IAH4_2015,Y,18,745.2802504,22.5,1,260,138,65,64,1.42451612,4.854615514,2.513668144,6.351127419,5.46999979,2.154687441,1.85099418,0.335758934,4.064770202,44.15999973,63.11000168,35.58999979,218.2399999,10.93999958,20.30812445,58.48687407,2.377500039,125.1143763,19.83997888,19.28772805,16.02270398,20.69822917,17.27718186,21.35831173,20.17303565,19.59360772,15.6142427,15.83032262,16.78769229,22.26164163,27.88725423,29.37999988,31.52784708,28.69895342,30.18404469,25.46833276,2.473548389,5.024615425,13.48280789,16.59868734,20.37374985,19.78628468,17.37298211,16.89515858,12.68514048,5.318693913,6.228847238,10.78291245,14.47529064,16.87687486,17.66054739,15.18141656,15.71210426,12.05907357,0.585391697,0.659230777,0.98994413,1,1,1,1,0.952600636,41.19970961,-91.49362406,2015,IAH4
CG44/CGR01,NEH2_2018,Y,11.1,801.2728081,0,2,237.5,93.5,65,64,1.223548393,0.707272736,4.763911635,2.422660693,9.359230876,1.187769238,2.22139935,1.060615372,2.655643509,37.93000019,7.780000091,61.58923048,72.52538565,18.71846175,11.03461544,72.02230704,6.795384554,82.07230774,19.8632896,17.86074517,17.24350838,22.63499015,18.62862352,21.21286184,19.62237806,18.45252819,16.56870138,17.6919355,17.47909086,23.04657186,30.81178887,30.82346183,31.15499996,29.41523597,30.138927,26.57117624,3.026129,6.979090886,13.86801705,18.31582591,19.94076905,19.05673485,17.52505525,17.69200753,12.69636803,6.275299993,6.965919572,11.10889174,16.66188215,17.38211544,17.1119836,15.61857368,16.09025205,12.68735507,0.68033411,0.762240243,1,1,1,0.996687975,0.997695055,0.910447978,41.38042275,-96.55988375,2018,NEH2
B14A/MO17,INH1_2019,Y,26.68,828.4324166,0,2,237.75,126.25,63,61.5,4.638124973,1.291666667,4.254883356,1.873002707,7.542143106,0.579848493,2.745608418,1.194209184,2.037834084,148.4199991,7.75,53.11714339,53.83785783,14.64785763,6.669285808,98.22214476,12.45785718,61.58714233,19.82387961,19.183822,19.33565513,20.5079362,16.64856858,22.30931036,17.46113557,15.79330395,12.43542766,23.34687504,26.15000025,24.44131608,31.06458042,27.9682139,28.43625549,27.60941131,25.59340811,22.91422815,11.29093746,15.88166634,14.27159151,19.40569109,18.2715475,15.1189393,15.69895629,13.38685715,10.33005226,10.62626718,13.2428989,11.86638398,17.27971266,15.26406297,14.09359416,13.93027737,12.23653025,10.46761426,0.918526784,1,1,1,1,0.999060374,0.966691327,0.86252861,40.477063,-87.00020175,2019,INH1
B73/MO17,NEH4_2015,N,14.65,792.2625115,0,2,255,130,65,55.5,2.821875036,0,3.668207424,2.0125769,1.951249957,2.654893884,1.684158262,0.190010425,1.166079967,90.30000114,0,33.89000034,59.04687595,1.951249957,28.04999942,59.1787506,1.401875056,35.09749981,18.84220009,27.31064491,20.41342533,20.52862815,19.03072298,18.81303122,18.33826559,17.15407273,12.68489203,24.01437524,30.79399948,29.66091772,30.90712841,30.81250072,28.65153035,29.50292414,26.73776808,20.93262179,13.35843744,15.59799976,18.4981335,19.26878801,20.26031268,17.34358901,16.24316685,11.04417556,7.09840123,11.80342709,15.44887437,16.14310254,17.09436255,17.53736601,15.18702607,15.25106182,11.88303257,8.618375536,0.931774556,1,1,1,1,0.97284651,0.984144349,0.784438609,41.16732275,-96.41663225,2015,NEH4
2369/LH123HT,KSH1_2018,N,15.30833333,792.9061041,13.16666667,5.833333333,229,110,65,64,0.123225804,1.309000027,2.835063753,1.245921432,6.190769489,0.847777789,5.121826591,3.691923017,0.576771715,3.819999933,13.09000027,33.35999966,37.39923182,6.190769489,7.630000105,140.8584615,22.1515381,17.82230777,23.1370286,19.20606413,23.76917973,25.01946837,21.72317813,23.99633906,18.76579115,18.12170014,19.24157322,22.75709664,20.771,27.08892973,34.13484851,36.79923102,35.27700868,33.17677556,30.51957897,31.48973893,3.915806478,6.778999925,10.75682887,16.60383588,18.26846137,18.37008543,18.87125761,16.15291204,15.043086,8.255034949,8.267600828,11.90551203,16.73972083,17.84021903,17.73256873,17.54545708,15.43757555,15.43621363,0.847615199,0.789999991,1,1,1,1,1,0.970122947,37.810107,-100.775188,2018,KSH1
F42/OH43,IAH1_2019,N,30.1,646.81058,0,11.5,214,100,65,64,8.157187574,0.75333335,7.315577374,1.144389074,0.212857144,0.731688293,3.103679801,5.185721735,4.918979992,261.0300024,4.5200001,87.30642721,32.26642813,0.212857144,8.04857122,121.5035704,46.39999972,147.9399989,18.01904646,22.72114833,18.53868323,20.84617194,19.20093738,21.91428985,16.4832458,14.23349405,11.00878768,22.30999994,27.52999973,24.52617789,31.4481278,28.63047609,29.47870132,27.11002697,25.00731411,20.46577188,10.93062501,14.96333329,14.91684483,20.02766766,18.36452364,16.34071412,15.67686671,13.06746994,9.592819484,10.11779152,13.58137929,12.09039624,17.73903178,15.5681627,15.08353594,13.70818638,12.14295105,9.387875541,0.879263394,1,1,1,1,0.994329881,0.928985237,0.797752907,41.1992562,-91.4941418,2019,IAH1
B14A/OH43,NEH2_2018,Y,15.95,758.7956954,0,1.5,280.5,99,65,64,1.223548393,0.707272736,4.763911635,2.422660693,9.359230876,1.187769238,2.22139935,1.060615372,2.655643509,37.93000019,7.780000091,61.58923048,72.52538565,18.71846175,11.03461544,72.02230704,6.795384554,82.07230774,19.8632896,17.86074517,17.24350838,22.63499015,18.62862352,21.21286184,19.62237806,18.45252819,16.56870138,17.6919355,17.47909086,23.04657186,30.81178887,30.82346183,31.15499996,29.41523597,30.138927,26.57117624,3.026129,6.979090886,13.86801705,18.31582591,19.94076905,19.05673485,17.52505525,17.69200753,12.69636803,6.275299993,6.965919572,11.10889174,16.66188215,17.38211544,17.1119836,15.61857368,16.09025205,12.68735507,0.68033411,0.762240243,1,1,1,0.996687975,0.997695055,0.910447978,41.38042275,-96.55988375,2018,NEH2
B14A/H95,ONH1_2016,N,30.15,636.5130982,0,9.5,213.5,128,89,85,1.979032247,2.105714291,0.92181366,1.439738287,4.720833318,2.435439396,4.62931563,1.31185227,2.043303741,61.34999967,29.48000008,13.31600007,60.28400005,10.99249999,28.54150001,172.0475013,11.37649985,61.38049932,20.24883872,21.56727634,23.77365349,22.41142308,19.3081847,20.61473607,17.12813691,15.31534219,11.6349499,10.49290321,16.47999988,25.01561457,25.51466922,28.22516696,27.99415914,27.31356147,24.49017951,20.3886015,-0.735806467,3.753571405,10.93050922,11.61184699,15.55325019,14.71775745,15.07244109,12.71620509,9.185787659,3.269306411,5.688768484,11.09209761,11.56175859,14.2216101,13.76399544,13.57642435,11.5133866,8.776899495,0.291105988,0.684668367,0.99891379,0.988093962,1,0.998165816,0.971212584,0.877977401,43.4997965,-80.451125,2016,ONH1
B14A/H95,TXH2_2020,N,15,773.2765293,0,2,212.725,79.375,68.75,69.75,2.284333333,0,4.621906019,2.982124861,1.655000005,6.689114015,2.894056698,2.615892851,2.528400138,68.53,0,55.88714266,111.3664289,1.655000005,70.91857161,82.98143064,12.87071426,76.16571382,13.91343843,13.3863348,15.08661116,19.80328892,19.03358821,19.2160028,19.61198116,21.5690046,17.9190584,20.02266652,27.17999992,26.59088772,26.49063582,29.80749984,29.13094588,32.17534358,33.00407163,34.57616138,6.794333295,17.20400028,15.22554111,13.60666406,17.96904786,16.63267817,20.78659354,19.79317827,24.13923583,7.901247141,14.27292515,13.36557264,12.73068931,16.08957262,15.12192719,18.39831967,18.39239984,20.46927813,0.821357143,1,0.992404768,0.99375244,1,1,1,0.999043315,30.53825625,-96.42790225,2020,TXH2
PHW52/PHM49,ONH1_2017,Y,17.7,731.1212129,0,2,229,110,65,64,4.42290319,4.904999876,1.545173221,3.420435244,1.695375006,2.594700004,1.855534774,1.54565171,2.383111348,137.1099989,49.04999876,23.52600009,140.8034994,5.378000009,36.46150006,95.23350107,29.85300009,72.44250006,18.65662235,17.08545341,23.10813164,20.12586768,18.11232318,19.44819915,16.33652997,11.62209215,7.957733996,13.94322577,18.20700026,22.35689536,24.80045755,25.17183321,25.2296929,22.79396283,22.13957367,13.29532023,3.578387066,9.706999969,10.10387851,14.12185296,14.82349991,13.63261195,10.3904862,9.847475595,3.166289439,4.958212412,8.025894563,9.659097931,11.97096233,12.35740613,11.98311106,9.953455995,10.0654016,5.273375752,0.439723498,0.877642858,1,1,1,0.972410901,0.840292505,0.515578473,43.49546,-80.42596875,2017,ONH1
PHB47/PHN82,ONH2_2016,N,19.5,724.6852867,0,1.5,221.5,102.5,72,66.5,1.435483875,1.740833327,1.463802716,3.022687524,0.150999999,1.134659085,3.046446673,1.693503778,2.765116665,44.50000012,20.88999993,18.84600039,117.1590009,0.150999999,12.25349994,101.0444998,13.16149993,84.26899996,19.72563927,22.19747464,21.68954048,21.77365896,18.98664827,19.92678304,16.69906166,15.68152671,12.9072029,14.10741935,17.58083336,26.00758685,26.04894451,27.78099985,28.79287246,28.2480382,25.9224786,23.75348014,4.257419363,7.13166666,15.03828811,14.1477789,17.72699971,17.33924119,18.24672102,15.95494667,14.17526013,5.131346137,6.986841243,12.85116395,12.65171997,14.84296497,15.26027205,15.31782021,13.26534606,11.67621189,0.511244241,0.799851209,1,1,1,1,1,0.975829282,42.4530035,-81.88279875,2016,ONH2
W10005_0107/PHB47,ARH1_2017,N,12.65,766.5188068,0,2,181,86.35,65,65,3.058125025,3.532857077,9.871688678,6.405160528,0.516363615,5.988171668,5.119232493,3.102318153,5.34158356,97.86000079,24.72999954,132.0327285,211.6218184,0.569545432,54.36818138,136.8913653,16.08272713,165.5890903,17.13974981,16.55343887,20.38424011,18.76225527,22.81364793,19.06964508,19.53553475,19.77193111,17.12972935,24.60906261,23.96000045,24.77057006,28.06605652,30.35469691,31.5146664,31.30577636,32.78459133,30.91587993,11.9175,14.17857156,11.8445801,17.60850246,18.97249995,21.30615642,21.39979275,22.50533316,21.62237538,11.1639709,11.77578055,11.22655186,14.97537354,16.74359516,18.41041141,18.33049426,19.54768126,18.22457608,1,1,1,1,1,1,1,1,34.7272515,-90.76032575,2017,ARH1
TX779/LH195,MOH1_1_2020,N,17.9,731.1212129,0,0,225.5,120.8333333,63.5,61.83333333,2.765624954,8.119999743,10.49656654,1.909885915,5.802857127,7.415295831,3.691475556,2.293301892,3.400930865,88.49999854,40.59999871,96.7978566,57.0957143,7.737142835,67.39857156,118.848571,17.52928566,104.715714,18.75466287,21.25211372,22.49923535,20.31658939,20.84622072,17.68630925,18.12476098,17.46293798,14.64158327,22.18656257,30.76999931,28.86546125,30.72469998,30.62226157,31.26253243,28.67352632,29.54480095,24.35225034,12.23093753,19.21800041,17.35636515,20.03188031,19.40511944,21.45309498,18.10676495,17.58972003,12.9136675,10.41798935,16.99399986,15.213465,17.3995364,17.01369051,18.36589209,15.51205264,15.80164337,11.56818364,0.936383936,1,1,1,1,1,0.995985623,0.962870504,38.8978375,-92.2070925,2020,MOH1
B37/H95,MIH1_2016,N,21.35,709.8826565,0,1.5,247.5,138.5,64,63.5,3.213870927,0.372000003,1.277668238,2.072144594,0.204761899,2.382636341,6.277866916,3.129595251,4.115734243,99.62999874,1.860000014,16.77857134,74.4033328,0.614285696,24.34142835,217.3680916,23.88571438,123.5814282,20.04481233,22.69628944,22.57460654,21.19066928,19.62511718,19.41470496,17.43536011,14.16523572,12.41239439,17.74322581,29.20999985,25.57947765,28.1508514,27.23547651,30.32783564,28.27294529,26.6388532,22.50219404,5.299677434,16.33600006,11.90361174,14.70447611,15.74579377,17.52671,16.25511672,15.58650841,10.86825081,6.615827776,14.89908974,11.62365975,13.82943527,13.70908531,16.01583991,14.48649579,13.48265,10.09129455,0.734400922,1,1,1,1,0.999987733,0.99326559,0.936590208,42.41206675,-84.2952625,2016,MIH1
PHP02/PHB47,WIH1_2015,Y,25.3,689.9312854,0,0,265,142,65,64,4.730000059,9.059999784,2.430610682,6.190059866,3.242812514,1.739310909,2.563222068,2.582604527,2.064862235,151.3600019,54.3599987,32.30062549,198.0887501,6.485625029,21.11437514,113.2525011,35.42937557,62.48000012,19.32367544,22.19104989,23.8972515,19.04105101,21.62804324,20.72553659,16.09255797,13.7227876,9.595561915,19.95718755,28.15000025,26.05326099,28.85932006,29.07385437,26.51056077,24.82739399,20.18089026,14.51549808,8.517187543,15.30499983,11.82802944,17.48783518,16.48010375,14.49615378,12.31509137,8.581945626,2.680440183,8.558350873,13.98301754,11.81015597,15.26183828,14.95581898,12.98753542,11.68123469,8.628108428,5.087550731,0.777276777,1,1,1,1,0.929186389,0.833919484,0.505939954,43.05511725,-89.528525,2015,WIH1
B37/MO17,NEH2_2018,Y,14.95,766.5188068,0,2,289.5,119,65,64,1.223548393,0.707272736,4.763911635,2.422660693,9.359230876,1.187769238,2.22139935,1.060615372,2.655643509,37.93000019,7.780000091,61.58923048,72.52538565,18.71846175,11.03461544,72.02230704,6.795384554,82.07230774,19.8632896,17.86074517,17.24350838,22.63499015,18.62862352,21.21286184,19.62237806,18.45252819,16.56870138,17.6919355,17.47909086,23.04657186,30.81178887,30.82346183,31.15499996,29.41523597,30.138927,26.57117624,3.026129,6.979090886,13.86801705,18.31582591,19.94076905,19.05673485,17.52505525,17.69200753,12.69636803,6.275299993,6.965919572,11.10889174,16.66188215,17.38211544,17.1119836,15.61857368,16.09025205,12.68735507,0.68033411,0.762240243,1,1,1,0.996687975,0.997695055,0.910447978,41.38042275,-96.55988375,2018,NEH2
W10005_0107/PHB47,NYH1_2017,N,15.25,731.1212129,0,5.5,210,84.5,73,73,4.758709581,4.139999986,2.953024942,5.715506232,4.320872878,2.701732063,2.616328443,1.022630585,3.614268439,147.519997,37.25999987,45.12618999,219.9223815,11.26857107,35.6957141,128.4247627,13.30476207,110.8900009,18.97444351,17.81005277,22.0763727,19.38397475,18.56141379,19.22534974,16.71382568,13.43506643,9.037548332,17.06967752,20.23333359,22.7745171,25.66488699,26.70396817,25.32691524,23.26007272,23.96840526,17.61119819,5.964193534,10.19,10.93717632,15.20362294,16.36293638,14.60656728,11.31793404,11.56685323,6.669544781,6.641127344,8.727253675,10.15270493,12.79474615,13.71935226,12.37567782,10.45035179,10.9124923,7.239151369,0.685760371,1,1,1,1,0.982493678,0.953634339,0.701363064,42.72880835,-76.6515625,2017,NYH1
TX714/TX779,ARH1_2018,N,31.5,795.4804746,0,2,182,110,69,65,6.807499945,4.709999936,2.627776375,4.735912158,3.619166647,6.960178526,4.330437569,0.796285741,3.374677434,217.8399982,32.96999955,35.48928591,145.2942843,5.831428528,62.51428531,109.7978577,4.003571561,104.6150005,17.99706709,21.70226043,20.05949982,19.52680112,21.59397623,17.99264813,18.0574776,19.33215022,18.30424355,21.07062507,24.31857109,24.02168934,29.45279857,31.73095224,30.70692423,32.5717108,33.29521443,31.83741963,10.26718749,12.03571429,12.70205088,18.67412083,19.99154783,20.64677572,22.90335213,23.23585706,21.28834102,9.223277534,11.01036775,11.27832322,16.11267445,17.86206546,17.6775748,19.72770382,20.19469271,18.54368809,0.945725441,1,1,1,1,1,1,1,34.729679,-90.7603455,2018,ARH1
LH195/LH82,IAH3_2015,N,19.8,729.190435,1.5,4.5,230,114,65,64,1.888124991,2.913571392,3.784813995,6.971928843,0,3.257500064,1.487385228,2.541446469,4.507444947,60.41999972,40.78999949,55.43999982,241.6600003,0,32.57500064,50.31437471,24.68500039,138.7756267,19.80172794,20.03998334,15.9141292,20.68283491,21.69136486,21.24428636,20.63784564,18.68301758,14.92198489,14.64187506,16.6814285,21.6371088,27.61372247,30.87885427,30.3035625,28.596254,28.51656267,24.33389908,0.83250004,3.600714236,12.24542872,16.05178152,19.47364565,18.11006255,15.99319583,14.30373217,10.64901215,4.605131548,5.787499831,10.11465775,14.1164012,17.17624996,16.25391669,14.57670766,13.97583386,10.87542788,0.501462055,0.634540813,0.981270753,1,1,1,0.968879463,0.933929792,41.97585629,-92.24291804,2015,IAH3
CG60/LH162,IAH1_2015,Y,14.95,733.6955833,0,6,207,108.5,65,64,1.566451638,2.213076954,8.402418557,1.323463692,0.084411761,2.297359398,2.93999255,2.37101191,2.732793763,48.56000078,28.7700004,122.1399999,43.52999979,0.168823523,22.82352863,100.1182349,16.67000003,83.81294001,20.43214903,18.85811498,14.63317728,22.31276759,19.14227258,22.20806523,19.83862588,18.33763158,15.0581957,16.08774191,16.64538457,21.84697853,28.7334183,30.26852911,31.30747052,29.05105531,29.39636272,24.66946357,1.839032284,4.865384661,13.12892854,16.86768962,20.05941139,18.05705196,16.3929614,15.43749916,11.17229855,5.447129731,6.098188577,10.48240964,14.99632473,17.16639266,16.72884186,14.96924927,14.77137221,11.30644361,0.593087559,0.682994502,0.988452545,1,1,0.997626801,1,0.896934674,41.9980952,-93.69336973,2015,IAH1
CG119/CG108,WIH1_2019,Y,19.85,705.3775082,0,0,241.665,122.5,65,64,3.104193578,4.990909143,3.989206625,5.063632664,7.174102343,5.657788874,3.979490855,4.117971668,7.043559998,96.23000091,54.90000057,56.46538491,184.9676922,7.656153606,56.9199983,170.6046141,43.34153838,211.8461548,19.32800511,20.47989629,21.14585761,19.94081469,20.4834897,19.00171798,17.70480678,14.70759561,11.13260624,14.4303226,19.6027272,23.71186264,26.54399323,29.1737175,29.51828996,25.99775321,22.10125555,19.22207941,3.044193574,6.375454621,11.90649765,15.02653282,17.46782019,18.4264638,14.78313726,11.24849031,9.42963116,4.974875238,7.497369644,10.75801096,13.26663909,15.42227287,16.03343447,12.80151602,10.12875121,8.730340077,0.520449311,0.882272729,0.994529143,0.999440504,1,0.998245342,0.92932789,0.792629622,43.060857,-89.494068,2019,WIH1
PHW52/PHM49,TXH3_2019,N,11.33,795.4289872,0,0,201,61,72.5,71.5,1.71448275,0.072857141,3.656594302,9.095434564,0.409285716,1.207678571,5.355850783,1.246142852,1.574419343,49.71999974,0.50999999,52.00785631,328.2121388,0.592857139,9.661428571,146.4478573,6.531428533,47.51499965,15.42805705,20.52131135,18.76898834,18.57032559,21.42349659,18.85281525,20.14881361,21.03072751,19.84089234,18.45000007,25.76428577,24.43254944,27.27586732,31.09000002,32.37866099,32.72435205,34.04471448,34.98200776,6.826206914,10.35000004,10.67963154,14.78766739,18.65857179,21.85071427,21.02442735,21.79614282,22.6049739,7.457816468,11.1589152,10.85119479,13.46630403,16.91193677,19.11412105,18.84765314,19.77807102,20.01419559,0.749667494,1,0.945308164,1,1,1,1,0.999698925,30.546318,-96.4329965,2019,TXH3
W10004_0216/PHZ51,WIH2_2015,Y,25.7,706.6646934,0,0,267,153,65,64,3.126774188,2.655000041,4.103605878,5.336067251,1.868823528,3.142847566,3.066358713,6.463272165,3.426278957,96.92999983,15.93000025,53.58117651,186.0694135,5.435882344,36.03705852,132.4747064,52.80117733,103.4994124,19.63646212,20.57311455,21.5892617,21.07111177,18.36300238,19.20517036,18.54583572,13.68038168,11.37476292,15.6409678,24.97666677,26.11823115,28.09529077,27.51588227,27.91298604,26.4469062,23.95331443,17.63645543,3.355806466,13.62666686,13.88922494,15.17788174,17.2276475,16.92946091,13.73434519,12.63733902,6.343913375,5.370860554,11.93138906,12.65256426,14.04290221,14.43586033,14.57588984,12.76646014,11.49482956,7.023163717,0.588214292,1,1,1,1,0.979783322,0.914260835,0.715230077,43.3264485,-89.33359975,2015,WIH2
B73/PHM49,DEH1_2019,N,20.15,718.2493605,0,1.75,230.25,105,59.25,58,4.885483834,0.129999995,2.22754366,2.838879743,7.092619056,13.09007943,2.376059147,7.246095167,5.291338731,151.4499989,1.169999957,29.41999924,87.75142762,13.32785715,117.8107149,70.17642808,38.82285679,163.7607149,18.09422633,22.52754413,19.09832956,21.10549391,16.87992425,18.38683534,17.43790908,14.47643482,15.18822094,17.49129031,20.55777783,23.08374535,28.61102885,30.70333358,31.53571423,31.96636291,30.10673826,28.44137569,7.04516129,9.184444467,14.30050877,18.34149326,20.74333359,21.70119062,22.68293302,22.03347627,19.57253904,6.992168387,8.735510177,11.41430501,15.6056687,17.71122979,18.59296506,19.259015,18.07354239,16.13042035,0.769815656,0.948412699,0.988507504,1,1,1,1,1,38.670675,-75.433225,2019,DEH1
LH195/PHZ51,DEH1_2016,Y,20.6,733.6955833,0.5,1.5,276.5,141.5,77,78.5,2.701875035,7.431818214,3.891344367,3.01543569,5.358105985,2.453055546,7.028031294,2.624318106,3.1968602,86.46000111,81.75000036,66.39499953,101.6163622,13.33454524,24.02227264,188.3231781,15.05272682,98.58045408,18.33047433,10.1000462,19.40971708,21.02938559,18.25055452,17.64652011,18.94468483,17.7865103,16.44449792,18.09,16.60090897,19.90208421,27.67646738,27.79681775,28.9030859,31.91379825,31.21812112,30.57169607,5.529687506,9.93090907,10.11289786,16.8589893,18.02106052,19.78800518,21.90881045,21.62957593,20.16127331,6.825577378,7.645605865,8.606637786,14.43603228,14.98401645,16.37610101,18.85541374,18.37748956,17.3477875,0.726328134,0.729318176,0.990929859,1,1,1,1,1,38.6482025,-75.44606,2016,DEH1
CG44/CGR01,MIH1_2018,Y,23.65,690.574878,1,1.5,244,127.5,67,64,5.012258064,1.858571376,2.303311915,3.259516918,0,1.604151199,2.926198314,4.215530212,2.830074039,155.38,13.00999963,29.79071396,101.4421425,0,18.16214306,122.3414291,36.1057143,85.34142821,19.78619528,22.4124418,25.08845985,20.26124585,21.4032747,19.63779009,17.59687557,14.64655727,11.33533343,19.08258061,24.4042857,26.50594484,29.85917276,29.20761908,28.94024759,27.00181445,23.87253837,17.74080494,7.633548365,11.57000004,11.5577044,16.90410614,16.77238059,17.0588351,14.06431329,11.77329027,6.160183734,7.985580948,11.08545818,11.96011996,15.51317333,15.06763476,15.11768347,13.15911947,11.00371024,6.94989994,0.750656678,0.993928569,1,1,1,0.982067155,0.951173414,0.716707841,42.689234,-84.49755575,2018,MIH1
B14A/MO17,ONH2_2015,Y,23.5,715.6749901,0,0,287,150,80,79,1.876451608,4.282666683,1.928005431,1.58261263,10.80264742,1.923208582,3.114388399,4.294901914,2.356388962,58.16999984,64.24000025,23.61999965,57.22470651,21.60529484,21.1552944,115.5017658,31.56294079,72.1164696,18.95380112,18.76709785,21.17743809,22.45418875,20.04103015,18.4543581,18.45373918,15.80078253,13.34539525,11.17387095,14.38466663,23.91200153,26.61279381,30.15176526,27.65053462,26.77986929,25.87464046,20.7920557,2.006774224,5.636000033,13.64950245,15.64688346,19.32647026,18.51812829,16.74694623,15.4972221,11.03054456,3.742938436,5.617129505,11.53065914,13.52353119,16.78542678,15.13421866,13.95153495,13.1846932,9.37660249,0.276970043,0.589690475,0.985132406,1,1,1,0.993019959,0.931831119,42.45408625,-81.8816065,2015,ONH2
F42/OH43,TXH3_2019,N,12.37,801.9421444,0,0,178,62,69.5,69.5,1.71448275,0.072857141,3.656594302,9.095434564,0.409285716,1.207678571,5.355850783,1.246142852,1.574419343,49.71999974,0.50999999,52.00785631,328.2121388,0.592857139,9.661428571,146.4478573,6.531428533,47.51499965,15.42805705,20.52131135,18.76898834,18.57032559,21.42349659,18.85281525,20.14881361,21.03072751,19.84089234,18.45000007,25.76428577,24.43254944,27.27586732,31.09000002,32.37866099,32.72435205,34.04471448,34.98200776,6.826206914,10.35000004,10.67963154,14.78766739,18.65857179,21.85071427,21.02442735,21.79614282,22.6049739,7.457816468,11.1589152,10.85119479,13.46630403,16.91193677,19.11412105,18.84765314,19.77807102,20.01419559,0.749667494,1,0.945308164,1,1,1,1,0.999698925,30.546318,-96.4329965,2019,TXH3
CG108/CGR03,IAH3_2017,Y,17.75,765.2316216,0,2,229,110,65,64,4.153750014,4.476666673,3.404720357,2.207347727,0.783636364,2.628276904,1.892687593,2.328876272,1.794257086,132.9200004,67.1500001,54.03954627,78.33863542,1.567272728,28.02681865,71.85545488,19.05045461,54.69545453,16.14493189,17.75127989,18.89303832,22.07985964,20.54923199,20.99384486,19.81852315,17.22919489,15.64326955,15.84312499,15.5066665,21.42652578,27.714982,28.45522753,29.90074383,27.6545798,25.64720852,25.13760955,4.41906251,4.141333344,9.782295063,13.56526933,16.05901469,16.6123348,14.8096002,12.74600627,11.28191352,5.818880471,5.62230391,9.387130072,13.2881535,14.4256186,15.3843105,13.65871261,11.89796048,11.29223634,0.568604913,0.570380948,0.879734313,1,1,1,1,0.979205627,41.9758706,-92.24318881,2017,IAH3
TX777/LH195,TXH3_2020,N,12.8775,1257.579974,0,2,227.33,94.615,64.75,63,3.45875001,5.345714297,0.996479651,4.090893152,11.37176514,0.055555557,3.334418123,0.880352915,2.226110039,110.6800003,37.42000008,12.08058808,124.9758839,22.74353027,0.450000013,88.32823513,3.714117541,69.00941121,15.8034201,18.34009743,21.30541133,19.40762275,20.16580067,20.62125497,19.02899565,16.94703156,18.75160362,25.77062485,24.00285694,27.63577502,29.95402965,30.19186265,32.38063702,33.36328143,35.03835301,35.63206825,14.19906271,12.24428552,13.92062761,17.60156859,18.33921522,21.14142164,21.88591696,25.71364726,24.34760913,12.60372436,11.20425028,13.29865333,15.96364287,16.27361839,18.69618421,19.4144726,21.47019646,20.81901077,0.989866069,1,1,1,1,0.99995416,0.999321567,0.998827006,30.53869475,-96.4274175,2020,TXH3
B73/PHZ51,MNH1_2015,Y,15.45,731.7648055,8,1,259,144.5,72.5,71,2.676451665,6.10285713,1.587216104,4.707726326,2.093823531,4.685775359,5.935015669,2.223261507,2.198788145,82.97000162,42.71999991,19.59000013,155.007059,3.965294123,52.23235247,227.0947085,20.90117698,67.40117758,19.81693462,15.87546921,21.62818458,20.65236193,17.21434565,21.12123323,17.7408483,14.5374504,12.06297535,17.43387093,22.63000025,27.28921799,28.46423671,28.36529418,28.07899716,26.14089523,24.73259507,17.90095705,4.567419307,13.73428563,14.30007362,16.89716897,18.65411764,16.19745995,14.75643511,13.57280729,6.634647692,6.2838161,10.87437977,13.26905608,14.87023808,15.64114514,14.35392043,12.99006372,12.46836687,7.55733068,0.722983866,1,1,1,1,0.977703003,0.878626049,0.721229646,44.07038575,-93.53519625,2015,MNH1
LH74/PHN82,DEH1_2018,N,19.8,720.823731,0,2.25,162.25,72.5,68.25,68.25,3.413225795,4.724545566,2.007753279,2.760624154,0.287142856,8.862777665,3.915865231,4.933581623,5.971971652,105.8099996,51.97000122,28.2621423,90.35856978,0.861428567,79.76499898,101.102142,26.37928568,184.7400021,18.24738333,20.30334785,18.96061465,21.19242313,20.3949075,18.85770366,17.73482038,14.47844699,15.08372737,17.38161278,18.28454564,22.01469092,28.14795471,32.28714262,31.68230149,32.09286912,30.42106803,28.79790015,6.703871004,7.41363637,12.85857977,17.97497576,22.0019049,21.31992057,22.76420594,22.26141136,20.21526036,6.825711165,7.366383816,10.38385741,15.21158117,19.10753111,18.47850441,19.35879976,18.34204267,16.58274325,0.781601378,0.839058448,0.989425295,1,1,1,1,1,38.65164475,-75.44913625,2018,DEH1
F42/OH43,MOH1_2019,N,17.56666667,731.1212129,0,0.333333333,217.3333333,97.33333333,63.66666667,62.33333333,4.907419428,9.604285649,1.196872498,5.110410132,2.801666578,0.134444442,2.379708247,7.113428694,4.895301043,152.1300023,67.22999954,11.80625023,164.838749,8.404999733,1.209999979,75.06875065,40.48125055,151.407499,17.06584337,18.93672998,19.67293901,19.7601386,19.15913832,21.9354776,19.8853634,16.02367873,15.25367059,21.02129029,24.39000021,28.1749685,28.34324165,30.6675001,31.10263872,30.50513849,30.12964257,28.72433606,9.960645122,13.42857129,17.39529908,18.05620523,21.36166632,20.47986097,19.32223721,20.23911926,18.26780907,9.14854411,11.68484074,14.86417974,15.32069344,18.01458321,17.78759074,16.90970541,17.17973687,15.57482707,0.941624426,1,1,1,1,1,1,1,38.8956125,-92.20883,2019,MOH1
B14A/MO17,ARH2_2017,N,17,731.1212129,0,2,197,88.5,65,64,2.789999995,15.83285686,4.776016413,2.853949028,1.142500003,5.651818152,3.905948255,2.4430325,4.688621725,89.27999985,110.829998,61.6427269,88.95863769,3.003181826,52.42863608,105.2449988,13.33772746,145.3472735,17.14489296,19.09436907,20.93439511,19.65670258,19.84409681,19.1211903,18.81176407,19.65259997,17.546866,23.65656266,24.55142866,25.38541455,28.9612549,32.40098458,30.84565692,31.84241473,32.83627249,30.20087953,12.07343751,12.16142872,12.7110645,18.0477898,21.78734854,20.24410098,21.87781566,22.25639174,20.26112908,10.83878158,11.22094165,11.88579938,15.62584547,19.09416656,17.54487895,18.8103181,19.27693671,17.25265116,0.991674107,1,0.97315368,1,1,1,1,1,35.67418125,-90.0752695,2017,ARH2
LH195/PHZ51,ARH1_2016,N,17.375,784.2176038,1,2,194.5,104.25,71.5,70.5,12.62656226,6.052222146,7.859593922,4.411032368,3.769999921,0.095833332,1.834913509,2.950363528,2.931715563,404.0499923,54.46999931,101.1431819,160.496816,7.539999843,0.824999988,46.86636396,14.75181764,90.88318244,16.40757677,14.40289243,17.41332625,19.31399891,17.48165414,22.15918181,19.7781726,18.25208951,17.22596404,20.37124979,20.08666674,25.25253507,26.30445415,29.50681779,32.27019592,33.22074717,33.17606868,32.75999986,8.53968759,10.04999993,14.84655054,15.67568893,20.10318184,20.90335237,23.01320039,23.46584116,23.35664232,8.376579132,8.623890092,12.4075181,13.38568101,16.80499981,18.57005087,20.09384313,20.24603027,19.89808151,0.932198657,0.999841266,1,1,1,1,1,1,34.72952,-90.7603555,2016,ARH1
PHG39/TX205,MOH1_2016,N,18.7,731.1212129,0,3,260,130,60.5,59.5,2.465483877,8.058000231,0.264259377,6.282521268,1.94553035,9.25680559,4.358907121,3.354664451,5.453130527,76.43000019,40.29000115,2.879999995,172.8372758,4.262727369,83.20363667,125.2090916,21.13363606,168.2240918,20.2309363,16.93509369,22.49829557,20.20959989,18.68177986,19.21408964,18.0090922,17.17714413,15.87534947,21.83193548,27.56600037,27.88644765,31.21215235,30.25795442,31.2505745,30.57423065,29.80077912,28.25339236,10.073871,16.74400005,16.26474463,19.86215984,19.98371223,20.49117413,20.76153791,19.91431794,17.56318368,9.497798547,14.24343349,14.21296425,17.47336946,17.12232598,17.8699151,17.65104862,16.90998551,15.09561117,0.937315665,1,1,1,1,1,1,0.999442641,38.8955475,-92.2072025,2016,MOH1
B73/PHN82,MIH1_2018,N,27.55,674.4850626,0,2,203.5,108,68,64,5.012258064,1.858571376,2.303311915,3.259516918,0,1.604151199,2.926198314,4.215530212,2.830074039,155.38,13.00999963,29.79071396,101.4421425,0,18.16214306,122.3414291,36.1057143,85.34142821,19.78619528,22.4124418,25.08845985,20.26124585,21.4032747,19.63779009,17.59687557,14.64655727,11.33533343,19.08258061,24.4042857,26.50594484,29.85917276,29.20761908,28.94024759,27.00181445,23.87253837,17.74080494,7.633548365,11.57000004,11.5577044,16.90410614,16.77238059,17.0588351,14.06431329,11.77329027,6.160183734,7.985580948,11.08545818,11.96011996,15.51317333,15.06763476,15.11768347,13.15911947,11.00371024,6.94989994,0.750656678,0.993928569,1,1,1,0.982067155,0.951173414,0.716707841,42.689234,-84.49755575,2018,MIH1
F42/H95,OHH1_2017,N,19.2,749.1418061,0,2,229,110,65,64,4.401935447,12.29571451,4.299880116,6.252045262,18.36299991,4.892395558,3.195317293,3.431958172,3.794688752,136.4599988,86.0700016,53.63949916,223.8204996,40.86499989,50.26800107,124.097,30.99400014,115.4320013,19.0647902,19.03427505,21.00226491,20.15032754,19.69555429,18.89580098,18.69837911,16.0400155,13.85510684,20.47903239,25.43142836,25.24002704,27.25803818,28.09541678,28.73270468,26.30456447,24.69395371,24.25720733,8.011935501,13.44999967,12.59882409,15.91673102,16.75358336,18.39824095,14.97688189,13.11535887,11.81284403,8.407228033,12.106522,11.63721293,13.8931373,14.6377479,15.63224373,13.07252875,11.66012039,11.13333271,0.85352535,1,1,1,1,0.996926048,1,0.96495674,39.855785,-83.66477375,2017,OHH1
PHB47/PHZ51,ARH1_2016,N,15.45,803.8471786,0,2,182,111,69,68,12.62656226,6.052222146,7.859593922,4.411032368,3.769999921,0.095833332,1.834913509,2.950363528,2.931715563,404.0499923,54.46999931,101.1431819,160.496816,7.539999843,0.824999988,46.86636396,14.75181764,90.88318244,16.40757677,14.40289243,17.41332625,19.31399891,17.48165414,22.15918181,19.7781726,18.25208951,17.22596404,20.37124979,20.08666674,25.25253507,26.30445415,29.50681779,32.27019592,33.22074717,33.17606868,32.75999986,8.53968759,10.04999993,14.84655054,15.67568893,20.10318184,20.90335237,23.01320039,23.46584116,23.35664232,8.376579132,8.623890092,12.4075181,13.38568101,16.80499981,18.57005087,20.09384313,20.24603027,19.89808151,0.932198657,0.999841266,1,1,1,1,1,1,34.72952,-90.7603555,2016,ARH1
B73/PHZ51,NYH2_2015,Y,16.5,731.1212129,0.5,1,258,131,84,84,3.814193487,2.822857129,1.806874641,1.427310218,14.28882354,6.323155046,2.553769654,1.263651931,1.70374005,118.2399981,39.5199998,23.5252947,50.99705838,17.86235295,65.18176435,90.43176518,10.71352917,51.74117684,19.21827184,21.58410556,20.44972798,21.8367517,17.34067749,18.34945618,18.49425604,17.55625849,13.84215422,11.26903224,15.86071418,24.70888252,27.12764594,29.5805878,28.55383422,27.75922879,25.11594081,20.73318661,0.676451599,3.065714287,12.68317757,14.19692254,19.48862723,17.66257776,16.12899413,12.03346763,8.797239788,3.458861152,5.522653893,11.65565145,13.2498794,16.56577659,15.18766176,14.16580901,11.53845799,8.731216192,0.261509218,0.568112238,0.971160735,0.994106254,1,0.999864887,0.980226591,0.898542131,42.7324825,-76.65277775,2015,NYH2
B14A/H95,NEH2_2015,N,14.1,763.3008437,0,0,229,110,92,92,1.358750008,3.755999994,3.031264216,1.286090902,0.286666671,1.657187527,3.751759362,0.157499999,0.616713691,43.48000026,37.55999994,66.29000026,43.49999976,0.860000014,16.57187527,117.6431233,0.944999993,18.99062441,19.53783247,19.98656282,18.8528682,23.65152674,23.21232343,22.7312118,19.62767813,21.61948185,18.20728239,15.03874992,23.15200024,18.66927583,30.14561768,32.37510385,32.60862507,30.36489819,32.31320816,28.31448706,-2.426562488,5.230999994,5.264051067,13.5723423,16.5714581,16.13087479,15.9646131,15.56819047,11.19634675,4.192485347,8.478296732,6.894904354,14.37610508,16.560328,16.47008009,15.3434088,16.05261291,12.83173005,0.519497764,0.97653572,0.809891265,1,1,1,1,0.922021698,41.0514495,-100.7471915,2015,NEH2
TX951/LH195,MOH1_2015,N,17.4,731.1212129,0,0,220,112.5,81,79,3.914838722,3.002727248,2.7038834,5.646226268,2.268750012,1.183333344,4.736744086,1.740401796,3.666491943,121.3600004,33.02999973,34.41999933,178.8712478,5.868750036,10.6500001,140.2618746,11.88312507,113.6612502,18.81846694,18.88703156,16.92919735,21.70591481,15.72154266,19.94530069,18.47422179,20.12873028,17.02653892,18.28451609,18.00181831,23.77805456,28.93028285,29.85593748,31.76118019,30.42140763,28.58050013,28.43143147,5.857096827,7.500000065,15.21487777,17.6487962,21.67281234,21.45979159,20.28182538,17.09899995,17.28669369,7.068544315,7.302193139,11.97142579,15.39796361,17.76437491,18.61048589,17.380694,14.99182695,15.05317439,0.723283405,0.814935086,1,1,1,1,1,1,38.8965375,-92.20800417,2015,MOH1
PHN11_PHG47_0251/PHB47,MIH1_2016,N,16.85,688.0005075,0,2,207,112,59.5,59.5,3.213870927,0.372000003,1.277668238,2.072144594,0.204761899,2.382636341,6.277866916,3.129595251,4.115734243,99.62999874,1.860000014,16.77857134,74.4033328,0.614285696,24.34142835,217.3680916,23.88571438,123.5814282,20.04481233,22.69628944,22.57460654,21.19066928,19.62511718,19.41470496,17.43536011,14.16523572,12.41239439,17.74322581,29.20999985,25.57947765,28.1508514,27.23547651,30.32783564,28.27294529,26.6388532,22.50219404,5.299677434,16.33600006,11.90361174,14.70447611,15.74579377,17.52671,16.25511672,15.58650841,10.86825081,6.615827776,14.89908974,11.62365975,13.82943527,13.70908531,16.01583991,14.48649579,13.48265,10.09129455,0.734400922,1,1,1,1,0.999987733,0.99326559,0.936590208,42.41206675,-84.2952625,2016,MIH1
CG44/CGR01,NYH2_2017,Y,14.35,746.5674357,0,7.5,238,109,65.5,65,4.985806354,2.593333337,3.453715005,5.89688957,0.948070192,3.208418109,2.379655727,2.694333021,3.397972982,154.559997,23.34000003,55.2357889,222.9889478,1.763157895,41.81263091,117.7794744,23.637895,104.1910535,18.91896409,18.22902181,21.62310913,19.28169434,21.2024166,18.91678159,16.97406986,13.88043676,9.439494818,16.54903238,19.80111122,22.34881997,25.65461899,27.16105275,25.3148988,23.28803047,24.25146582,18.24460841,5.239677404,10.2422222,10.55939387,15.21770316,15.87359667,14.84504335,11.5614249,11.15398494,7.352427253,6.267898103,8.570747831,9.793885142,12.80097944,13.68904673,12.46138399,10.55155578,10.87663924,7.688896934,0.638917053,1,1,1,1,0.981507475,0.966916282,0.722284214,42.73248125,-76.65275025,2017,NYH2
LH82/PHB47,IAH3_2017,Y,16.95,753.6469545,0,2,229,110,65,64,4.153750014,4.476666673,3.404720357,2.207347727,0.783636364,2.628276904,1.892687593,2.328876272,1.794257086,132.9200004,67.1500001,54.03954627,78.33863542,1.567272728,28.02681865,71.85545488,19.05045461,54.69545453,16.14493189,17.75127989,18.89303832,22.07985964,20.54923199,20.99384486,19.81852315,17.22919489,15.64326955,15.84312499,15.5066665,21.42652578,27.714982,28.45522753,29.90074383,27.6545798,25.64720852,25.13760955,4.41906251,4.141333344,9.782295063,13.56526933,16.05901469,16.6123348,14.8096002,12.74600627,11.28191352,5.818880471,5.62230391,9.387130072,13.2881535,14.4256186,15.3843105,13.65871261,11.89796048,11.29223634,0.568604913,0.570380948,0.879734313,1,1,1,1,0.979205627,41.9758706,-92.24318881,2017,IAH3
B37/OH43,IAH4_2019,Y,36.95,634.260524,2,1.25,256.75,123,62.25,60.25,7.44874995,0,6.508814674,5.652572602,2.433809479,0.731547632,2.455795253,7.856419535,5.758725846,238.3599984,0,89.12928634,169.456428,4.779285618,8.60571444,106.5300014,62.81714391,173.1250012,18.61457558,24.25652275,18.80062453,19.64217675,17.01762246,21.29967345,16.82875041,12.82062273,10.73648339,20.72718754,29.98400002,24.57226332,29.58102216,28.11761892,27.58625519,26.21902431,25.70162766,18.66579105,8.655312385,16.39199963,13.30590142,18.52555793,18.42333308,15.4118289,14.78252205,14.57801647,7.354403302,8.719182336,15.28713381,11.55896644,16.12377034,15.4195504,13.79277779,12.9189296,12.78184671,8.051480754,0.866629464,1,1,1,1,0.996735112,0.969646609,0.721601517,42.03193798,-93.79333213,2019,IAH4
F42/OH43,IAH2_2017,Y,17.7,731.1212129,0,2,229,110,65,64,2.991935476,4.003749907,5.594154361,1.824159742,2.965909053,1.138616173,3.544395797,5.525860929,3.224964342,92.74999976,32.02999926,86.83999968,64.74363607,5.880909015,11.03545466,133.6850016,39.36636487,98.02272796,18.91811151,22.03083944,18.39067038,21.91300981,21.59707026,21.00058551,18.76246256,16.50136756,14.56336975,16.70258062,25.25375009,21.16444029,28.78792803,31.34295403,31.03890899,27.79230679,26.54138994,25.01808603,3.836129038,9.060000002,9.836484062,14.72352594,17.1804546,18.00485339,15.61890002,13.9478747,12.25710857,5.884356407,10.52058178,9.325556586,14.19611432,16.29393371,16.57150033,14.05801276,12.73803514,11.57992501,0.659274195,1,0.882113053,1,1,1,1,0.976890029,42.06582876,-94.72050129,2017,IAH2
PHN11_OH43_0001/PHB47,NYH2_2017,Y,16.9,671.9106921,0,6.5,259,106,70.5,71.5,4.985806354,2.593333337,3.453715005,5.89688957,0.948070192,3.208418109,2.379655727,2.694333021,3.397972982,154.559997,23.34000003,55.2357889,222.9889478,1.763157895,41.81263091,117.7794744,23.637895,104.1910535,18.91896409,18.22902181,21.62310913,19.28169434,21.2024166,18.91678159,16.97406986,13.88043676,9.439494818,16.54903238,19.80111122,22.34881997,25.65461899,27.16105275,25.3148988,23.28803047,24.25146582,18.24460841,5.239677404,10.2422222,10.55939387,15.21770316,15.87359667,14.84504335,11.5614249,11.15398494,7.352427253,6.267898103,8.570747831,9.793885142,12.80097944,13.68904673,12.46138399,10.55155578,10.87663924,7.688896934,0.638917053,1,1,1,1,0.981507475,0.966916282,0.722284214,42.73248125,-76.65275025,2017,NYH2
F42/H95,MNH1_2016,N,20.95,731.1212129,0,2,229,110,70.5,68.5,2.893225764,0.170000008,5.030425272,6.121705224,6.438583227,6.210954471,8.179238718,7.617170889,9.394742846,89.68999869,1.190000057,67.79499967,212.8530004,13.67999972,65.11499918,295.599999,62.20750045,287.315495,17.89673604,26.28611401,18.122652,20.29948324,15.80941307,17.87578139,16.93568638,15.29315111,12.15008877,17.5148386,25.45428576,24.53269911,27.63337014,28.14450006,28.70269129,27.15887183,24.8505404,22.53032632,6.338387108,9.824285678,13.68155402,15.81410535,17.82425013,18.42635015,16.92976579,13.57123889,11.50456607,6.871134867,10.90204251,11.6566452,13.98369248,15.05511886,15.68076391,14.22086787,11.86153057,10.26982602,0.734527645,1,1,1,1,0.999952477,0.98729881,0.936092645,44.06646925,-93.533648,2016,MNH1
PHW52/PHN82,MIH1_2019,N,23.2,725.3288793,0,16,243,136.25,70,69,3.720322615,6.189999878,7.0818969,2.961916884,8.70871786,0.913986013,1.817216317,4.468053866,4.013250907,115.3300011,49.51999903,106.8900002,93.8269235,16.81999984,10.80615383,84.36076873,63.3192304,120.886153,19.31986936,19.65939665,18.51979106,21.00444556,17.01540622,20.04742627,16.96863927,12.02893287,10.87568864,17.60709666,21.67250037,22.690749,28.9340566,30.56538516,27.94921954,26.00654686,21.50260694,17.46530245,6.210322559,10.31875008,12.21847794,16.86604701,18.743333,15.85306519,14.00590995,11.32576155,7.161163464,6.876773896,9.314382636,10.39761731,15.10453275,16.86261297,14.19391073,12.58553183,10.00606366,7.511656803,0.696382483,1,0.995173883,1,1,0.988904737,0.895422602,0.709438731,42.70789125,-84.4706665,2019,MIH1
PHN11_PHW65_0323/LH195,MIH1_2018,Y,27.9,671.2670995,0,2,209.5,96,71,67,5.012258064,1.858571376,2.303311915,3.259516918,0,1.604151199,2.926198314,4.215530212,2.830074039,155.38,13.00999963,29.79071396,101.4421425,0,18.16214306,122.3414291,36.1057143,85.34142821,19.78619528,22.4124418,25.08845985,20.26124585,21.4032747,19.63779009,17.59687557,14.64655727,11.33533343,19.08258061,24.4042857,26.50594484,29.85917276,29.20761908,28.94024759,27.00181445,23.87253837,17.74080494,7.633548365,11.57000004,11.5577044,16.90410614,16.77238059,17.0588351,14.06431329,11.77329027,6.160183734,7.985580948,11.08545818,11.96011996,15.51317333,15.06763476,15.11768347,13.15911947,11.00371024,6.94989994,0.750656678,0.993928569,1,1,1,0.982067155,0.951173414,0.716707841,42.689234,-84.49755575,2018,MIH1
CG108/CGR03,DEH1_2017,N,16.2,728.5468424,0,28.5,212,117,59,58.5,2.917187458,6.201428686,3.00780289,3.517983876,1.211428521,1.632751291,5.214259368,11.31934688,4.882730708,93.34999865,43.4100008,45.34571489,126.7790489,1.268571377,15.48333303,157.8533328,69.24809492,151.3147631,17.05647962,17.73228645,20.71096481,19.57386043,19.15556694,20.88592809,18.21237176,18.15756056,16.58607394,20.26624998,24.66142872,21.72245043,26.82298965,30.35071437,30.31148162,30.69555299,28.43090921,27.29702356,9.32593758,14.19571427,10.68752201,16.75855213,19.906349,19.88150788,21.21690322,18.72144455,17.91444491,8.690479953,12.08402314,9.787934269,14.12431868,17.15482568,17.14050735,17.94790556,15.63546309,14.74613823,0.907287956,1,0.959736116,1,1,1,1,1,38.67025825,-75.4333645,2017,DEH1
PHG29/PHG47,TXH1_2016,Y,17.7,731.1212129,0,2,185.5,67.5,66,66,1.633666698,16.13999993,0.99702422,4.719865603,0.129393939,3.277272727,13.06232457,0.703636358,1.017125621,49.01000094,112.9799995,14.5313639,177.3549991,0.33090909,36.05,378.0672674,3.179999969,30.53454577,13.9726292,10.72874144,17.88940951,17.80076093,20.55685321,19.77792414,17.90480363,20.8338604,20.14326093,22.32500016,23.95000022,24.48309256,26.40498513,28.5388636,28.63545455,30.12870319,34.35404525,35.58838723,6.034666632,13.33571414,9.675379644,13.12758779,15.78530267,16.33764454,20.13902853,23.08186362,24.00118421,8.473379033,11.29783551,10.5045992,12.46111665,14.43681279,14.72204148,17.12368238,20.53225114,20.87599038,0.915869048,1,0.972225207,1,1,1,1,1,30.54708625,-96.43393475,2016,TXH1
B73/MO17,IAH2_2019,N,20.05,723.3981015,3,0.5,230.5,129.5,65,64,1.624999978,4.994666719,7.633826981,4.023414549,10.53523836,1.22350002,2.763567443,7.261517829,4.773321835,51.99999928,74.92000079,126.7292866,144.3807149,31.60571507,12.2350002,103.2057142,58.23357121,145.3535721,19.40078695,15.59915857,17.73377221,20.37141966,18.69170743,21.11460887,19.04896103,16.46108124,13.94542613,15.78031255,14.78666655,21.30773964,26.90560141,30.4667857,29.3667858,27.70213024,26.0789087,24.69893011,1.823749996,4.276000045,9.222208134,15.06467224,19.71440506,18.17542877,16.74212177,15.32632928,13.45358666,5.188982368,5.371381143,9.150668224,13.41851256,17.10626668,15.79657396,14.44283917,13.04517908,11.92357614,0.546495539,0.532857125,0.866155154,0.998157434,1,1,1,0.956872449,42.06583499,-94.72067796,2019,IAH2
PHN11_PHW65_0323/LH195,WIH2_2018,N,24.5125,751.3943803,11.5,2,274.875,140.25,67.75,66.25,3.144193572,1.768571428,3.785071194,5.164846227,1.715952385,3.402224049,3.044948822,9.615599338,3.371772616,97.47000074,12.38,46.28142902,179.8699983,4.560714279,37.70642883,131.4821453,73.47714479,101.7171416,19.25733411,21.12108299,21.47525877,21.2745393,18.31717262,18.53021556,18.66070884,13.62580315,11.37185475,15.52870961,24.66571426,26.09170284,28.23486864,27.86595249,27.65838755,26.70641136,24.92152362,17.96867439,3.195161297,12.95000008,13.88902894,15.13385395,17.40500012,17.0648215,13.77097062,13.5657747,6.887165117,5.289841082,11.57195132,12.6458491,14.08946858,14.71699087,14.50107081,12.89356629,12.23397282,7.279203781,0.580092163,1,1,1,1,0.981419113,0.932006969,0.73866365,43.38075,-89.38645,2018,WIH2
B14A/H95,WIH2_2020,N,26.375,690.4139798,8.5,5.375,278.375,145.25,74.375,71.875,1.142258063,7.375000167,3.772605813,4.528143625,15.91411821,3.015240613,2.848395651,6.559665308,3.073983535,35.40999997,73.75000167,42.96999988,163.850588,31.01764819,33.16764674,117.7699986,59.84176376,94.45823468,20.73953056,16.04352899,21.23354675,21.58093245,19.01370295,17.88573252,19.32013515,13.57540027,12.27254504,13.56999995,18.91099977,26.0938683,28.2322475,29.46647072,27.75422455,27.09322103,24.80509675,19.00189054,0.762580661,9.396999884,13.99892158,14.99589118,17.7452939,17.49807463,14.22893102,13.29211059,7.459399134,4.176897214,8.107987139,12.68677404,14.02444379,15.66411489,14.70790633,13.20588953,12.26960615,7.833960257,0.443168195,0.881928567,1,1,1,0.990384734,0.880973437,0.780679991,43.294786,-89.383968,2020,WIH2
PHW52/PHN82,NEH3_2017,N,22.7,748.4982135,9.5,2,208.5,103.5,65,64,6.03471326,3.955444498,0.18882913,3.842009577,1.316296295,1.435570981,2.764433094,3.912023778,4.15136979,187.076111,38.21611161,1.987222274,117.8244439,3.948888885,12.8655555,93.99333183,27.38611089,126.3194449,18.53150537,21.70326166,24.15860034,20.80931081,18.66603313,19.02487726,18.75887595,17.51813417,15.15718003,20.20137986,23.21257118,30.13389904,30.13339279,32.06462927,32.76776237,28.39622898,27.87449379,27.0242909,7.908297486,10.26215086,15.17879712,16.87891665,20.62425956,20.98993062,16.95054818,15.08081369,13.75654417,8.47748899,10.0955543,14.95078719,15.67969265,18.3413362,18.75248222,14.77642402,13.79312874,13.00111339,0.783510626,0.953819441,1,1,1,1,1,0.993105158,41.162,-96.409,2017,NEH3
B37/MO17,SCH1_2020,N,13.95,731.1212129,2.5,4.5,107,33,59.5,58.5,6.726129055,12.61950016,14.6709951,2.000047064,2.505749965,4.425319405,2.268462711,6.18714998,5.023091868,208.5100007,84.13000107,163.6860008,61.50999924,5.011499929,39.68149965,62.57699943,33.64599986,155.4654979,20.36817608,19.66978326,14.75526058,19.85961082,19.96014466,19.24465486,19.87809105,16.40752662,15.64625104,22.32567731,25.33999968,25.31846332,29.19710574,32.4110003,31.66961065,33.32032281,31.92909988,30.24042268,7.936741977,12.70899997,16.31955663,18.65521183,21.09725013,21.1736526,21.46883008,21.19136654,20.48826235,8.963701593,11.76593586,13.23428606,15.98846211,18.75412521,18.42141037,19.32426,18.56023321,17.40294316,0.984170504,1,0.973950938,1,1,1,1,1,34.62225,-82.736661,2020,SCH1
B14A/MO17,NCH1_2020,N,15.75,693.1492485,26.75,0.25,216.25,108.4375,65,64,3.811250031,6.583749771,1.870150701,7.593384547,0.8842857,2.636686467,3.330713381,6.121142871,7.323433169,121.960001,52.66999817,29.28357046,255.9407139,2.652857099,23.48571392,94.03142862,30.32857149,227.0264283,17.79310012,18.2030313,21.90311614,16.62410426,22.73441878,20.97653859,20.54309533,18.15988809,15.65141399,21.6678125,23.21999979,23.34870433,27.04964214,28.2173808,30.95634976,33.07043217,33.2972859,31.24656685,8.082812505,11.53125006,9.51933213,18.09668861,18.19142909,20.58560522,22.1124513,22.85800005,21.91055295,8.88590596,10.34544598,9.896418393,14.69404398,15.249625,17.76881847,19.50312724,19.99035698,18.5620876,0.935200903,1,0.995619773,1,1,1,1,1,35.30009892,-77.57131746,2020,NCH1
LH82/PHB47,MOH1_2017,Y,16,731.1212129,4,14.5,216.5,104,60,60,8.937741737,9.40166688,2.512230721,3.318030003,5.035714369,1.794490762,1.996986524,1.220079397,1.67255761,277.0699939,56.41000128,33.26619119,103.9014299,11.93095259,15.87761924,65.30142803,7.334762096,51.25476209,18.72482054,18.08832916,22.62422694,21.00800173,18.77514496,19.93438148,19.70533138,19.36646121,17.34329115,21.92032254,25.32999992,25.47495036,29.30087203,30.46650729,32.25412016,29.92026774,28.22145964,28.04827898,10.06000005,15.27666648,12.99827088,17.39768618,19.78222205,21.21359122,18.70404881,16.33857143,14.9717184,9.612847321,12.76903024,11.94928206,15.49761919,17.12130987,18.67277384,16.20463701,14.48208578,13.92850008,0.915472353,1,1,1,1,1,1,0.999239796,38.89264,-92.2057525,2017,MOH1
B37/OH43,WIH1_2020,N,22.45,682.208174,1.5,0,268.5,134,76.5,73.5,1.598387111,6.507143004,4.413520471,5.455426438,9.576153682,6.848251811,1.847198819,1.302442385,3.233674973,49.55000043,91.10000205,54.05307698,191.9769218,14.76999958,75.33076992,75.52923148,17.19923096,99.29769339,20.3303612,17.70938441,19.63774696,21.71928057,19.47191414,18.08778093,19.52506722,17.02277317,12.74244368,13.80935484,15.78214281,24.71870171,28.0331271,31.3961547,28.17125902,26.95535567,26.2427393,20.06715065,1.332903252,5.150000061,13.25869882,14.90724568,18.80923077,17.63741262,14.66820073,13.00544381,8.429758508,4.404075426,5.920121855,11.73838603,13.88054584,17.12955683,14.95247276,13.30208011,12.63591888,8.588509069,0.46481566,0.623010193,1,1,1,0.987099279,0.934776512,0.808464704,43.05505505,-89.52853825,2020,WIH1
CG60/LH162,IAH4_2017,Y,17.2,741.4186947,0,6.5,180,82,63.25,63.25,3.054193612,4.63857133,5.654282844,2.356146022,0.145000003,0.823262634,3.029939984,2.506485397,3.022032747,94.68000197,32.46999931,92.55000019,79.81000018,0.290000005,7.931363713,110.0431818,17.65818187,91.79227275,19.60434628,22.37855189,18.81628808,21.46940114,22.42332305,21.26952374,19.1513695,15.94205759,15.34138578,17.83935482,25.21428544,21.76755785,28.88340452,30.88984893,30.99338411,28.30609907,26.26622464,25.93438806,4.952580655,10.13999993,10.24708413,15.02150207,17.47128796,18.07608078,15.80662465,13.87026602,12.51354651,6.575243948,10.82301274,9.649960621,14.3656457,16.22810104,16.57398155,14.36597852,12.57546566,12.06214068,0.727396317,1,0.910082199,1,1,1,1,0.987168831,41.99455432,-93.69030947,2017,IAH4
LH82/PHB47,NYH2_2015,Y,17.7,731.1212129,0,4,212,107,77,79,3.814193487,2.822857129,1.806874641,1.427310218,14.28882354,6.323155046,2.553769654,1.263651931,1.70374005,118.2399981,39.5199998,23.5252947,50.99705838,17.86235295,65.18176435,90.43176518,10.71352917,51.74117684,19.21827184,21.58410556,20.44972798,21.8367517,17.34067749,18.34945618,18.49425604,17.55625849,13.84215422,11.26903224,15.86071418,24.70888252,27.12764594,29.5805878,28.55383422,27.75922879,25.11594081,20.73318661,0.676451599,3.065714287,12.68317757,14.19692254,19.48862723,17.66257776,16.12899413,12.03346763,8.797239788,3.458861152,5.522653893,11.65565145,13.2498794,16.56577659,15.18766176,14.16580901,11.53845799,8.731216192,0.261509218,0.568112238,0.971160735,0.994106254,1,0.999864887,0.980226591,0.898542131,42.7324825,-76.65277775,2015,NYH2
2369/LH123HT,GAH2_2020,N,14.575,743.6712689,8,25.5,264.5,138.5,62.25,60.5,4.57387094,0.441111114,8.353941854,2.596292498,5.733571683,2.103095203,2.179001438,2.485142878,3.918548365,141.7899991,3.970000029,91.39071568,80.77428585,11.41500051,18.92785683,57.71499962,12.42571439,121.4749993,20.66171874,23.27184486,17.58943298,19.5164109,18.75300796,20.35385684,20.26001561,17.11426864,16.01109332,24.32935487,22.81222216,27.25049476,29.76903398,31.23452386,32.73428517,34.13891635,33.4245718,31.64458511,9.683548431,7.437777784,15.07002369,18.41195949,20.46821458,20.95039675,21.2406723,21.91714281,20.83905522,10.34437265,8.95024402,13.55540875,16.15181668,17.85136922,18.84234096,19.40061188,19.58004094,18.23728962,0.993479262,1,1,1,1,1,1,1,33.72355555,-83.30265185,2020,GAH2
PHG80/PHZ51,NEH1_2015,N,14.55,793.5496967,0,2,270,140,65,58.5,2.959062506,0.753999996,4.745632833,2.187040691,0.179999996,3.601448917,1.548000793,0.057812502,1.589214364,94.69000018,3.769999981,46.84999943,63.50812512,0.239999995,39.12187557,55.49499987,0.586250016,47.85812447,19.07194562,25.84699936,20.00593662,19.96245842,20.96463704,17.86296284,18.31175333,17.30405645,12.3794141,23.74906254,30.51399994,29.13009987,30.74148671,30.73750019,28.43858622,29.13031746,26.88374984,20.12342532,13.19218739,15.46999989,18.04036499,19.18092822,19.11281252,17.33248289,15.92131484,11.1533021,6.525200269,11.64481375,15.25955733,15.68336601,16.96891106,16.93845514,15.07345461,14.95183393,12.01070089,8.15887847,0.924598212,1,1,1,1,0.96969665,0.982957588,0.758540943,41.290979,-96.41664325,2015,NEH1
B97/PHB47,IAH1_2015,Y,16.7,716.9621753,1,19,301,147.5,65,64,1.566451638,2.213076954,8.402418557,1.323463692,0.084411761,2.297359398,2.93999255,2.37101191,2.732793763,48.56000078,28.7700004,122.1399999,43.52999979,0.168823523,22.82352863,100.1182349,16.67000003,83.81294001,20.43214903,18.85811498,14.63317728,22.31276759,19.14227258,22.20806523,19.83862588,18.33763158,15.0581957,16.08774191,16.64538457,21.84697853,28.7334183,30.26852911,31.30747052,29.05105531,29.39636272,24.66946357,1.839032284,4.865384661,13.12892854,16.86768962,20.05941139,18.05705196,16.3929614,15.43749916,11.17229855,5.447129731,6.098188577,10.48240964,14.99632473,17.16639266,16.72884186,14.96924927,14.77137221,11.30644361,0.593087559,0.682994502,0.988452545,1,1,0.997626801,1,0.896934674,41.9980952,-93.69336973,2015,IAH1
B73/MO17,NYH3_2020,N,14,742.0622874,0.5,10.5,251,134,68.5,68,4.422257993,0,1.373865683,3.203515064,6.161458224,3.578657229,2.247619776,1.339995863,2.270768823,137.0899978,0,18.69000064,113.6731244,12.19749978,37.86125033,87.74812532,17.041875,68.54562519,20.94560956,21.78233427,21.55267425,20.63825651,19.18147684,18.87690393,17.75633085,13.93943947,11.5316014,14.59225801,27.97729172,23.60945411,27.89842024,28.17958339,28.76829368,26.51617347,21.47489044,18.12990527,2.644717742,15.68266662,11.3508871,15.53912014,16.43281273,17.50013456,14.53010818,10.52921434,6.891416056,5.000434995,14.04753459,10.70035646,14.11697706,14.42792892,15.19886376,13.03509367,9.604727821,7.356101809,0.471947005,1,0.969562211,0.99553941,1,0.989555914,0.903066166,0.764418635,42.73227475,-76.6513705,2020,NYH3
LH74/PHN82,WIH2_2017,Y,17.7,731.1212129,0,2,229,110,65,64,5.048709616,4.636666616,1.142383575,5.763857885,8.001590729,6.160048604,1.607776433,1.167726513,2.257555268,156.5099981,41.72999954,17.5799998,219.3963643,12.14409065,74.04090792,72.28863683,15.04409093,68.0204557,18.1690344,19.72049554,20.64727683,20.23287988,19.13163679,19.37493243,18.51401576,14.93340477,10.89478233,16.03129027,21.86555545,22.15746071,26.59689143,27.90045501,26.76799254,24.73062069,22.38533393,20.51274781,3.24419354,8.791111098,9.553497601,14.54337319,16.81037892,15.37831158,12.19271258,9.193202486,7.868866577,5.438218202,9.209131236,9.451203107,13.05708411,14.51682301,13.37610723,11.31306373,9.686333754,8.853113959,0.624158991,0.847976183,0.950288768,1,1,0.998699911,0.954544862,0.834596302,43.3246415,-89.33688775,2017,WIH2
PHG39/PHN82,NEH2_2018,Y,14.85,769.0931773,0,2,295,110.5,65,64,1.223548393,0.707272736,4.763911635,2.422660693,9.359230876,1.187769238,2.22139935,1.060615372,2.655643509,37.93000019,7.780000091,61.58923048,72.52538565,18.71846175,11.03461544,72.02230704,6.795384554,82.07230774,19.8632896,17.86074517,17.24350838,22.63499015,18.62862352,21.21286184,19.62237806,18.45252819,16.56870138,17.6919355,17.47909086,23.04657186,30.81178887,30.82346183,31.15499996,29.41523597,30.138927,26.57117624,3.026129,6.979090886,13.86801705,18.31582591,19.94076905,19.05673485,17.52505525,17.69200753,12.69636803,6.275299993,6.965919572,11.10889174,16.66188215,17.38211544,17.1119836,15.61857368,16.09025205,12.68735507,0.68033411,0.762240243,1,1,1,0.996687975,0.997695055,0.910447978,41.38042275,-96.55988375,2018,NEH2
LH74/PHN82,ARH2_2017,Y,17.95,731.1212129,0,2,157,61,63,62,2.789999995,15.83285686,4.776016413,2.853949028,1.142500003,5.651818152,3.905948255,2.4430325,4.688621725,89.27999985,110.829998,61.6427269,88.95863769,3.003181826,52.42863608,105.2449988,13.33772746,145.3472735,17.14489296,19.09436907,20.93439511,19.65670258,19.84409681,19.1211903,18.81176407,19.65259997,17.546866,23.65656266,24.55142866,25.38541455,28.9612549,32.40098458,30.84565692,31.84241473,32.83627249,30.20087953,12.07343751,12.16142872,12.7110645,18.0477898,21.78734854,20.24410098,21.87781566,22.25639174,20.26112908,10.83878158,11.22094165,11.88579938,15.62584547,19.09416656,17.54487895,18.8103181,19.27693671,17.25265116,0.991674107,1,0.97315368,1,1,1,1,1,35.67418125,-90.0752695,2017,ARH2
TX714/TX779,TXH3_2019,N,10.505,796.0983235,0,0,203,67.5,69.5,68.5,1.71448275,0.072857141,3.656594302,9.095434564,0.409285716,1.207678571,5.355850783,1.246142852,1.574419343,49.71999974,0.50999999,52.00785631,328.2121388,0.592857139,9.661428571,146.4478573,6.531428533,47.51499965,15.42805705,20.52131135,18.76898834,18.57032559,21.42349659,18.85281525,20.14881361,21.03072751,19.84089234,18.45000007,25.76428577,24.43254944,27.27586732,31.09000002,32.37866099,32.72435205,34.04471448,34.98200776,6.826206914,10.35000004,10.67963154,14.78766739,18.65857179,21.85071427,21.02442735,21.79614282,22.6049739,7.457816468,11.1589152,10.85119479,13.46630403,16.91193677,19.11412105,18.84765314,19.77807102,20.01419559,0.749667494,1,0.945308164,1,1,1,1,0.999698925,30.546318,-96.4329965,2019,TXH3
PHN11_PHG47_0251/PHB47,NEH2_2015,N,13.4,768.4495847,0,2,229,110,92,92,1.358750008,3.755999994,3.031264216,1.286090902,0.286666671,1.657187527,3.751759362,0.157499999,0.616713691,43.48000026,37.55999994,66.29000026,43.49999976,0.860000014,16.57187527,117.6431233,0.944999993,18.99062441,19.53783247,19.98656282,18.8528682,23.65152674,23.21232343,22.7312118,19.62767813,21.61948185,18.20728239,15.03874992,23.15200024,18.66927583,30.14561768,32.37510385,32.60862507,30.36489819,32.31320816,28.31448706,-2.426562488,5.230999994,5.264051067,13.5723423,16.5714581,16.13087479,15.9646131,15.56819047,11.19634675,4.192485347,8.478296732,6.894904354,14.37610508,16.560328,16.47008009,15.3434088,16.05261291,12.83173005,0.519497764,0.97653572,0.809891265,1,1,1,1,0.922021698,41.0514495,-100.7471915,2015,NEH2
B73/TX779,SCH1_2020,N,14.025,731.1212129,1,1,96,32,58,57,6.726129055,12.61950016,14.6709951,2.000047064,2.505749965,4.425319405,2.268462711,6.18714998,5.023091868,208.5100007,84.13000107,163.6860008,61.50999924,5.011499929,39.68149965,62.57699943,33.64599986,155.4654979,20.36817608,19.66978326,14.75526058,19.85961082,19.96014466,19.24465486,19.87809105,16.40752662,15.64625104,22.32567731,25.33999968,25.31846332,29.19710574,32.4110003,31.66961065,33.32032281,31.92909988,30.24042268,7.936741977,12.70899997,16.31955663,18.65521183,21.09725013,21.1736526,21.46883008,21.19136654,20.48826235,8.963701593,11.76593586,13.23428606,15.98846211,18.75412521,18.42141037,19.32426,18.56023321,17.40294316,0.984170504,1,0.973950938,1,1,1,1,1,34.62225,-82.736661,2020,SCH1
B14A/OH43,NEH4_2015,Y,17.7,731.1212129,0,2,250,130,65,54,2.821875036,0,3.668207424,2.0125769,1.951249957,2.654893884,1.684158262,0.190010425,1.166079967,90.30000114,0,33.89000034,59.04687595,1.951249957,28.04999942,59.1787506,1.401875056,35.09749981,18.84220009,27.31064491,20.41342533,20.52862815,19.03072298,18.81303122,18.33826559,17.15407273,12.68489203,24.01437524,30.79399948,29.66091772,30.90712841,30.81250072,28.65153035,29.50292414,26.73776808,20.93262179,13.35843744,15.59799976,18.4981335,19.26878801,20.26031268,17.34358901,16.24316685,11.04417556,7.09840123,11.80342709,15.44887437,16.14310254,17.09436255,17.53736601,15.18702607,15.25106182,11.88303257,8.618375536,0.931774556,1,1,1,1,0.97284651,0.984144349,0.784438609,41.16732275,-96.41663225,2015,NEH4
PHB47/PHZ51,INH1_2016,N,17,711.491638,3.25,8.75,274.25,134.25,61,61.5,3.034516148,1.382857186,3.106568823,3.966270256,3.500454469,6.752636371,3.451172643,3.198528118,3.024422797,94.07000059,9.680000305,31.26000059,138.8759105,3.500454469,67.52636371,113.8927274,21.6654544,92.62590972,17.63328649,23.97511796,20.66441577,20.1236558,19.9706746,19.39149484,18.14527656,15.98533716,14.62820237,18.74516109,26.31142807,27.84898846,28.12893417,28.20272714,29.14504538,29.16779001,27.95564941,27.07739093,7.950322636,11.69428553,16.31817922,16.10606538,16.8522731,18.34872752,18.58889605,17.50284626,15.03841012,7.677100472,11.91689015,14.24288378,14.4184555,14.68521604,15.7994256,15.9329094,14.92238151,13.51734692,0.852649763,1,1,1,1,1,1,0.996102814,40.4787595,-86.98982,2016,INH1
TX777/LH195,ARH2_2018,N,31.985,731.1212129,0,2,185.5,96.5,73,73,4.523124937,5.877777735,3.202210455,3.225384198,0.461428574,5.0703967,1.707251537,1.546976178,1.915506911,144.739998,52.89999962,46.32285666,103.4992844,0.461428574,45.6335703,42.68714207,7.346428526,59.38071425,17.7541087,19.6455271,19.52097147,20.05684428,23.80737271,19.97823453,19.1297214,18.25489796,18.05597286,19.61875001,21.92000008,22.77345622,28.90718296,31.9800005,30.98396799,32.84130907,33.56595603,31.90391706,8.73406262,10.34777779,11.28771296,17.85430307,18.706429,19.75547635,22.48266054,23.2605133,21.25223495,8.305601359,9.423215554,10.22107903,15.52009327,17.35232514,17.37984482,19.61861005,20.2782542,18.53689778,0.857433028,1,0.994106717,0.995975764,1,1,1,1,35.674241,-90.0749725,2018,ARH2
CG44/CGR01,TXH1_2020,N,10.7,726.6160645,0,2,146.05,45.085,63.25,63.25,2.284333333,0,4.613530444,2.949806388,1.362941181,6.741056464,2.844869093,3.829088224,2.301094231,68.53,0,55.97058804,110.7988238,1.362941181,71.52235312,82.32059028,18.97352936,69.29117607,13.91343843,13.3863348,15.08816438,19.79337859,19.48130546,19.24170726,19.77113757,20.7945973,17.91495332,20.02266652,27.17999992,26.60815942,26.52479293,29.39617636,29.12989124,32.2266946,33.03076485,34.59511331,6.794333295,17.20400028,15.2455437,13.65359797,17.29686298,16.61337131,20.73348334,20.06167624,24.24037069,7.901247141,14.27292515,13.38037585,12.76738989,15.58009007,15.11126374,18.39892159,18.53701373,20.50202011,0.821357143,1,0.99243504,0.993791594,1,1,1,0.999042533,30.53781575,-96.4283715,2020,TXH1
2369/LH123HT,NCH1_2017,N,16.95,731.1212129,0,2,234,116.5,65,64,5.929354779,4.097142833,0.297958702,3.860588722,6.673809642,5.437090039,2.513672686,1.67758051,4.140460835,183.8099982,28.67999983,4.023333254,115.8195228,10.90952401,51.84571517,65.15761944,9.68857149,128.3542859,16.84796118,19.66078799,22.20077414,19.20396089,15.77249108,20.54839894,18.7994723,19.26606379,16.40835168,26.07000006,23.57857159,28.17011276,29.72614366,31.01404729,30.48814813,32.54721675,31.95695904,30.43138246,13.64064524,11.25142826,15.69757802,18.87536398,22.57674573,19.84793622,22.28039625,21.2748593,20.81350234,12.56442422,10.48784987,14.26665949,16.36044911,18.79940835,17.21144066,19.38557496,18.57336573,17.65269876,0.998329492,1,1,1,1,1,1,1,35.29663725,-77.5668065,2017,NCH1
B73/PHZ51,ARH2_2017,N,15.65,731.1212129,0,2,195,78,65,63.5,2.789999995,15.83285686,4.776016413,2.853949028,1.142500003,5.651818152,3.905948255,2.4430325,4.688621725,89.27999985,110.829998,61.6427269,88.95863769,3.003181826,52.42863608,105.2449988,13.33772746,145.3472735,17.14489296,19.09436907,20.93439511,19.65670258,19.84409681,19.1211903,18.81176407,19.65259997,17.546866,23.65656266,24.55142866,25.38541455,28.9612549,32.40098458,30.84565692,31.84241473,32.83627249,30.20087953,12.07343751,12.16142872,12.7110645,18.0477898,21.78734854,20.24410098,21.87781566,22.25639174,20.26112908,10.83878158,11.22094165,11.88579938,15.62584547,19.09416656,17.54487895,18.8103181,19.27693671,17.25265116,0.991674107,1,0.97315368,1,1,1,1,1,35.67418125,-90.0752695,2017,ARH2
B37/OH43,OHH1_2018,Y,21.05,699.5851746,0,2.5,272,131,57.5,59,3.056774178,9.537500136,1.922452157,2.385565957,3.342142727,1.8544286,3.625787622,3.100846839,2.007798001,94.75999951,76.30000108,21.73714328,80.43785755,3.342142727,18.544286,121.7649994,22.15357072,61.29071423,19.31095449,14.64635724,20.72885596,20.94366931,19.27592959,20.95649317,17.99811894,17.37176276,15.4204415,15.33419351,20.99500024,26.65036435,28.81994394,32.41071347,30.66092864,28.53085842,26.94730604,24.73435724,3.376129027,12.14624989,14.55931522,16.57316253,19.49428545,18.47499986,17.24720124,15.03980618,12.05347394,5.35712311,9.832246518,13.13485159,14.9051591,17.95401161,16.59941793,15.03822312,13.39555861,11.48513665,0.534285712,0.926785712,1,1,1,1,0.999125,0.970735544,39.85688825,-83.671225,2018,OHH1
CG60/LH162,IAH2_2017,Y,13.675,749.1418061,0.25,3.5,161.5,72.5,65,64,2.991935476,4.003749907,5.594154361,1.824159742,2.965909053,1.138616173,3.544395797,5.525860929,3.224964342,92.74999976,32.02999926,86.83999968,64.74363607,5.880909015,11.03545466,133.6850016,39.36636487,98.02272796,18.91811151,22.03083944,18.39067038,21.91300981,21.59707026,21.00058551,18.76246256,16.50136756,14.56336975,16.70258062,25.25375009,21.16444029,28.78792803,31.34295403,31.03890899,27.79230679,26.54138994,25.01808603,3.836129038,9.060000002,9.836484062,14.72352594,17.1804546,18.00485339,15.61890002,13.9478747,12.25710857,5.884356407,10.52058178,9.325556586,14.19611432,16.29393371,16.57150033,14.05801276,12.73803514,11.57992501,0.659274195,1,0.882113053,1,1,1,1,0.976890029,42.06582876,-94.72050129,2017,IAH2
PHN11_OH43_0001/PHB47,DEH1_2016,Y,15.75,677.059433,0,1.5,268.5,112.5,78,77,2.701875035,7.431818214,3.891344367,3.01543569,5.358105985,2.453055546,7.028031294,2.624318106,3.1968602,86.46000111,81.75000036,66.39499953,101.6163622,13.33454524,24.02227264,188.3231781,15.05272682,98.58045408,18.33047433,10.1000462,19.40971708,21.02938559,18.25055452,17.64652011,18.94468483,17.7865103,16.44449792,18.09,16.60090897,19.90208421,27.67646738,27.79681775,28.9030859,31.91379825,31.21812112,30.57169607,5.529687506,9.93090907,10.11289786,16.8589893,18.02106052,19.78800518,21.90881045,21.62957593,20.16127331,6.825577378,7.645605865,8.606637786,14.43603228,14.98401645,16.37610101,18.85541374,18.37748956,17.3477875,0.726328134,0.729318176,0.990929859,1,1,1,1,1,38.6482025,-75.44606,2016,DEH1
LH82/PHB47,IAH1_2017,Y,16.8,747.2110283,0.5,2,175,74,65,64,3.40562493,4.965384584,4.756276119,1.833606587,3.814090996,2.221484887,3.670808328,1.81325484,2.347473118,108.9799978,64.54999959,71.28272616,63.78727258,4.177727374,22.83863677,118.9068186,13.7622725,72.03681816,16.19865167,17.41178014,18.84198651,22.07722619,19.57094626,20.6423577,19.65334879,19.12382584,16.87809105,17.11343735,15.37846162,22.95951679,28.09807267,26.50742381,30.27960591,29.79948923,26.92834941,26.37674051,5.413125027,4.923076978,11.46549016,14.16962528,11.61757578,16.65775237,16.66504091,13.38757222,12.41510662,6.530778339,5.768563812,10.45370215,13.71965113,11.94783378,15.64262598,15.39964617,12.71239892,12.1737806,0.629988832,0.555054952,0.946458762,1,1,1,1,0.998130952,41.19924609,-91.49402296,2017,IAH1
PHP02/PHB47,GAH2_2016,N,11.4,731.1212129,0,2,236,184,50,48,1.486129045,0,7.316392826,2.079782856,1.718421064,1.264671045,2.43256314,4.61773679,3.235456168,46.07000041,0,60.50999928,55.97210474,3.436842128,10.11736836,67.31736801,23.15894711,100.2847377,20.21189387,22.87583466,19.10112302,21.34036575,17.85876091,19.83818451,18.50479945,15.9975398,17.29687983,27.80677426,30.50400009,32.06010812,34.2138269,34.93842035,34.86282896,34.62455114,33.33373696,32.80003392,13.8351613,16.55600014,19.35906305,20.32019684,22.9621054,21.76434208,22.04984942,22.29670187,20.14649938,13.32566871,15.60302283,17.72531793,18.78372546,20.36638125,19.89190838,19.9091667,19.70080105,18.42340329,1,1,1,1,1,1,1,1,33.717295,-83.3110275,2016,GAH2
B37/OH43,ONH2_2016,N,22.3,693.1492485,0,13,233,106.5,75.5,66,1.435483875,1.740833327,1.463802716,3.022687524,0.150999999,1.134659085,3.046446673,1.693503778,2.765116665,44.50000012,20.88999993,18.84600039,117.1590009,0.150999999,12.25349994,101.0444998,13.16149993,84.26899996,19.72563927,22.19747464,21.68954048,21.77365896,18.98664827,19.92678304,16.69906166,15.68152671,12.9072029,14.10741935,17.58083336,26.00758685,26.04894451,27.78099985,28.79287246,28.2480382,25.9224786,23.75348014,4.257419363,7.13166666,15.03828811,14.1477789,17.72699971,17.33924119,18.24672102,15.95494667,14.17526013,5.131346137,6.986841243,12.85116395,12.65171997,14.84296497,15.26027205,15.31782021,13.26534606,11.67621189,0.511244241,0.799851209,1,1,1,1,1,0.975829282,42.4530035,-81.88279875,2016,ONH2
LH74/PHN82,MOH1_2_2020,N,16.92,731.1212129,0.2,0.2,201.2,90.4,52.8,51.8,2.765624954,8.119999743,10.23533287,1.900197364,6.862941181,7.496322061,3.61617108,2.901626778,3.303786197,88.49999854,40.59999871,96.12411712,56.39411764,8.455882353,68.01117661,117.8082348,21.52705885,101.3270584,18.75466287,21.25211372,22.58999711,20.28617166,20.64270943,17.48834951,18.15902921,17.2011884,14.69335169,22.18656257,30.76999931,28.84882905,30.74339714,30.90558787,31.2308437,28.74780649,29.21697892,24.17436303,12.23093753,19.21800041,17.30516703,20.0610583,19.70343171,21.50444419,18.15153395,17.40346693,12.7162556,10.41798935,16.99399986,15.18178367,17.42227064,17.30450979,18.37429674,15.5665539,15.53509051,11.41105442,0.936383936,1,1,1,1,1,0.996694042,0.965786214,38.8958275,-92.2071575,2020,MOH1
W10004_0216/PHZ51,GAH2_2016,N,12.1,731.1212129,0,2,278,236,52,51.5,1.486129045,0,7.316392826,2.079782856,1.718421064,1.264671045,2.43256314,4.61773679,3.235456168,46.07000041,0,60.50999928,55.97210474,3.436842128,10.11736836,67.31736801,23.15894711,100.2847377,20.21189387,22.87583466,19.10112302,21.34036575,17.85876091,19.83818451,18.50479945,15.9975398,17.29687983,27.80677426,30.50400009,32.06010812,34.2138269,34.93842035,34.86282896,34.62455114,33.33373696,32.80003392,13.8351613,16.55600014,19.35906305,20.32019684,22.9621054,21.76434208,22.04984942,22.29670187,20.14649938,13.32566871,15.60302283,17.72531793,18.78372546,20.36638125,19.89190838,19.9091667,19.70080105,18.42340329,1,1,1,1,1,1,1,1,33.717295,-83.3110275,2016,GAH2
B14A/OH43,MIH1_2017,Y,17.7,731.1212129,0,2,229,110,65,64,2.651290334,1.642500043,0.365195355,3.685889798,0.022982455,0.462972321,1.745768067,1.924198947,6.215848807,82.19000036,13.14000034,4.417894763,131.6678931,0.068947365,5.871578781,77.40789432,25.15789459,187.919471,20.75480046,19.52619267,24.47429891,19.89055103,21.94334328,22.12060477,17.47908742,14.76431364,9.641321864,18.99677434,22.1187501,26.44652255,27.49693157,27.7329823,27.82492569,25.37386911,24.10071042,20.63989867,5.961290348,11.91874993,11.36318641,16.0503933,16.08877179,14.96255052,12.27657104,9.93890341,8.936309075,7.303217139,10.01258026,11.86785018,14.06113521,14.11607898,13.75096176,11.67659513,10.59348898,9.148775778,0.770126733,1,1,1,1,0.999072621,0.949278334,0.816440377,42.68116575,-84.49434125,2017,MIH1
PHG39/PHN82,NEH1_2015,N,15.55,780.6778444,0,2,230,110,65,57,2.959062506,0.753999996,4.745632833,2.187040691,0.179999996,3.601448917,1.548000793,0.057812502,1.589214364,94.69000018,3.769999981,46.84999943,63.50812512,0.239999995,39.12187557,55.49499987,0.586250016,47.85812447,19.07194562,25.84699936,20.00593662,19.96245842,20.96463704,17.86296284,18.31175333,17.30405645,12.3794141,23.74906254,30.51399994,29.13009987,30.74148671,30.73750019,28.43858622,29.13031746,26.88374984,20.12342532,13.19218739,15.46999989,18.04036499,19.18092822,19.11281252,17.33248289,15.92131484,11.1533021,6.525200269,11.64481375,15.25955733,15.68336601,16.96891106,16.93845514,15.07345461,14.95183393,12.01070089,8.15887847,0.924598212,1,1,1,1,0.96969665,0.982957588,0.758540943,41.290979,-96.41664325,2015,NEH1
PHN11_PHG47_0251/PHB47,WIH1_2016,Y,18.75,758.7956954,0,1.5,246,131,71,71,2.076129018,1.94750002,4.430291291,4.068377178,0.606590927,8.204471101,6.520888551,7.285801826,4.413191112,64.35999957,23.37000024,50.66818307,153.9786358,1.017727305,87.41727302,222.4604529,58.95590957,134.9268184,19.92805462,20.9108026,19.53546339,20.65690042,18.97296773,19.76360502,17.50876714,15.21370917,12.23883056,16.70258062,17.57583312,27.08182728,26.49130857,27.22159082,28.35833875,27.6700069,25.1458901,22.98674642,3.327419363,4.990833327,14.04723809,14.47423798,17.58636334,16.7186736,17.17399145,14.32051147,12.5735533,5.875866612,6.419508974,12.98865398,12.92924289,14.50224274,14.72651534,14.55658067,12.23924581,10.7486024,0.621198161,0.7653869,1,1,1,0.999967803,0.998306277,0.970976554,43.05632525,-89.53194975,2016,WIH1
LH82/PHB47,ONH1_2017,N,26.4,651.959321,0,9.5,235,90,74.5,74.5,4.42290319,4.904999876,1.545173221,3.420435244,1.695375006,2.594700004,1.855534774,1.54565171,2.383111348,137.1099989,49.04999876,23.52600009,140.8034994,5.378000009,36.46150006,95.23350107,29.85300009,72.44250006,18.65662235,17.08545341,23.10813164,20.12586768,18.11232318,19.44819915,16.33652997,11.62209215,7.957733996,13.94322577,18.20700026,22.35689536,24.80045755,25.17183321,25.2296929,22.79396283,22.13957367,13.29532023,3.578387066,9.706999969,10.10387851,14.12185296,14.82349991,13.63261195,10.3904862,9.847475595,3.166289439,4.958212412,8.025894563,9.659097931,11.97096233,12.35740613,11.98311106,9.953455995,10.0654016,5.273375752,0.439723498,0.877642858,1,1,1,0.972410901,0.840292505,0.515578473,43.49546,-80.42596875,2017,ONH1
B14A/OH43,DEH1_2015,Y,18.85,673.1978773,0,2.5,262.5,124,66,63,2.877187484,6.848000002,1.658122271,2.899811139,0.533124998,6.398055441,4.542065261,4.666333417,5.694818618,92.06999949,68.48000002,26.86312445,94.40374921,0.778750002,57.58249897,115.8581242,26.73625046,176.5393772,18.09789148,17.20138936,20.11151884,21.0089777,21.53492481,19.24730516,17.70191113,15.05628078,15.14846735,16.82656264,19.24400005,20.72376954,27.68890342,31.56656283,31.86354174,32.09465687,30.43364003,29.09395151,6.265937505,9.858999991,10.7453803,17.67876376,20.38750017,21.35659703,22.77220607,22.28250884,20.56647162,6.521960329,8.412914767,9.229957748,14.85993723,17.9770315,18.58170739,19.36170697,18.35807444,16.86736745,0.750435273,0.870857151,0.962682184,1,1,1,1,1,38.62935675,-75.4656925,2015,DEH1
PHW52/PHM49,NYH2_2017,Y,17.7,731.1212129,0,2,229,110,65,64,4.985806354,2.593333337,3.453715005,5.89688957,0.948070192,3.208418109,2.379655727,2.694333021,3.397972982,154.559997,23.34000003,55.2357889,222.9889478,1.763157895,41.81263091,117.7794744,23.637895,104.1910535,18.91896409,18.22902181,21.62310913,19.28169434,21.2024166,18.91678159,16.97406986,13.88043676,9.439494818,16.54903238,19.80111122,22.34881997,25.65461899,27.16105275,25.3148988,23.28803047,24.25146582,18.24460841,5.239677404,10.2422222,10.55939387,15.21770316,15.87359667,14.84504335,11.5614249,11.15398494,7.352427253,6.267898103,8.570747831,9.793885142,12.80097944,13.68904673,12.46138399,10.55155578,10.87663924,7.688896934,0.638917053,1,1,1,1,0.981507475,0.966916282,0.722284214,42.73248125,-76.65275025,2017,NYH2
B73/PHM49,OHH1_2018,Y,17.05,737.557139,0,1.5,270.5,137,59,60,3.056774178,9.537500136,1.922452157,2.385565957,3.342142727,1.8544286,3.625787622,3.100846839,2.007798001,94.75999951,76.30000108,21.73714328,80.43785755,3.342142727,18.544286,121.7649994,22.15357072,61.29071423,19.31095449,14.64635724,20.72885596,20.94366931,19.27592959,20.95649317,17.99811894,17.37176276,15.4204415,15.33419351,20.99500024,26.65036435,28.81994394,32.41071347,30.66092864,28.53085842,26.94730604,24.73435724,3.376129027,12.14624989,14.55931522,16.57316253,19.49428545,18.47499986,17.24720124,15.03980618,12.05347394,5.35712311,9.832246518,13.13485159,14.9051591,17.95401161,16.59941793,15.03822312,13.39555861,11.48513665,0.534285712,0.926785712,1,1,1,1,0.999125,0.970735544,39.85688825,-83.671225,2018,OHH1
F42/MO17,INH1_2020,Y,24.96166667,697.8474746,13,1.833333333,236.6333333,118.3333333,67.5,63.16666667,2.63064515,6.092222161,2.380905542,2.638028789,0.629411796,2.977235278,3.349803369,1.095052516,1.575144189,81.54999965,54.82999945,26.35000017,86.90176377,0.755294155,29.77235278,114.9176474,7.60117643,48.41470517,19.12040675,14.46862051,21.68340347,21.75389977,20.24839053,19.66959435,18.78188958,18.00828299,15.45076636,15.20677414,20.6899999,27.1104927,29.42650107,32.0752936,30.36388222,28.15834081,28.66782236,25.41333794,2.934193564,11.51555562,15.17811918,16.46944194,19.37588254,18.23752946,16.66734055,16.5683672,12.52337519,5.193705795,9.337664252,13.54219901,15.16026165,17.73146127,16.3694037,14.61167179,14.83949529,11.90095499,0.576025338,0.994801587,1,1,1,1,1,0.975702381,40.4787965,-86.9895995,2020,INH1
B37/OH43,INH1_2020,Y,24.325,679.151109,10.25,1.75,232.475,113,66.75,63.5,2.63064515,6.092222161,2.380905542,2.638028789,0.629411796,2.977235278,3.349803369,1.095052516,1.575144189,81.54999965,54.82999945,26.35000017,86.90176377,0.755294155,29.77235278,114.9176474,7.60117643,48.41470517,19.12040675,14.46862051,21.68340347,21.75389977,20.24839053,19.66959435,18.78188958,18.00828299,15.45076636,15.20677414,20.6899999,27.1104927,29.42650107,32.0752936,30.36388222,28.15834081,28.66782236,25.41333794,2.934193564,11.51555562,15.17811918,16.46944194,19.37588254,18.23752946,16.66734055,16.5683672,12.52337519,5.193705795,9.337664252,13.54219901,15.16026165,17.73146127,16.3694037,14.61167179,14.83949529,11.90095499,0.576025338,0.994801587,1,1,1,1,1,0.975702381,40.4787965,-86.9895995,2020,INH1
2369/LH123HT,NCH1_2018,N,18.46428571,731.1212129,0.071428571,2.428571429,223.0714286,112.6428571,55.28571429,54.78571429,4.157741868,0,6.852651043,4.101575565,0.281428576,2.753968325,7.265916583,9.606714405,8.963617552,128.8899979,0,78.76714403,125.545715,0.410714286,22.4842863,196.6735732,49.18571489,277.8721441,19.15814344,24.86455965,15.13897653,19.38558293,23.18458939,19.6068393,18.38664919,15.55735787,15.52161696,22.42709686,23.6650002,25.05504787,28.99162569,32.21999972,32.77589287,33.41271207,32.57228504,30.53730396,9.272903273,8.262500107,16.63082339,19.21430847,20.43714251,21.48106165,22.41052549,22.8214047,21.52269578,9.383610038,9.710722454,13.07063738,16.1524193,18.32857112,19.12847726,19.83450897,19.67052049,18.05632483,0.990449307,1,1,1,1,1,1,1,35.6667825,-78.492372,2018,NCH1
B37/H95,DEH1_2015,Y,20.9,691.2184706,0.5,0.5,263,158,67.5,63,2.877187484,6.848000002,1.658122271,2.899811139,0.533124998,6.398055441,4.542065261,4.666333417,5.694818618,92.06999949,68.48000002,26.86312445,94.40374921,0.778750002,57.58249897,115.8581242,26.73625046,176.5393772,18.09789148,17.20138936,20.11151884,21.0089777,21.53492481,19.24730516,17.70191113,15.05628078,15.14846735,16.82656264,19.24400005,20.72376954,27.68890342,31.56656283,31.86354174,32.09465687,30.43364003,29.09395151,6.265937505,9.858999991,10.7453803,17.67876376,20.38750017,21.35659703,22.77220607,22.28250884,20.56647162,6.521960329,8.412914767,9.229957748,14.85993723,17.9770315,18.58170739,19.36170697,18.35807444,16.86736745,0.750435273,0.870857151,0.962682184,1,1,1,1,1,38.62935675,-75.4656925,2015,DEH1
TX777/LH195,GAH1_2018,Y,15.79,663.8657844,0,2,157.5,105,64,63.5,4.231249915,1.934999943,5.575464231,3.801027214,1.067857163,3.256190501,3.932246866,3.816857059,2.685023025,135.3999973,11.60999966,76.79571342,135.0185695,1.516428607,29.30571451,107.1921429,19.08428529,83.23571379,16.89130574,18.83037901,19.9789379,20.32622599,17.16636637,17.47509449,19.98058203,18.77657547,18.35496912,25.6268748,28.56500022,25.46428012,27.96417186,30.5753573,30.54857133,31.9994497,33.07128549,33.68336431,12.70062498,14.46999963,11.35988473,14.27301998,20.47928579,20.42444427,20.68398901,21.82542842,22.30905548,11.99291119,13.91639365,11.33534042,13.63652225,17.52732154,17.4865078,18.33967815,19.36985553,19.8838857,0.988973219,1,1,1,1,1,1,1,31.50582525,-83.55515025,2018,GAH1
B73/PHM49,ARH2_2017,N,17.7,731.1212129,0,2,229,110,65,64,2.789999995,15.83285686,4.776016413,2.853949028,1.142500003,5.651818152,3.905948255,2.4430325,4.688621725,89.27999985,110.829998,61.6427269,88.95863769,3.003181826,52.42863608,105.2449988,13.33772746,145.3472735,17.14489296,19.09436907,20.93439511,19.65670258,19.84409681,19.1211903,18.81176407,19.65259997,17.546866,23.65656266,24.55142866,25.38541455,28.9612549,32.40098458,30.84565692,31.84241473,32.83627249,30.20087953,12.07343751,12.16142872,12.7110645,18.0477898,21.78734854,20.24410098,21.87781566,22.25639174,20.26112908,10.83878158,11.22094165,11.88579938,15.62584547,19.09416656,17.54487895,18.8103181,19.27693671,17.25265116,0.991674107,1,0.97315368,1,1,1,1,1,35.67418125,-90.0752695,2017,ARH2
B37/H95,ILH1_2018,Y,16.45,759.439288,0,2,251.5,120,59.5,58,4.93870967,7.677000022,2.588106254,5.605117571,0.281428576,3.456349163,4.202656593,1.004543384,2.183824858,153.0999998,76.77000022,33.4678576,176.7721435,0.281428576,32.73642816,135.7042854,6.586428666,67.2342849,18.91812334,19.3164753,20.10278531,22.12028957,18.91592986,20.16297878,19.11980649,19.09856314,16.2127272,15.99580652,18.50399971,25.32625123,29.19453127,30.85535676,31.83740471,28.20358558,28.86124239,26.43877647,3.618387117,7.573000085,14.94700907,16.75211974,20.46500043,20.0205478,17.14982155,16.71822788,13.95248539,5.629456993,7.587936205,12.64486739,15.17263993,17.66017859,17.94105007,14.82889519,14.97382886,12.85823928,0.640783421,0.72660713,1,1,1,1,1,0.984431123,40.06300125,-88.2291765,2018,ILH1
B73/PHZ51,ONH2_2015,Y,20.9,771.0239551,0,1.5,299.5,166.5,81,80.5,1.876451608,4.282666683,1.928005431,1.58261263,10.80264742,1.923208582,3.114388399,4.294901914,2.356388962,58.16999984,64.24000025,23.61999965,57.22470651,21.60529484,21.1552944,115.5017658,31.56294079,72.1164696,18.95380112,18.76709785,21.17743809,22.45418875,20.04103015,18.4543581,18.45373918,15.80078253,13.34539525,11.17387095,14.38466663,23.91200153,26.61279381,30.15176526,27.65053462,26.77986929,25.87464046,20.7920557,2.006774224,5.636000033,13.64950245,15.64688346,19.32647026,18.51812829,16.74694623,15.4972221,11.03054456,3.742938436,5.617129505,11.53065914,13.52353119,16.78542678,15.13421866,13.95153495,13.1846932,9.37660249,0.276970043,0.589690475,0.985132406,1,1,1,0.993019959,0.931831119,42.45408625,-81.8816065,2015,ONH2
B14A/OH43,GAH1_2017,N,13.55,698.2979894,0,2,185,80,59,58,1.929687474,5.730000019,0.343252103,3.449286585,2.107618968,4.586772466,5.884115127,3.462793619,5.790337869,61.74999917,45.84000015,4.185237975,115.4628578,3.161428452,44.24761888,164.3961923,18.00285697,179.500474,16.80249013,20.13732326,20.17342047,19.27076224,21.20480144,16.6798163,18.15858085,19.37517402,17.73704587,23.5584375,24.76124978,28.73884546,29.02932191,29.79031757,30.11825943,30.88468736,33.04158726,32.39466959,8.654999979,9.073749959,13.81601286,15.94569083,16.85142871,20.07059283,21.0580027,22.24365102,22.03411694,9.935165979,10.3201674,13.6844889,14.81363998,15.5596332,17.10789698,17.95959829,19.61349988,19.1980032,0.8834375,1,1,1,1,1,1,1,31.50794425,-83.55854475,2017,GAH1
LH195/PHN37,MIH1_2016,Y,17.3,731.1212129,0,7,237.5,119.5,63,61.5,3.213870927,0.372000003,1.277668238,2.072144594,0.204761899,2.382636341,6.277866916,3.129595251,4.115734243,99.62999874,1.860000014,16.77857134,74.4033328,0.614285696,24.34142835,217.3680916,23.88571438,123.5814282,20.04481233,22.69628944,22.57460654,21.19066928,19.62511718,19.41470496,17.43536011,14.16523572,12.41239439,17.74322581,29.20999985,25.57947765,28.1508514,27.23547651,30.32783564,28.27294529,26.6388532,22.50219404,5.299677434,16.33600006,11.90361174,14.70447611,15.74579377,17.52671,16.25511672,15.58650841,10.86825081,6.615827776,14.89908974,11.62365975,13.82943527,13.70908531,16.01583991,14.48649579,13.48265,10.09129455,0.734400922,1,1,1,1,0.999987733,0.99326559,0.936590208,42.41206675,-84.2952625,2016,MIH1
LH74/PHN82,ARH2_2016,N,13.45,731.1212129,0,2,189,94.5,63,62,5.780937422,12.26500018,3.712120208,7.0222886,1.105000019,0.295568184,1.931287914,1.454696927,6.280835692,184.9899975,73.59000111,50.67409075,233.2059098,2.210000038,2.364545475,51.29727264,7.656817956,194.7059064,17.76457119,17.22719622,20.14058537,19.80644481,18.88262117,19.79738723,18.69440654,19.88854878,15.60714355,21.02781257,25.69833342,24.88224707,27.55747889,33.1628785,33.38017045,32.40728063,33.71248445,31.37684753,8.517187547,14.13833332,13.26693003,16.75834882,22.79151535,23.21522755,22.56353312,22.95024234,22.3752492,8.626308124,12.37618007,11.75818796,14.46644855,19.89189903,20.24263088,19.43024202,20.23735303,18.81126952,0.958649555,1,1,1,1,1,1,1,35.838614,-90.66530155,2016,ARH2
CG44/CGR01,WIH2_2016,N,16.25,809.3177158,0,33.25,243.75,127.5,57,57.25,2.185483832,6.563333432,3.447094458,4.124693788,6.707159024,6.158880111,5.945293137,1.654273513,4.758742445,67.74999878,39.38000059,44.45545418,149.2718189,18.91272705,63.86318129,228.7613642,17.11772738,143.1609097,20.07161814,17.64681498,20.48120554,20.03716075,21.00097141,18.73971629,16.31911952,14.94670844,10.3303759,18.34677419,27.65666644,25.59626749,27.3504729,29.44640147,29.15349181,26.70938079,24.21329019,20.37268081,4.840000014,15.2516667,12.43660419,15.21846351,16.18390156,17.81047537,15.29826924,12.0891497,9.537770322,6.76617685,13.67923016,11.77429452,13.6256578,15.0809804,15.56950508,13.35737665,11.10536848,8.849967039,0.729688939,1,1,1,1,0.998061418,0.979766622,0.886131912,43.32649075,-89.33882925,2016,WIH2
B37/OH43,KSH1_2015,N,12.9,749.1418061,0,2,229,110,85,82,0.688124985,3.518749885,2.537239536,4.634326915,6.340784251,4.013516285,5.753010874,3.95559662,1.81791271,22.01999953,28.14999908,47.40176476,147.1705882,9.165882307,38.18235242,161.646473,23.74705871,56.35529401,19.48910828,20.34062409,19.21958791,21.30664108,18.00351726,18.80818483,18.60066932,17.86718078,18.78253622,17.69406253,22.96750021,19.85221485,29.31892792,29.11705877,31.41670577,31.16760655,30.50505886,29.96204923,3.297187492,8.938749969,8.792561365,16.998743,18.09705929,19.84989561,20.1377744,20.03282345,17.06836811,6.184738542,9.476230158,8.381520189,15.38816616,15.61697663,17.65547515,17.65556265,17.32458654,15.75670183,0.6778125,1,0.850138809,1,1,1,1,0.98304554,39.21641775,-96.60482225,2015,KSH1
B14A/OH43,DEH1_2016,N,22.2,657.1080619,0,4,260,122,78,78,2.701875035,7.431818214,3.891344367,3.01543569,5.358105985,2.453055546,7.028031294,2.624318106,3.1968602,86.46000111,81.75000036,66.39499953,101.6163622,13.33454524,24.02227264,188.3231781,15.05272682,98.58045408,18.33047433,10.1000462,19.40971708,21.02938559,18.25055452,17.64652011,18.94468483,17.7865103,16.44449792,18.09,16.60090897,19.90208421,27.67646738,27.79681775,28.9030859,31.91379825,31.21812112,30.57169607,5.529687506,9.93090907,10.11289786,16.8589893,18.02106052,19.78800518,21.90881045,21.62957593,20.16127331,6.825577378,7.645605865,8.606637786,14.43603228,14.98401645,16.37610101,18.85541374,18.37748956,17.3477875,0.726328134,0.729318176,0.990929859,1,1,1,1,1,38.6482025,-75.44606,2016,DEH1
TX951/LH195,NEH2_2015,N,22.7,706.0211008,0,0.5,229,110,96,97.5,1.358750008,3.755999994,3.031264216,1.286090902,0.286666671,1.657187527,3.751759362,0.157499999,0.616713691,43.48000026,37.55999994,66.29000026,43.49999976,0.860000014,16.57187527,117.6431233,0.944999993,18.99062441,19.53783247,19.98656282,18.8528682,23.65152674,23.21232343,22.7312118,19.62767813,21.61948185,18.20728239,15.03874992,23.15200024,18.66927583,30.14561768,32.37510385,32.60862507,30.36489819,32.31320816,28.31448706,-2.426562488,5.230999994,5.264051067,13.5723423,16.5714581,16.13087479,15.9646131,15.56819047,11.19634675,4.192485347,8.478296732,6.894904354,14.37610508,16.560328,16.47008009,15.3434088,16.05261291,12.83173005,0.519497764,0.97653572,0.809891265,1,1,1,1,0.922021698,41.0514495,-100.7471915,2015,NEH2
F42/OH43,GAH1_2018,Y,15.33,832.8088463,1,2,222.5,112.5,60,58,4.231249915,1.934999943,5.575464231,3.801027214,1.067857163,3.256190501,3.932246866,3.816857059,2.685023025,135.3999973,11.60999966,76.79571342,135.0185695,1.516428607,29.30571451,107.1921429,19.08428529,83.23571379,16.89130574,18.83037901,19.9789379,20.32622599,17.16636637,17.47509449,19.98058203,18.77657547,18.35496912,25.6268748,28.56500022,25.46428012,27.96417186,30.5753573,30.54857133,31.9994497,33.07128549,33.68336431,12.70062498,14.46999963,11.35988473,14.27301998,20.47928579,20.42444427,20.68398901,21.82542842,22.30905548,11.99291119,13.91639365,11.33534042,13.63652225,17.52732154,17.4865078,18.33967815,19.36985553,19.8838857,0.988973219,1,1,1,1,1,1,1,31.50582525,-83.55515025,2018,GAH1
TX777/LH195,MNH1_2015,Y,16.65,741.4186947,0,4.5,253,125,77,75.5,2.676451665,6.10285713,1.587216104,4.707726326,2.093823531,4.685775359,5.935015669,2.223261507,2.198788145,82.97000162,42.71999991,19.59000013,155.007059,3.965294123,52.23235247,227.0947085,20.90117698,67.40117758,19.81693462,15.87546921,21.62818458,20.65236193,17.21434565,21.12123323,17.7408483,14.5374504,12.06297535,17.43387093,22.63000025,27.28921799,28.46423671,28.36529418,28.07899716,26.14089523,24.73259507,17.90095705,4.567419307,13.73428563,14.30007362,16.89716897,18.65411764,16.19745995,14.75643511,13.57280729,6.634647692,6.2838161,10.87437977,13.26905608,14.87023808,15.64114514,14.35392043,12.99006372,12.46836687,7.55733068,0.722983866,1,1,1,1,0.977703003,0.878626049,0.721229646,44.07038575,-93.53519625,2015,MNH1
TX951/LH195,NYH2_2020,N,17.65,698.2979894,0,5,250,123,70,69.5,4.422257993,0,1.391731236,3.182357247,6.170888774,3.507901041,2.283490724,1.426918664,2.172175634,137.0899978,0,18.68266731,113.2706661,12.6093331,36.98266699,88.46933366,18.14666667,65.61600019,20.94267544,21.78244971,21.55666085,20.64321436,19.27786447,18.92984529,17.76882093,13.77968924,11.70490539,14.55447306,27.94977782,23.62933928,27.86541297,27.88688897,28.78672537,26.53302948,21.56675493,18.20507674,2.61195699,15.66431106,11.35573055,15.51025755,16.31100023,17.48208292,14.53826355,10.86377734,6.879177126,4.979415324,14.02697238,10.70801105,14.09392345,14.22879085,15.20067311,13.04971037,9.749522427,7.387680802,0.470065285,1,0.969822941,0.995242037,1,0.988859641,0.904446401,0.765938608,42.73230075,-76.65036275,2020,NYH2
B37/MO17,ILH1_2019,Y,18.65,765.8752142,0,0,241,124,62,61,3.922903261,5.481666605,1.00366755,4.244691953,0.864761892,1.289377346,1.227411081,2.864647074,2.116070648,121.6100011,32.88999963,10.01785682,147.0385723,1.34571428,11.77428573,45.42428628,20.70571404,64.49999962,18.80145381,19.65322081,22.67392072,19.84274881,20.61125065,20.0231267,19.28032854,15.59344345,14.97056188,19.78774188,27.49499989,27.66771062,28.39175175,31.90428638,30.86753304,28.53869606,27.75133519,26.64299619,8.822580737,16.11666648,15.73801632,17.44140675,20.6435711,19.81749468,16.71837596,16.74759351,14.38373492,8.392897398,14.01107102,13.933587,15.08804109,18.28423173,17.40393302,14.78980986,14.45116262,13.1086535,0.871382484,1,1,1,1,1,1,0.979387755,40.0587105,-88.2298385,2019,ILH1
LH198/PHZ51,NYH2_2015,N,16.85,731.1212129,0.5,5,245.5,116,82,81.5,3.814193487,2.822857129,1.806874641,1.427310218,14.28882354,6.323155046,2.553769654,1.263651931,1.70374005,118.2399981,39.5199998,23.5252947,50.99705838,17.86235295,65.18176435,90.43176518,10.71352917,51.74117684,19.21827184,21.58410556,20.44972798,21.8367517,17.34067749,18.34945618,18.49425604,17.55625849,13.84215422,11.26903224,15.86071418,24.70888252,27.12764594,29.5805878,28.55383422,27.75922879,25.11594081,20.73318661,0.676451599,3.065714287,12.68317757,14.19692254,19.48862723,17.66257776,16.12899413,12.03346763,8.797239788,3.458861152,5.522653893,11.65565145,13.2498794,16.56577659,15.18766176,14.16580901,11.53845799,8.731216192,0.261509218,0.568112238,0.971160735,0.994106254,1,0.999864887,0.980226591,0.898542131,42.7324825,-76.65277775,2015,NYH2
B37/OH43,TXH1-Early_2018,N,10.35,734.339176,0,2,236.5,77.5,72,68.5,2.442333295,0.87833333,4.91741256,2.91095925,1.112321411,5.987347663,3.094033648,2.445309502,2.573656677,73.26999886,5.269999981,55.2178573,113.3721426,4.449285643,64.36357035,86.72785865,13.67714274,77.357857,13.4988633,14.49154552,13.92485348,19.6618496,19.390827,19.64184359,19.38410293,21.21373351,18.01258323,19.68933331,26.95833333,25.66614373,26.56996845,30.24238085,29.14372996,31.91805433,33.2644762,34.51160554,6.357666679,15.03999996,15.13755815,13.69055459,18.24071415,16.44843436,20.63070323,20.50154739,23.97494014,7.613570572,13.40715604,12.87528071,12.79536137,16.34410207,15.0664779,18.21233438,18.75919739,20.40606275,0.821476194,1,0.991620595,0.99408643,1,1,1,0.999013392,30.546318,-96.4329965,2018,TXH1-Early
B37/H95,MOH1_1_2018,N,17,731.1212129,0.5,1.5,240.5,129,59,56.5,4.419032262,0.120000001,6.56660792,4.995913726,0,0.865952386,4.867908623,7.318145406,3.629241153,136.9900001,0.840000004,71.60142667,150.6285707,0,7.793571472,145.6157139,39.85928573,112.0157138,18.39395777,18.46565301,20.1607481,20.70593221,19.87326009,21.97749135,18.06982858,17.46468943,16.31914076,19.5254839,22.76714298,27.16554273,29.60936822,31.6271427,32.32420578,29.51628185,29.85375934,27.04843165,7.99741943,14.14714282,16.43732974,18.81172612,21.79964249,20.71007941,19.44316189,19.21155699,15.91814144,7.992986492,11.1555316,14.00535673,16.26359619,18.7133926,18.51714259,16.54699664,16.60044059,13.86670431,0.872361758,1,1,1,1,1,1,0.995607144,38.89791675,-92.20952075,2018,MOH1
TX714/TX779,ONH1_2017,Y,17.7,731.1212129,0,2,229,110,65,64,4.42290319,4.904999876,1.545173221,3.420435244,1.695375006,2.594700004,1.855534774,1.54565171,2.383111348,137.1099989,49.04999876,23.52600009,140.8034994,5.378000009,36.46150006,95.23350107,29.85300009,72.44250006,18.65662235,17.08545341,23.10813164,20.12586768,18.11232318,19.44819915,16.33652997,11.62209215,7.957733996,13.94322577,18.20700026,22.35689536,24.80045755,25.17183321,25.2296929,22.79396283,22.13957367,13.29532023,3.578387066,9.706999969,10.10387851,14.12185296,14.82349991,13.63261195,10.3904862,9.847475595,3.166289439,4.958212412,8.025894563,9.659097931,11.97096233,12.35740613,11.98311106,9.953455995,10.0654016,5.273375752,0.439723498,0.877642858,1,1,1,0.972410901,0.840292505,0.515578473,43.49546,-80.42596875,2017,ONH1
W10005_0107/PHB47,GAH2_2017,N,18.45,695.7236189,22,2,212,110,49.5,52,5.215806507,2.59000005,0.877047008,6.976424555,36.66571527,11.68990473,2.766634194,6.717714339,5.237281131,161.6900017,18.13000035,10.98809533,219.4985743,69.630002,116.6428568,77.55666748,33.5885717,162.3557151,18.59375843,20.97986943,21.98193589,18.54567619,14.33990901,17.7663424,19.78523868,18.86354985,17.57616326,25.93516134,24.17571449,30.47339418,29.31252372,29.52904774,29.72980419,32.72601502,32.10511542,30.76784952,12.17225799,9.938571385,16.15324828,18.06353156,20.43476164,19.51114297,21.20992787,20.86352373,19.95543778,11.90954616,10.38538115,15.45655397,15.75249851,16.98190469,16.63412837,18.90169131,18.47155665,17.41241638,0.999631335,0.985714285,1,1,1,1,1,1,33.727145,-83.29821525,2017,GAH2
B37/H95,NYH3_2019,Y,22.75,790.9753262,4,6,262,134.5,75.5,75.5,3.722580618,3.873333404,3.769554008,3.757958966,6.56821411,3.88506864,3.604603585,1.929858492,3.709694332,115.3999992,34.86000064,61.04857108,135.2235714,13.13642822,47.6607138,172.5314276,35.27499978,112.0914282,17.9818517,20.79040337,20.53458356,20.20586531,15.56107187,20.47665645,15.7702462,13.42945136,8.802352299,16.21290321,21.91111098,21.5613082,26.8770008,26.27928579,27.19863099,23.33754175,19.77308355,13.39834902,5.322258069,10.30000003,10.31609792,15.50927174,17.62488075,14.92700095,12.00041282,8.027538821,3.378330702,6.134411308,9.414033746,9.318517767,13.52970479,14.11503311,13.40897889,10.69134109,8.327220554,5.109082433,0.665391704,1,0.983452189,1,1,0.970435943,0.837841689,0.510564168,42.7321756,-76.65345463,2019,NYH3
PHB47/PHZ51,NYH3_2015,N,15.55,731.1212129,0.5,16.5,250,134,71,73.5,4.268387075,0,1.234803629,3.315485905,3.744705864,3.708743319,2.034738589,2.091907533,2.160160663,132.3199993,0,17.66999944,111.4647067,9.843529393,38.42352946,75.35117763,21.49235322,65.37235311,20.95885717,21.76160183,22.01003167,20.47654391,19.37507164,18.84800849,18.09954582,14.25866518,12.17165493,15.21516129,28.41399994,23.9726608,27.94852153,28.22411762,29.00645443,26.88612691,22.65429039,19.02039094,3.206451565,16.00799999,11.62235867,15.61032629,16.7502941,17.72633694,14.88804443,11.60832066,7.356588233,5.349626667,14.38734971,10.95773449,14.17183136,14.61937489,15.41213998,13.31670354,10.34569698,7.707711279,0.504331792,1,0.97267375,0.996219796,1,0.995345527,0.95775528,0.812032548,42.7233625,-76.6555945,2015,NYH3
PHG39/PHN82,NCH1_2020,N,17.55,728.2250461,6.5,0,225.3125,106.25,65,64,3.811250031,6.583749771,1.870150701,7.593384547,0.8842857,2.636686467,3.330713381,6.121142871,7.323433169,121.960001,52.66999817,29.28357046,255.9407139,2.652857099,23.48571392,94.03142862,30.32857149,227.0264283,17.79310012,18.2030313,21.90311614,16.62410426,22.73441878,20.97653859,20.54309533,18.15988809,15.65141399,21.6678125,23.21999979,23.34870433,27.04964214,28.2173808,30.95634976,33.07043217,33.2972859,31.24656685,8.082812505,11.53125006,9.51933213,18.09668861,18.19142909,20.58560522,22.1124513,22.85800005,21.91055295,8.88590596,10.34544598,9.896418393,14.69404398,15.249625,17.76881847,19.50312724,19.99035698,18.5620876,0.935200903,1,0.995619773,1,1,1,1,1,35.30009892,-77.57131746,2020,NCH1
PHG39/PHN82,NYH2_2015,N,20,731.1212129,0,0,210,94,86,85.5,3.814193487,2.822857129,1.806874641,1.427310218,14.28882354,6.323155046,2.553769654,1.263651931,1.70374005,118.2399981,39.5199998,23.5252947,50.99705838,17.86235295,65.18176435,90.43176518,10.71352917,51.74117684,19.21827184,21.58410556,20.44972798,21.8367517,17.34067749,18.34945618,18.49425604,17.55625849,13.84215422,11.26903224,15.86071418,24.70888252,27.12764594,29.5805878,28.55383422,27.75922879,25.11594081,20.73318661,0.676451599,3.065714287,12.68317757,14.19692254,19.48862723,17.66257776,16.12899413,12.03346763,8.797239788,3.458861152,5.522653893,11.65565145,13.2498794,16.56577659,15.18766176,14.16580901,11.53845799,8.731216192,0.261509218,0.568112238,0.971160735,0.994106254,1,0.999864887,0.980226591,0.898542131,42.7324825,-76.65277775,2015,NYH2
2369/LH123HT,IAH4_2019,N,34.575,647.4541727,10.25,2,276.5,141.5,62.75,62,7.44874995,0,6.508814674,5.652572602,2.433809479,0.731547632,2.455795253,7.856419535,5.758725846,238.3599984,0,89.12928634,169.456428,4.779285618,8.60571444,106.5300014,62.81714391,173.1250012,18.61457558,24.25652275,18.80062453,19.64217675,17.01762246,21.29967345,16.82875041,12.82062273,10.73648339,20.72718754,29.98400002,24.57226332,29.58102216,28.11761892,27.58625519,26.21902431,25.70162766,18.66579105,8.655312385,16.39199963,13.30590142,18.52555793,18.42333308,15.4118289,14.78252205,14.57801647,7.354403302,8.719182336,15.28713381,11.55896644,16.12377034,15.4195504,13.79277779,12.9189296,12.78184671,8.051480754,0.866629464,1,1,1,1,0.996735112,0.969646609,0.721601517,42.03193798,-93.79333213,2019,IAH4
PHG39/TX205,NCH1_2016,N,14.9,731.1212129,0,2.5,235.5,124,65,64,2.901562452,3.125714166,7.137907935,4.683034439,4.3177271,0.863030289,5.226283407,5.104181825,4.507668668,92.84999847,21.87999916,91.86318315,160.7736342,8.497726928,8.495454409,139.9318182,26.12772732,139.7377287,16.36857818,22.27138465,15.49498623,18.72849078,21.8793198,21.8664799,18.529992,18.05675722,17.32656161,20.86125001,25.58571407,25.68946269,27.1054564,30.20318166,31.0559697,32.42423852,33.59766701,33.26035177,7.692187494,8.212857212,14.27003911,16.07300028,18.02681784,18.80169681,21.2796372,22.62190931,22.7218182,8.383421821,10.43985322,12.46468669,13.95599298,16.17160042,16.99727481,18.83160592,19.980567,19.86697781,0.913761163,1,1,1,1,1,1,1,35.30015175,-77.57127825,2016,NCH1
W10004_0216/PHZ51,NYH3_2015,N,22.2,731.1212129,0,0,239,113,84,84,4.268387075,0,1.234803629,3.315485905,3.744705864,3.708743319,2.034738589,2.091907533,2.160160663,132.3199993,0,17.66999944,111.4647067,9.843529393,38.42352946,75.35117763,21.49235322,65.37235311,20.95885717,21.76160183,22.01003167,20.47654391,19.37507164,18.84800849,18.09954582,14.25866518,12.17165493,15.21516129,28.41399994,23.9726608,27.94852153,28.22411762,29.00645443,26.88612691,22.65429039,19.02039094,3.206451565,16.00799999,11.62235867,15.61032629,16.7502941,17.72633694,14.88804443,11.60832066,7.356588233,5.349626667,14.38734971,10.95773449,14.17183136,14.61937489,15.41213998,13.31670354,10.34569698,7.707711279,0.504331792,1,0.97267375,0.996219796,1,0.995345527,0.95775528,0.812032548,42.7233625,-76.6555945,2015,NYH3
F42/OH43,SCH1_2020,N,13.845,731.1212129,2.5,3,95.5,40,59.5,58.5,6.726129055,12.61950016,14.6709951,2.000047064,2.505749965,4.425319405,2.268462711,6.18714998,5.023091868,208.5100007,84.13000107,163.6860008,61.50999924,5.011499929,39.68149965,62.57699943,33.64599986,155.4654979,20.36817608,19.66978326,14.75526058,19.85961082,19.96014466,19.24465486,19.87809105,16.40752662,15.64625104,22.32567731,25.33999968,25.31846332,29.19710574,32.4110003,31.66961065,33.32032281,31.92909988,30.24042268,7.936741977,12.70899997,16.31955663,18.65521183,21.09725013,21.1736526,21.46883008,21.19136654,20.48826235,8.963701593,11.76593586,13.23428606,15.98846211,18.75412521,18.42141037,19.32426,18.56023321,17.40294316,0.984170504,1,0.973950938,1,1,1,1,1,34.62225,-82.736661,2020,SCH1
B37/MO17,NYH3_2020,N,16.65,704.7339156,0.5,6,243,116,69.5,69,4.422257993,0,1.373865683,3.203515064,6.161458224,3.578657229,2.247619776,1.339995863,2.270768823,137.0899978,0,18.69000064,113.6731244,12.19749978,37.86125033,87.74812532,17.041875,68.54562519,20.94560956,21.78233427,21.55267425,20.63825651,19.18147684,18.87690393,17.75633085,13.93943947,11.5316014,14.59225801,27.97729172,23.60945411,27.89842024,28.17958339,28.76829368,26.51617347,21.47489044,18.12990527,2.644717742,15.68266662,11.3508871,15.53912014,16.43281273,17.50013456,14.53010818,10.52921434,6.891416056,5.000434995,14.04753459,10.70035646,14.11697706,14.42792892,15.19886376,13.03509367,9.604727821,7.356101809,0.471947005,1,0.969562211,0.99553941,1,0.989555914,0.903066166,0.764418635,42.73227475,-76.6513705,2020,NYH3
PHN11_PHG47_0251/PHB47,OHH1_2015,Y,13.1,755.5777323,0,0,235,110.5,60.5,61.5,4.820000016,2.056666652,1.801667061,2.430255425,2.070588264,2.75488235,3.664772063,1.623969288,1.874022108,149.4200005,12.33999991,20.27235275,82.00588303,2.23529414,26.29176468,128.0200007,12.16764697,57.18411674,17.71339239,20.831882,20.85048625,20.93566426,20.28419298,19.59839119,17.66236547,17.23782846,14.83481447,16.95064511,28.03666687,26.64173705,29.01382079,31.07970569,30.59522857,27.99762273,26.69097183,23.34659959,5.9283871,15.42166694,14.66308043,16.74801267,19.23764672,18.74322206,16.69895781,13.90980629,10.26308727,6.580773377,14.04730329,13.19467995,15.08203889,17.16864649,16.69143216,14.53513226,12.92347397,10.29932856,0.672569122,1,1,1,1,1,0.994932126,0.947361455,39.855785,-83.66477375,2015,OHH1
B37/OH43,WIH2_2016,N,22.8,774.8855108,0,14.5,272.5,138.5,61,61,2.185483832,6.563333432,3.447094458,4.124693788,6.707159024,6.158880111,5.945293137,1.654273513,4.758742445,67.74999878,39.38000059,44.45545418,149.2718189,18.91272705,63.86318129,228.7613642,17.11772738,143.1609097,20.07161814,17.64681498,20.48120554,20.03716075,21.00097141,18.73971629,16.31911952,14.94670844,10.3303759,18.34677419,27.65666644,25.59626749,27.3504729,29.44640147,29.15349181,26.70938079,24.21329019,20.37268081,4.840000014,15.2516667,12.43660419,15.21846351,16.18390156,17.81047537,15.29826924,12.0891497,9.537770322,6.76617685,13.67923016,11.77429452,13.6256578,15.0809804,15.56950508,13.35737665,11.10536848,8.849967039,0.729688939,1,1,1,1,0.998061418,0.979766622,0.886131912,43.32649075,-89.33882925,2016,WIH2
F42/MO17,NEH4_2015,N,14.55,793.5496967,0,2,240,125,65,55,2.821875036,0,3.668207424,2.0125769,1.951249957,2.654893884,1.684158262,0.190010425,1.166079967,90.30000114,0,33.89000034,59.04687595,1.951249957,28.04999942,59.1787506,1.401875056,35.09749981,18.84220009,27.31064491,20.41342533,20.52862815,19.03072298,18.81303122,18.33826559,17.15407273,12.68489203,24.01437524,30.79399948,29.66091772,30.90712841,30.81250072,28.65153035,29.50292414,26.73776808,20.93262179,13.35843744,15.59799976,18.4981335,19.26878801,20.26031268,17.34358901,16.24316685,11.04417556,7.09840123,11.80342709,15.44887437,16.14310254,17.09436255,17.53736601,15.18702607,15.25106182,11.88303257,8.618375536,0.931774556,1,1,1,1,0.97284651,0.984144349,0.784438609,41.16732275,-96.41663225,2015,NEH4
B14A/H95,NCH1_2017,N,16.35,731.1212129,0,6,218.5,108.5,65,64,5.929354779,4.097142833,0.297958702,3.860588722,6.673809642,5.437090039,2.513672686,1.67758051,4.140460835,183.8099982,28.67999983,4.023333254,115.8195228,10.90952401,51.84571517,65.15761944,9.68857149,128.3542859,16.84796118,19.66078799,22.20077414,19.20396089,15.77249108,20.54839894,18.7994723,19.26606379,16.40835168,26.07000006,23.57857159,28.17011276,29.72614366,31.01404729,30.48814813,32.54721675,31.95695904,30.43138246,13.64064524,11.25142826,15.69757802,18.87536398,22.57674573,19.84793622,22.28039625,21.2748593,20.81350234,12.56442422,10.48784987,14.26665949,16.36044911,18.79940835,17.21144066,19.38557496,18.57336573,17.65269876,0.998329492,1,1,1,1,1,1,1,35.29663725,-77.5668065,2017,NCH1
WF9/H95,NCH1_2016,N,14.95,731.1212129,2.5,9.5,214.5,109.5,65,64,2.901562452,3.125714166,7.137907935,4.683034439,4.3177271,0.863030289,5.226283407,5.104181825,4.507668668,92.84999847,21.87999916,91.86318315,160.7736342,8.497726928,8.495454409,139.9318182,26.12772732,139.7377287,16.36857818,22.27138465,15.49498623,18.72849078,21.8793198,21.8664799,18.529992,18.05675722,17.32656161,20.86125001,25.58571407,25.68946269,27.1054564,30.20318166,31.0559697,32.42423852,33.59766701,33.26035177,7.692187494,8.212857212,14.27003911,16.07300028,18.02681784,18.80169681,21.2796372,22.62190931,22.7218182,8.383421821,10.43985322,12.46468669,13.95599298,16.17160042,16.99727481,18.83160592,19.980567,19.86697781,0.913761163,1,1,1,1,1,1,1,35.30015175,-77.57127825,2016,NCH1
F42/MO17,NEH2_2018,Y,14.6,769.7367699,0,2,277.5,114.5,65,64,1.223548393,0.707272736,4.763911635,2.422660693,9.359230876,1.187769238,2.22139935,1.060615372,2.655643509,37.93000019,7.780000091,61.58923048,72.52538565,18.71846175,11.03461544,72.02230704,6.795384554,82.07230774,19.8632896,17.86074517,17.24350838,22.63499015,18.62862352,21.21286184,19.62237806,18.45252819,16.56870138,17.6919355,17.47909086,23.04657186,30.81178887,30.82346183,31.15499996,29.41523597,30.138927,26.57117624,3.026129,6.979090886,13.86801705,18.31582591,19.94076905,19.05673485,17.52505525,17.69200753,12.69636803,6.275299993,6.965919572,11.10889174,16.66188215,17.38211544,17.1119836,15.61857368,16.09025205,12.68735507,0.68033411,0.762240243,1,1,1,0.996687975,0.997695055,0.910447978,41.38042275,-96.55988375,2018,NEH2
B73/PHM49,NCH1_2019,N,17.7,731.1212129,0,2,229,110,65,64,2.191129027,0,0.107342031,4.775073233,0.466011907,4.533660718,6.24100048,2.370892844,2.941295675,67.92499983,0,1.347142833,143.4146411,0.94178571,36.26928575,165.0100003,13.54249993,91.02821354,18.69452832,25.30126673,21.77382428,19.07893176,22.56876209,20.7892765,19.22903807,18.96679552,16.71087377,25.69580629,28.76666609,32.29891346,30.08294473,33.3002377,33.83080339,32.75741781,32.04927549,30.79691829,13.34274195,12.19133326,19.06280588,18.61089734,20.56851188,21.23558053,21.08131414,19.9046464,19.77832645,12.18436683,13.33597385,17.64216348,16.39126772,18.88342746,19.44075481,18.8247811,17.98080212,17.31161093,1,1,1,1,1,1,1,1,35.67010175,-78.510504,2019,NCH1
B97/PHB47,ARH2_2017,Y,17.7,731.1212129,0,2,229,110,65,64,2.789999995,15.83285686,4.776016413,2.853949028,1.142500003,5.651818152,3.905948255,2.4430325,4.688621725,89.27999985,110.829998,61.6427269,88.95863769,3.003181826,52.42863608,105.2449988,13.33772746,145.3472735,17.14489296,19.09436907,20.93439511,19.65670258,19.84409681,19.1211903,18.81176407,19.65259997,17.546866,23.65656266,24.55142866,25.38541455,28.9612549,32.40098458,30.84565692,31.84241473,32.83627249,30.20087953,12.07343751,12.16142872,12.7110645,18.0477898,21.78734854,20.24410098,21.87781566,22.25639174,20.26112908,10.83878158,11.22094165,11.88579938,15.62584547,19.09416656,17.54487895,18.8103181,19.27693671,17.25265116,0.991674107,1,0.97315368,1,1,1,1,1,35.67418125,-90.0752695,2017,ARH2
PHB47/PHZ51,MOH1_2016,N,16.5125,731.1212129,0.875,2.5,259.375,116.875,57.25,56.25,2.465483877,8.058000231,0.264259377,6.282521268,1.94553035,9.25680559,4.358907121,3.354664451,5.453130527,76.43000019,40.29000115,2.879999995,172.8372758,4.262727369,83.20363667,125.2090916,21.13363606,168.2240918,20.2309363,16.93509369,22.49829557,20.20959989,18.68177986,19.21408964,18.0090922,17.17714413,15.87534947,21.83193548,27.56600037,27.88644765,31.21215235,30.25795442,31.2505745,30.57423065,29.80077912,28.25339236,10.073871,16.74400005,16.26474463,19.86215984,19.98371223,20.49117413,20.76153791,19.91431794,17.56318368,9.497798547,14.24343349,14.21296425,17.47336946,17.12232598,17.8699151,17.65104862,16.90998551,15.09561117,0.937315665,1,1,1,1,1,1,0.999442641,38.8955475,-92.2072025,2016,MOH1
B73/MO17,ILH1_2019,Y,17.4,755.5777323,0,0,252.5,150,62.5,61,3.922903261,5.481666605,1.00366755,4.244691953,0.864761892,1.289377346,1.227411081,2.864647074,2.116070648,121.6100011,32.88999963,10.01785682,147.0385723,1.34571428,11.77428573,45.42428628,20.70571404,64.49999962,18.80145381,19.65322081,22.67392072,19.84274881,20.61125065,20.0231267,19.28032854,15.59344345,14.97056188,19.78774188,27.49499989,27.66771062,28.39175175,31.90428638,30.86753304,28.53869606,27.75133519,26.64299619,8.822580737,16.11666648,15.73801632,17.44140675,20.6435711,19.81749468,16.71837596,16.74759351,14.38373492,8.392897398,14.01107102,13.933587,15.08804109,18.28423173,17.40393302,14.78980986,14.45116262,13.1086535,0.871382484,1,1,1,1,1,1,0.979387755,40.0587105,-88.2298385,2019,ILH1
B37/MO17,MIH1_2020,N,20.3,691.8620632,5.5,17,259.75,157.25,63.5,61.5,4.984838709,2.447142908,2.78018427,2.64718347,5.506875038,1.476884461,2.688717092,6.006552647,2.65185957,154.53,17.13000035,30.43499947,89.07562375,6.053750038,16.17374991,112.2143753,49.72375022,79.8756258,20.40588462,19.28742858,24.32683064,21.06964646,18.47526628,19.40802789,18.05267967,13.18055513,11.8632568,17.75483874,24.12857165,28.18736501,29.25734834,30.47187495,29.12451894,27.19720882,23.65947149,18.53645566,5.91032262,13.18571418,13.36449351,15.87753885,17.57625037,17.40439215,14.2199518,12.09430501,6.603961046,6.886871568,11.64218502,13.33305563,14.86544572,16.04104967,15.33737973,13.2580117,11.17810785,7.349100415,0.70564517,0.993469382,1,1,1,0.990981538,0.929873564,0.775463757,42.7085775,-84.4705825,2020,MIH1
LH195/LH82,GAH2_2016,N,12.25,731.1212129,0,2,222.5,180,51,51,1.486129045,0,7.316392826,2.079782856,1.718421064,1.264671045,2.43256314,4.61773679,3.235456168,46.07000041,0,60.50999928,55.97210474,3.436842128,10.11736836,67.31736801,23.15894711,100.2847377,20.21189387,22.87583466,19.10112302,21.34036575,17.85876091,19.83818451,18.50479945,15.9975398,17.29687983,27.80677426,30.50400009,32.06010812,34.2138269,34.93842035,34.86282896,34.62455114,33.33373696,32.80003392,13.8351613,16.55600014,19.35906305,20.32019684,22.9621054,21.76434208,22.04984942,22.29670187,20.14649938,13.32566871,15.60302283,17.72531793,18.78372546,20.36638125,19.89190838,19.9091667,19.70080105,18.42340329,1,1,1,1,1,1,1,1,33.717295,-83.3110275,2016,GAH2
B14A/OH43,NCH1_2020,N,18.225,704.4121193,10.75,2.5,217.1875,106.5625,65,64,3.811250031,6.583749771,1.870150701,7.593384547,0.8842857,2.636686467,3.330713381,6.121142871,7.323433169,121.960001,52.66999817,29.28357046,255.9407139,2.652857099,23.48571392,94.03142862,30.32857149,227.0264283,17.79310012,18.2030313,21.90311614,16.62410426,22.73441878,20.97653859,20.54309533,18.15988809,15.65141399,21.6678125,23.21999979,23.34870433,27.04964214,28.2173808,30.95634976,33.07043217,33.2972859,31.24656685,8.082812505,11.53125006,9.51933213,18.09668861,18.19142909,20.58560522,22.1124513,22.85800005,21.91055295,8.88590596,10.34544598,9.896418393,14.69404398,15.249625,17.76881847,19.50312724,19.99035698,18.5620876,0.935200903,1,0.995619773,1,1,1,1,1,35.30009892,-77.57131746,2020,NCH1
W10004_0216/PHZ51,IAH1_2017,Y,17.7,731.1212129,0,2,229,110,65,64,3.40562493,4.965384584,4.756276119,1.833606587,3.814090996,2.221484887,3.670808328,1.81325484,2.347473118,108.9799978,64.54999959,71.28272616,63.78727258,4.177727374,22.83863677,118.9068186,13.7622725,72.03681816,16.19865167,17.41178014,18.84198651,22.07722619,19.57094626,20.6423577,19.65334879,19.12382584,16.87809105,17.11343735,15.37846162,22.95951679,28.09807267,26.50742381,30.27960591,29.79948923,26.92834941,26.37674051,5.413125027,4.923076978,11.46549016,14.16962528,11.61757578,16.65775237,16.66504091,13.38757222,12.41510662,6.530778339,5.768563812,10.45370215,13.71965113,11.94783378,15.64262598,15.39964617,12.71239892,12.1737806,0.629988832,0.555054952,0.946458762,1,1,1,1,0.998130952,41.19924609,-91.49402296,2017,IAH1
B14A/OH43,TXH1_2019,N,9.885,810.2831048,0,0,184,66,69,68.5,1.71448275,0.072857141,3.656594302,9.095434564,0.409285716,1.207678571,5.355850783,1.246142852,1.574419343,49.71999974,0.50999999,52.00785631,328.2121388,0.592857139,9.661428571,146.4478573,6.531428533,47.51499965,15.42805705,20.52131135,18.76898834,18.57032559,21.42349659,18.85281525,20.14881361,21.03072751,19.84089234,18.45000007,25.76428577,24.43254944,27.27586732,31.09000002,32.37866099,32.72435205,34.04471448,34.98200776,6.826206914,10.35000004,10.67963154,14.78766739,18.65857179,21.85071427,21.02442735,21.79614282,22.6049739,7.457816468,11.1589152,10.85119479,13.46630403,16.91193677,19.11412105,18.84765314,19.77807102,20.01419559,0.749667494,1,0.945308164,1,1,1,1,0.999698925,30.546318,-96.4329965,2019,TXH1
F42/OH43,IAH1_2017,Y,17.7,731.1212129,0,2,229,110,65,64,3.40562493,4.965384584,4.756276119,1.833606587,3.814090996,2.221484887,3.670808328,1.81325484,2.347473118,108.9799978,64.54999959,71.28272616,63.78727258,4.177727374,22.83863677,118.9068186,13.7622725,72.03681816,16.19865167,17.41178014,18.84198651,22.07722619,19.57094626,20.6423577,19.65334879,19.12382584,16.87809105,17.11343735,15.37846162,22.95951679,28.09807267,26.50742381,30.27960591,29.79948923,26.92834941,26.37674051,5.413125027,4.923076978,11.46549016,14.16962528,11.61757578,16.65775237,16.66504091,13.38757222,12.41510662,6.530778339,5.768563812,10.45370215,13.71965113,11.94783378,15.64262598,15.39964617,12.71239892,12.1737806,0.629988832,0.555054952,0.946458762,1,1,1,1,0.998130952,41.19924609,-91.49402296,2017,IAH1
B37/H95,IAH1_2015,Y,21.75,713.7442122,5.5,5,285.5,143.5,65,64,1.566451638,2.213076954,8.402418557,1.323463692,0.084411761,2.297359398,2.93999255,2.37101191,2.732793763,48.56000078,28.7700004,122.1399999,43.52999979,0.168823523,22.82352863,100.1182349,16.67000003,83.81294001,20.43214903,18.85811498,14.63317728,22.31276759,19.14227258,22.20806523,19.83862588,18.33763158,15.0581957,16.08774191,16.64538457,21.84697853,28.7334183,30.26852911,31.30747052,29.05105531,29.39636272,24.66946357,1.839032284,4.865384661,13.12892854,16.86768962,20.05941139,18.05705196,16.3929614,15.43749916,11.17229855,5.447129731,6.098188577,10.48240964,14.99632473,17.16639266,16.72884186,14.96924927,14.77137221,11.30644361,0.593087559,0.682994502,0.988452545,1,1,0.997626801,1,0.896934674,41.9980952,-93.69336973,2015,IAH1
LH198/PHZ51,KSH1_2016,N,14.03333333,769.3077081,0,3,178.3333333,78.33333333,87.33333333,87.33333333,0.381562503,5.593749881,9.031136959,3.981909994,0,0.897724769,5.011421387,3.322424253,5.670073263,12.2100001,44.74999905,140.9509078,148.5090918,0,8.374091108,139.438637,19.93454552,175.7722711,18.43315426,14.04582843,18.34613738,20.88446512,22.70328743,20.59441801,18.34986672,18.15379387,17.32510191,19.15124996,21.70124984,22.33901244,27.19377063,36.31272689,35.17540036,32.01078432,33.85633352,30.76895891,2.130625044,11.46499991,9.568238579,14.2621368,21.58727247,22.04353923,20.78061301,22.71134866,19.49139311,6.3158573,9.667291017,9.626890379,13.35418843,19.56599107,19.14397536,18.06824645,19.12054732,17.03744615,0.741573662,1,0.921279778,0.986042268,0.991287871,0.998977631,0.993550002,1,39.14480675,-96.62898225,2016,KSH1
LH74/PHN82,NEH4_2015,N,14.1,797.4112524,0,2,230,110,65,52.5,2.821875036,0,3.668207424,2.0125769,1.951249957,2.654893884,1.684158262,0.190010425,1.166079967,90.30000114,0,33.89000034,59.04687595,1.951249957,28.04999942,59.1787506,1.401875056,35.09749981,18.84220009,27.31064491,20.41342533,20.52862815,19.03072298,18.81303122,18.33826559,17.15407273,12.68489203,24.01437524,30.79399948,29.66091772,30.90712841,30.81250072,28.65153035,29.50292414,26.73776808,20.93262179,13.35843744,15.59799976,18.4981335,19.26878801,20.26031268,17.34358901,16.24316685,11.04417556,7.09840123,11.80342709,15.44887437,16.14310254,17.09436255,17.53736601,15.18702607,15.25106182,11.88303257,8.618375536,0.931774556,1,1,1,1,0.97284651,0.984144349,0.784438609,41.16732275,-96.41663225,2015,NEH4
PHN11_PHW65_0323/LH195,WIH1_2017,Y,25,704.090323,0,2,247,124.5,80,80,3.894838602,1.694000003,3.49156578,6.251914317,26.29780264,12.3515148,1.782621048,1.031219451,2.019413967,120.7399967,16.94000003,60.77000046,238.2086357,55.48409002,148.2181776,77.27181808,11.13545426,60.74545419,17.96009764,21.56986256,18.71582301,20.73316127,19.69440102,19.58726141,19.1692292,15.69151392,12.21998586,16.03451621,20.2119998,20.22998088,26.71060266,27.00553033,27.16428033,24.80808837,24.03641879,21.845045,3.37838715,6.260000002,9.268565708,14.6662765,15.35575767,16.21109857,13.17589581,11.52521119,9.509429623,5.507434962,7.720411242,8.664602637,13.14891279,13.46068042,13.9043846,11.67856357,10.90146065,9.608265423,0.606900932,0.8735357,0.867893568,1,1,0.998220242,0.971647403,0.89569217,43.05668125,-89.5308135,2017,WIH1
B73/MO17,ARH2_2016,N,12.45,731.1212129,0,2,215.5,142,66.5,65,5.780937422,12.26500018,3.712120208,7.0222886,1.105000019,0.295568184,1.931287914,1.454696927,6.280835692,184.9899975,73.59000111,50.67409075,233.2059098,2.210000038,2.364545475,51.29727264,7.656817956,194.7059064,17.76457119,17.22719622,20.14058537,19.80644481,18.88262117,19.79738723,18.69440654,19.88854878,15.60714355,21.02781257,25.69833342,24.88224707,27.55747889,33.1628785,33.38017045,32.40728063,33.71248445,31.37684753,8.517187547,14.13833332,13.26693003,16.75834882,22.79151535,23.21522755,22.56353312,22.95024234,22.3752492,8.626308124,12.37618007,11.75818796,14.46644855,19.89189903,20.24263088,19.43024202,20.23735303,18.81126952,0.958649555,1,1,1,1,1,1,1,35.838614,-90.66530155,2016,ARH2
W10005_0107/PHB47,OHH1_2015,Y,13.15,751.7161766,0,1,218.5,108,62.5,62.5,4.820000016,2.056666652,1.801667061,2.430255425,2.070588264,2.75488235,3.664772063,1.623969288,1.874022108,149.4200005,12.33999991,20.27235275,82.00588303,2.23529414,26.29176468,128.0200007,12.16764697,57.18411674,17.71339239,20.831882,20.85048625,20.93566426,20.28419298,19.59839119,17.66236547,17.23782846,14.83481447,16.95064511,28.03666687,26.64173705,29.01382079,31.07970569,30.59522857,27.99762273,26.69097183,23.34659959,5.9283871,15.42166694,14.66308043,16.74801267,19.23764672,18.74322206,16.69895781,13.90980629,10.26308727,6.580773377,14.04730329,13.19467995,15.08203889,17.16864649,16.69143216,14.53513226,12.92347397,10.29932856,0.672569122,1,1,1,1,1,0.994932126,0.947361455,39.855785,-83.66477375,2015,OHH1
W10005_0107/PHB47,NEH4_2015,N,15.55,783.8958075,0,2,230,105,65,53,2.821875036,0,3.668207424,2.0125769,1.951249957,2.654893884,1.684158262,0.190010425,1.166079967,90.30000114,0,33.89000034,59.04687595,1.951249957,28.04999942,59.1787506,1.401875056,35.09749981,18.84220009,27.31064491,20.41342533,20.52862815,19.03072298,18.81303122,18.33826559,17.15407273,12.68489203,24.01437524,30.79399948,29.66091772,30.90712841,30.81250072,28.65153035,29.50292414,26.73776808,20.93262179,13.35843744,15.59799976,18.4981335,19.26878801,20.26031268,17.34358901,16.24316685,11.04417556,7.09840123,11.80342709,15.44887437,16.14310254,17.09436255,17.53736601,15.18702607,15.25106182,11.88303257,8.618375536,0.931774556,1,1,1,1,0.97284651,0.984144349,0.784438609,41.16732275,-96.41663225,2015,NEH4
LH74/PHN82,OHH1_2017,Y,16.35,760.7264732,0,2,229,110,65,64,4.401935447,12.29571451,4.299880116,6.252045262,18.36299991,4.892395558,3.195317293,3.431958172,3.794688752,136.4599988,86.0700016,53.63949916,223.8204996,40.86499989,50.26800107,124.097,30.99400014,115.4320013,19.0647902,19.03427505,21.00226491,20.15032754,19.69555429,18.89580098,18.69837911,16.0400155,13.85510684,20.47903239,25.43142836,25.24002704,27.25803818,28.09541678,28.73270468,26.30456447,24.69395371,24.25720733,8.011935501,13.44999967,12.59882409,15.91673102,16.75358336,18.39824095,14.97688189,13.11535887,11.81284403,8.407228033,12.106522,11.63721293,13.8931373,14.6377479,15.63224373,13.07252875,11.66012039,11.13333271,0.85352535,1,1,1,1,0.996926048,1,0.96495674,39.855785,-83.66477375,2017,OHH1
F42/H95,DEH1_2017,Y,17.7,731.1212129,0,2,229,110,65,64,2.917187458,6.201428686,3.00780289,3.517983876,1.211428521,1.632751291,5.214259368,11.31934688,4.882730708,93.34999865,43.4100008,45.34571489,126.7790489,1.268571377,15.48333303,157.8533328,69.24809492,151.3147631,17.05647962,17.73228645,20.71096481,19.57386043,19.15556694,20.88592809,18.21237176,18.15756056,16.58607394,20.26624998,24.66142872,21.72245043,26.82298965,30.35071437,30.31148162,30.69555299,28.43090921,27.29702356,9.32593758,14.19571427,10.68752201,16.75855213,19.906349,19.88150788,21.21690322,18.72144455,17.91444491,8.690479953,12.08402314,9.787934269,14.12431868,17.15482568,17.14050735,17.94790556,15.63546309,14.74613823,0.907287956,1,0.959736116,1,1,1,1,1,38.67025825,-75.4333645,2017,DEH1
TX951/LH195,NYH2_2016,N,23.6,731.1212129,9,1.5,192.5,104.5,83,80,2.034516133,1.030000001,1.88805842,0.867300396,1.140952366,2.326450204,3.376451109,4.287746575,3.208572451,63.07000011,12.36000001,22.4085716,34.4438095,2.622857094,25.59095225,116.65619,31.75809508,97.82571426,19.21240982,23.35584625,23.40556822,22.17883586,23.94456446,21.25361649,17.18897092,16.17245816,13.35906413,14.04935483,18.68749992,27.50851283,26.23633728,28.78071431,29.31692664,28.41638555,26.44500865,23.15297547,1.686774175,4.439999988,12.92699036,12.85534504,13.89476193,15.65588736,16.863818,13.58818034,10.55762265,4.511298309,6.607155497,12.88765676,12.33330427,13.7996272,14.74166699,14.82295673,12.66050813,10.26842414,0.447315667,0.804761906,0.999400038,0.994542932,1,0.999880088,0.994843294,0.949842165,42.726117,-76.655339,2016,NYH2
B37/OH43,TXH2_2020,N,14.325,741.740491,0,2,205.74,71.755,67.5,66,2.284333333,0,4.621906019,2.982124861,1.655000005,6.689114015,2.894056698,2.615892851,2.528400138,68.53,0,55.88714266,111.3664289,1.655000005,70.91857161,82.98143064,12.87071426,76.16571382,13.91343843,13.3863348,15.08661116,19.80328892,19.03358821,19.2160028,19.61198116,21.5690046,17.9190584,20.02266652,27.17999992,26.59088772,26.49063582,29.80749984,29.13094588,32.17534358,33.00407163,34.57616138,6.794333295,17.20400028,15.22554111,13.60666406,17.96904786,16.63267817,20.78659354,19.79317827,24.13923583,7.901247141,14.27292515,13.36557264,12.73068931,16.08957262,15.12192719,18.39831967,18.39239984,20.46927813,0.821357143,1,0.992404768,0.99375244,1,1,1,0.999043315,30.53825625,-96.42790225,2020,TXH2
CG44/CGR01,WIH2_2017,Y,17.3,790.3317336,0,2,235,121.5,71.5,71.5,5.048709616,4.636666616,1.142383575,5.763857885,8.001590729,6.160048604,1.607776433,1.167726513,2.257555268,156.5099981,41.72999954,17.5799998,219.3963643,12.14409065,74.04090792,72.28863683,15.04409093,68.0204557,18.1690344,19.72049554,20.64727683,20.23287988,19.13163679,19.37493243,18.51401576,14.93340477,10.89478233,16.03129027,21.86555545,22.15746071,26.59689143,27.90045501,26.76799254,24.73062069,22.38533393,20.51274781,3.24419354,8.791111098,9.553497601,14.54337319,16.81037892,15.37831158,12.19271258,9.193202486,7.868866577,5.438218202,9.209131236,9.451203107,13.05708411,14.51682301,13.37610723,11.31306373,9.686333754,8.853113959,0.624158991,0.847976183,0.950288768,1,1,0.998699911,0.954544862,0.834596302,43.3246415,-89.33688775,2017,WIH2
W10004_0216/PHZ51,MIH1_2016,N,18.2,731.1212129,0,2,263.5,138.5,64,63.5,3.213870927,0.372000003,1.277668238,2.072144594,0.204761899,2.382636341,6.277866916,3.129595251,4.115734243,99.62999874,1.860000014,16.77857134,74.4033328,0.614285696,24.34142835,217.3680916,23.88571438,123.5814282,20.04481233,22.69628944,22.57460654,21.19066928,19.62511718,19.41470496,17.43536011,14.16523572,12.41239439,17.74322581,29.20999985,25.57947765,28.1508514,27.23547651,30.32783564,28.27294529,26.6388532,22.50219404,5.299677434,16.33600006,11.90361174,14.70447611,15.74579377,17.52671,16.25511672,15.58650841,10.86825081,6.615827776,14.89908974,11.62365975,13.82943527,13.70908531,16.01583991,14.48649579,13.48265,10.09129455,0.734400922,1,1,1,1,0.999987733,0.99326559,0.936590208,42.41206675,-84.2952625,2016,MIH1
B14A/MO17,ARH1_2016,N,16.5,790.9753262,3.5,2.5,204.5,127,70,69,12.62656226,6.052222146,7.859593922,4.411032368,3.769999921,0.095833332,1.834913509,2.950363528,2.931715563,404.0499923,54.46999931,101.1431819,160.496816,7.539999843,0.824999988,46.86636396,14.75181764,90.88318244,16.40757677,14.40289243,17.41332625,19.31399891,17.48165414,22.15918181,19.7781726,18.25208951,17.22596404,20.37124979,20.08666674,25.25253507,26.30445415,29.50681779,32.27019592,33.22074717,33.17606868,32.75999986,8.53968759,10.04999993,14.84655054,15.67568893,20.10318184,20.90335237,23.01320039,23.46584116,23.35664232,8.376579132,8.623890092,12.4075181,13.38568101,16.80499981,18.57005087,20.09384313,20.24603027,19.89808151,0.932198657,0.999841266,1,1,1,1,1,1,34.72952,-90.7603555,2016,ARH1
CG60/LH162,WIH1_2016,N,15.55,794.5150856,0,5.75,242.25,123,65.75,67,2.076129018,1.94750002,4.430291291,4.068377178,0.606590927,8.204471101,6.520888551,7.285801826,4.413191112,64.35999957,23.37000024,50.66818307,153.9786358,1.017727305,87.41727302,222.4604529,58.95590957,134.9268184,19.92805462,20.9108026,19.53546339,20.65690042,18.97296773,19.76360502,17.50876714,15.21370917,12.23883056,16.70258062,17.57583312,27.08182728,26.49130857,27.22159082,28.35833875,27.6700069,25.1458901,22.98674642,3.327419363,4.990833327,14.04723809,14.47423798,17.58636334,16.7186736,17.17399145,14.32051147,12.5735533,5.875866612,6.419508974,12.98865398,12.92924289,14.50224274,14.72651534,14.55658067,12.23924581,10.7486024,0.621198161,0.7653869,1,1,1,0.999967803,0.998306277,0.970976554,43.05632525,-89.53194975,2016,WIH1
B73/PHM49,IAH1_2020,Y,14.36666667,731.1212129,6,4.5,229,110,65,64,1.688064506,6.196000195,3.0793737,6.533057926,1.271428551,2.673269776,1.85421064,0.708456624,3.755616013,52.32999969,61.96000195,37.23499918,213.6221428,2.198571375,25.9085708,60.11785651,6.012142782,115.3728583,19.46953177,15.04660187,20.64247086,20.31598349,21.99207742,21.09552252,19.7297914,19.80455556,15.11692591,15.87290319,18.70700045,25.72176895,28.50674309,31.92999949,30.87921407,28.61147391,29.37327705,24.63079501,3.348387095,9.753000152,14.65929334,17.38633346,19.85714286,19.28849194,17.27261165,15.46819038,11.83183106,5.5584858,8.125456457,12.65757338,15.09801966,17.89357117,17.09078834,15.12121856,14.7539709,11.47694483,0.621440085,0.927035726,1,1,1,0.998514142,0.992713009,0.918334154,41.19774214,-91.48767072,2020,IAH1
F42/MO17,DEH1_2018,N,17.65,692.1838595,0,2,209.25,109,68.5,67.5,3.413225795,4.724545566,2.007753279,2.760624154,0.287142856,8.862777665,3.915865231,4.933581623,5.971971652,105.8099996,51.97000122,28.2621423,90.35856978,0.861428567,79.76499898,101.102142,26.37928568,184.7400021,18.24738333,20.30334785,18.96061465,21.19242313,20.3949075,18.85770366,17.73482038,14.47844699,15.08372737,17.38161278,18.28454564,22.01469092,28.14795471,32.28714262,31.68230149,32.09286912,30.42106803,28.79790015,6.703871004,7.41363637,12.85857977,17.97497576,22.0019049,21.31992057,22.76420594,22.26141136,20.21526036,6.825711165,7.366383816,10.38385741,15.21158117,19.10753111,18.47850441,19.35879976,18.34204267,16.58274325,0.781601378,0.839058448,0.989425295,1,1,1,1,1,38.65164475,-75.44913625,2018,DEH1
B37/H95,ONH1_2015,Y,35.75,709.8826565,0,2,252.5,137.5,89,89,1.605625002,2.296315821,1.411426091,1.973297954,0.512941169,3.436769168,2.641035405,1.799953816,2.360571209,51.38000005,43.63000059,20.30117703,73.50294104,0.81882352,40.73352947,103.9364728,19.58470627,71.14882509,18.02169462,20.4737019,23.34007091,22.64543997,20.24065375,18.07254412,18.60447299,14.22755231,12.21920895,9.771562532,12.63473691,23.7578119,26.83441686,29.90941261,27.46928249,26.11972075,22.82201755,18.35250846,-0.327500018,2.045263152,11.01347606,13.31919887,17.43313718,16.50329302,14.06775752,11.69572195,7.013714688,2.851211725,4.201400589,10.67713105,12.77399982,15.76589753,14.15032606,12.63577386,10.48249806,7.379159901,0.167098218,0.403345874,0.957007131,0.991950294,1,0.994472794,0.939113043,0.772366561,43.49741975,-80.44806025,2015,ONH1
PHG39/PHN82,IAH2_2019,Y,21.3,724.0416941,1.5,0,262.5,119,65,64,1.624999978,4.994666719,7.633826981,4.023414549,10.53523836,1.22350002,2.763567443,7.261517829,4.773321835,51.99999928,74.92000079,126.7292866,144.3807149,31.60571507,12.2350002,103.2057142,58.23357121,145.3535721,19.40078695,15.59915857,17.73377221,20.37141966,18.69170743,21.11460887,19.04896103,16.46108124,13.94542613,15.78031255,14.78666655,21.30773964,26.90560141,30.4667857,29.3667858,27.70213024,26.0789087,24.69893011,1.823749996,4.276000045,9.222208134,15.06467224,19.71440506,18.17542877,16.74212177,15.32632928,13.45358666,5.188982368,5.371381143,9.150668224,13.41851256,17.10626668,15.79657396,14.44283917,13.04517908,11.92357614,0.546495539,0.532857125,0.866155154,0.998157434,1,1,1,0.956872449,42.06583499,-94.72067796,2019,IAH2
W10005_0107/PHB47,NYH3_2015,Y,17,731.1212129,0,2,233,124,70,70,4.268387075,0,1.234803629,3.315485905,3.744705864,3.708743319,2.034738589,2.091907533,2.160160663,132.3199993,0,17.66999944,111.4647067,9.843529393,38.42352946,75.35117763,21.49235322,65.37235311,20.95885717,21.76160183,22.01003167,20.47654391,19.37507164,18.84800849,18.09954582,14.25866518,12.17165493,15.21516129,28.41399994,23.9726608,27.94852153,28.22411762,29.00645443,26.88612691,22.65429039,19.02039094,3.206451565,16.00799999,11.62235867,15.61032629,16.7502941,17.72633694,14.88804443,11.60832066,7.356588233,5.349626667,14.38734971,10.95773449,14.17183136,14.61937489,15.41213998,13.31670354,10.34569698,7.707711279,0.504331792,1,0.97267375,0.996219796,1,0.995345527,0.95775528,0.812032548,42.7233625,-76.6555945,2015,NYH3
PHG80/PHZ51,GAH1_2016,N,14,688.0005075,0,1,190,80,59,57,6.466250051,4.395000041,0.566421492,2.549627568,3.17469698,5.859943136,4.096967014,2.330999996,2.476261007,206.9200016,35.16000032,6.21000006,86.0200003,9.52409094,52.42727233,105.6731797,11.65499998,76.76409122,15.95696127,18.25385642,20.33100053,20.74024209,20.01064868,19.54302735,19.38198769,19.26953352,18.21451922,23.62687498,22.98249984,28.56134937,29.4983659,33.37075638,32.62719045,33.25026907,34.51499955,33.94928126,11.29749997,10.47000009,15.64744728,16.2846205,20.78287862,20.61269551,21.56927107,22.51809092,22.40467728,10.53971422,9.962440438,14.36481163,15.11313475,19.02952924,18.56859265,19.26668195,20.34390963,19.99415841,0.993928569,1,1,1,1,1,1,1,31.5079175,-83.55854775,2016,GAH1
2369/LH123HT,NYH3_2019,N,25.8,724.0416941,1.5,0.5,264.5,139,78,78,3.722580618,3.873333404,3.769554008,3.757958966,6.56821411,3.88506864,3.604603585,1.929858492,3.709694332,115.3999992,34.86000064,61.04857108,135.2235714,13.13642822,47.6607138,172.5314276,35.27499978,112.0914282,17.9818517,20.79040337,20.53458356,20.20586531,15.56107187,20.47665645,15.7702462,13.42945136,8.802352299,16.21290321,21.91111098,21.5613082,26.8770008,26.27928579,27.19863099,23.33754175,19.77308355,13.39834902,5.322258069,10.30000003,10.31609792,15.50927174,17.62488075,14.92700095,12.00041282,8.027538821,3.378330702,6.134411308,9.414033746,9.318517767,13.52970479,14.11503311,13.40897889,10.69134109,8.327220554,5.109082433,0.665391704,1,0.983452189,1,1,0.970435943,0.837841689,0.510564168,42.7321756,-76.65345463,2019,NYH3
TX714/PHZ51,ONH1_2015,Y,31.2,703.4467303,0,0,257.5,160,88.5,88.5,1.605625002,2.296315821,1.411426091,1.973297954,0.512941169,3.436769168,2.641035405,1.799953816,2.360571209,51.38000005,43.63000059,20.30117703,73.50294104,0.81882352,40.73352947,103.9364728,19.58470627,71.14882509,18.02169462,20.4737019,23.34007091,22.64543997,20.24065375,18.07254412,18.60447299,14.22755231,12.21920895,9.771562532,12.63473691,23.7578119,26.83441686,29.90941261,27.46928249,26.11972075,22.82201755,18.35250846,-0.327500018,2.045263152,11.01347606,13.31919887,17.43313718,16.50329302,14.06775752,11.69572195,7.013714688,2.851211725,4.201400589,10.67713105,12.77399982,15.76589753,14.15032606,12.63577386,10.48249806,7.379159901,0.167098218,0.403345874,0.957007131,0.991950294,1,0.994472794,0.939113043,0.772366561,43.49741975,-80.44806025,2015,ONH1
2369/LH123HT,DEH1_2018,N,19.8,711.491638,0,2,212.25,107.5,71.5,70.75,3.413225795,4.724545566,2.007753279,2.760624154,0.287142856,8.862777665,3.915865231,4.933581623,5.971971652,105.8099996,51.97000122,28.2621423,90.35856978,0.861428567,79.76499898,101.102142,26.37928568,184.7400021,18.24738333,20.30334785,18.96061465,21.19242313,20.3949075,18.85770366,17.73482038,14.47844699,15.08372737,17.38161278,18.28454564,22.01469092,28.14795471,32.28714262,31.68230149,32.09286912,30.42106803,28.79790015,6.703871004,7.41363637,12.85857977,17.97497576,22.0019049,21.31992057,22.76420594,22.26141136,20.21526036,6.825711165,7.366383816,10.38385741,15.21158117,19.10753111,18.47850441,19.35879976,18.34204267,16.58274325,0.781601378,0.839058448,0.989425295,1,1,1,1,1,38.65164475,-75.44913625,2018,DEH1
F42/MO17,WIH1_2016,N,19.35,792.9061041,1.5,4,251,129.5,73.5,72.5,2.076129018,1.94750002,4.430291291,4.068377178,0.606590927,8.204471101,6.520888551,7.285801826,4.413191112,64.35999957,23.37000024,50.66818307,153.9786358,1.017727305,87.41727302,222.4604529,58.95590957,134.9268184,19.92805462,20.9108026,19.53546339,20.65690042,18.97296773,19.76360502,17.50876714,15.21370917,12.23883056,16.70258062,17.57583312,27.08182728,26.49130857,27.22159082,28.35833875,27.6700069,25.1458901,22.98674642,3.327419363,4.990833327,14.04723809,14.47423798,17.58636334,16.7186736,17.17399145,14.32051147,12.5735533,5.875866612,6.419508974,12.98865398,12.92924289,14.50224274,14.72651534,14.55658067,12.23924581,10.7486024,0.621198161,0.7653869,1,1,1,0.999967803,0.998306277,0.970976554,43.05632525,-89.53194975,2016,WIH1
B73/PHM49,ONH2_2015,Y,25.15,742.70588,0,0,269,143,80.5,79,1.876451608,4.282666683,1.928005431,1.58261263,10.80264742,1.923208582,3.114388399,4.294901914,2.356388962,58.16999984,64.24000025,23.61999965,57.22470651,21.60529484,21.1552944,115.5017658,31.56294079,72.1164696,18.95380112,18.76709785,21.17743809,22.45418875,20.04103015,18.4543581,18.45373918,15.80078253,13.34539525,11.17387095,14.38466663,23.91200153,26.61279381,30.15176526,27.65053462,26.77986929,25.87464046,20.7920557,2.006774224,5.636000033,13.64950245,15.64688346,19.32647026,18.51812829,16.74694623,15.4972221,11.03054456,3.742938436,5.617129505,11.53065914,13.52353119,16.78542678,15.13421866,13.95153495,13.1846932,9.37660249,0.276970043,0.589690475,0.985132406,1,1,1,0.993019959,0.931831119,42.45408625,-81.8816065,2015,ONH2
PHG39/PHN82,MOH1_2016,N,17.4,731.1212129,0,2,255,127.5,58.5,57,2.465483877,8.058000231,0.264259377,6.282521268,1.94553035,9.25680559,4.358907121,3.354664451,5.453130527,76.43000019,40.29000115,2.879999995,172.8372758,4.262727369,83.20363667,125.2090916,21.13363606,168.2240918,20.2309363,16.93509369,22.49829557,20.20959989,18.68177986,19.21408964,18.0090922,17.17714413,15.87534947,21.83193548,27.56600037,27.88644765,31.21215235,30.25795442,31.2505745,30.57423065,29.80077912,28.25339236,10.073871,16.74400005,16.26474463,19.86215984,19.98371223,20.49117413,20.76153791,19.91431794,17.56318368,9.497798547,14.24343349,14.21296425,17.47336946,17.12232598,17.8699151,17.65104862,16.90998551,15.09561117,0.937315665,1,1,1,1,1,1,0.999442641,38.8955475,-92.2072025,2016,MOH1
LH195/PHN37,NYH2_2016,N,18.7,731.1212129,0,2,173.5,75.5,80.5,73,2.034516133,1.030000001,1.88805842,0.867300396,1.140952366,2.326450204,3.376451109,4.287746575,3.208572451,63.07000011,12.36000001,22.4085716,34.4438095,2.622857094,25.59095225,116.65619,31.75809508,97.82571426,19.21240982,23.35584625,23.40556822,22.17883586,23.94456446,21.25361649,17.18897092,16.17245816,13.35906413,14.04935483,18.68749992,27.50851283,26.23633728,28.78071431,29.31692664,28.41638555,26.44500865,23.15297547,1.686774175,4.439999988,12.92699036,12.85534504,13.89476193,15.65588736,16.863818,13.58818034,10.55762265,4.511298309,6.607155497,12.88765676,12.33330427,13.7996272,14.74166699,14.82295673,12.66050813,10.26842414,0.447315667,0.804761906,0.999400038,0.994542932,1,0.999880088,0.994843294,0.949842165,42.726117,-76.655339,2016,NYH2
PHN11_PHW65_0323/LH195,GAH2_2019,Y,13.7,737.557139,0,2,241,117,68,68,1.545000002,4.557500124,0.250380961,1.26115813,2.257142884,9.485350662,1.336144097,0.813952387,3.350460841,49.44000006,36.46000099,3.755714417,38.36428595,2.257142884,98.62571442,36.52428579,4.78428575,103.8642861,18.18435833,18.19265985,22.8847832,21.24247432,23.3434718,16.19739035,20.40643492,19.78647718,19.94823177,21.36937484,23.13125002,27.34691779,30.77499698,32.53285762,28.60028574,32.70957317,33.58714258,33.18838734,7.029687526,9.771250069,11.28150206,17.20030934,17.5714283,19.08651926,20.35438482,22.40104739,20.7990781,8.377064876,9.945548605,12.20340126,16.01551644,17.09277291,15.89283108,18.47046504,19.81563867,18.90725155,0.94271205,0.94334821,1,1,1,1,1,1,33.7204165,-83.308125,2019,GAH2
B37/OH43,NYH1_2018,Y,21.05,731.1212129,2,18,243,119.5,66,64.5,4.394516057,1.637142931,0.546464292,3.461265884,6.062261837,4.338061718,2.067540981,1.177456758,2.359527655,136.2299978,11.46000051,7.340000123,113.5449994,14.95785693,45.27285745,83.63714323,15.50214277,71.28500016,21.14905797,19.51909583,22.50012197,20.49014312,17.37909559,18.62357236,17.54437735,14.42309006,11.11333684,16.43838702,24.34714304,24.48084385,28.4079325,28.47095262,28.85558784,26.25577716,21.21730113,17.53723965,4.181612903,13.18428578,11.78804566,16.02970596,18.15166677,17.53428468,14.37510127,9.649634667,6.532510054,6.046172102,11.82070517,11.18993529,14.50776692,15.35223703,15.26441478,12.8637381,9.179788733,7.084201569,0.564688941,0.946581643,0.98880424,0.99833546,1,0.984010821,0.898581807,0.740508559,42.72940418,-76.65161667,2018,NYH1
2369/LH123HT,NYH1_2018,N,19.8,731.1212129,6.5,11.5,268.5,124,68,68,4.394516057,1.637142931,0.546464292,3.461265884,6.062261837,4.338061718,2.067540981,1.177456758,2.359527655,136.2299978,11.46000051,7.340000123,113.5449994,14.95785693,45.27285745,83.63714323,15.50214277,71.28500016,21.14905797,19.51909583,22.50012197,20.49014312,17.37909559,18.62357236,17.54437735,14.42309006,11.11333684,16.43838702,24.34714304,24.48084385,28.4079325,28.47095262,28.85558784,26.25577716,21.21730113,17.53723965,4.181612903,13.18428578,11.78804566,16.02970596,18.15166677,17.53428468,14.37510127,9.649634667,6.532510054,6.046172102,11.82070517,11.18993529,14.50776692,15.35223703,15.26441478,12.8637381,9.179788733,7.084201569,0.564688941,0.946581643,0.98880424,0.99833546,1,0.984010821,0.898581807,0.740508559,42.72940418,-76.65161667,2018,NYH1
B73/PHZ51,IAH1_2015,Y,18.35,730.4776202,0,8.5,296,149.5,65,64,1.566451638,2.213076954,8.402418557,1.323463692,0.084411761,2.297359398,2.93999255,2.37101191,2.732793763,48.56000078,28.7700004,122.1399999,43.52999979,0.168823523,22.82352863,100.1182349,16.67000003,83.81294001,20.43214903,18.85811498,14.63317728,22.31276759,19.14227258,22.20806523,19.83862588,18.33763158,15.0581957,16.08774191,16.64538457,21.84697853,28.7334183,30.26852911,31.30747052,29.05105531,29.39636272,24.66946357,1.839032284,4.865384661,13.12892854,16.86768962,20.05941139,18.05705196,16.3929614,15.43749916,11.17229855,5.447129731,6.098188577,10.48240964,14.99632473,17.16639266,16.72884186,14.96924927,14.77137221,11.30644361,0.593087559,0.682994502,0.988452545,1,1,0.997626801,1,0.896934674,41.9980952,-93.69336973,2015,IAH1
PHP02/PHB47,NEH1_2015,N,14.2,796.7676598,0,2,230,110,65,53,2.959062506,0.753999996,4.745632833,2.187040691,0.179999996,3.601448917,1.548000793,0.057812502,1.589214364,94.69000018,3.769999981,46.84999943,63.50812512,0.239999995,39.12187557,55.49499987,0.586250016,47.85812447,19.07194562,25.84699936,20.00593662,19.96245842,20.96463704,17.86296284,18.31175333,17.30405645,12.3794141,23.74906254,30.51399994,29.13009987,30.74148671,30.73750019,28.43858622,29.13031746,26.88374984,20.12342532,13.19218739,15.46999989,18.04036499,19.18092822,19.11281252,17.33248289,15.92131484,11.1533021,6.525200269,11.64481375,15.25955733,15.68336601,16.96891106,16.93845514,15.07345461,14.95183393,12.01070089,8.15887847,0.924598212,1,1,1,1,0.96969665,0.982957588,0.758540943,41.290979,-96.41664325,2015,NEH1
2369/LH123HT,INH1_2018,Y,21.21,866.661818,0,1.5,261.5,128.5,66,65,2.767096756,4.68454543,2.7337539,2.608245307,0.180000007,3.094468228,3.412660528,0.546071422,1.653962344,85.77999943,51.52999973,31.28214284,86.61642764,0.256428582,29.52071404,116.6621433,3.926428522,50.80214219,18.97651723,17.84080185,18.4751702,21.91502565,21.1577316,19.53552192,18.82147066,19.16946561,15.73843824,16.02451609,18.1199998,25.33039297,28.95851984,31.36964308,31.15694425,28.16765345,28.4284546,26.00206774,3.260645186,6.861818249,15.08608447,16.0398559,19.18499974,18.88806934,16.73005964,15.8360335,13.18834038,5.572938243,7.259226835,12.75390782,14.76719288,17.27732141,17.05840253,14.63863294,14.40004061,12.39915253,0.613732714,0.707012975,1,1,1,1,1,0.979968538,40.4787825,-86.9898145,2018,INH1
LH198/PHZ51,IAH2_2017,N,14.45,763.3008437,0,22.75,232,104.75,65,64,2.991935476,4.003749907,5.594154361,1.824159742,2.965909053,1.138616173,3.544395797,5.525860929,3.224964342,92.74999976,32.02999926,86.83999968,64.74363607,5.880909015,11.03545466,133.6850016,39.36636487,98.02272796,18.91811151,22.03083944,18.39067038,21.91300981,21.59707026,21.00058551,18.76246256,16.50136756,14.56336975,16.70258062,25.25375009,21.16444029,28.78792803,31.34295403,31.03890899,27.79230679,26.54138994,25.01808603,3.836129038,9.060000002,9.836484062,14.72352594,17.1804546,18.00485339,15.61890002,13.9478747,12.25710857,5.884356407,10.52058178,9.325556586,14.19611432,16.29393371,16.57150033,14.05801276,12.73803514,11.57992501,0.659274195,1,0.882113053,1,1,1,1,0.976890029,42.06582876,-94.72050129,2017,IAH2
WF9/H95,TXH1_2015,N,11.3,749.7853988,0,2,171.5,78.5,69.5,67,2.435333351,0.886666695,4.529386736,2.992210444,0,5.407499953,3.236240411,4.528416659,2.205666663,73.06000052,5.320000172,54.16999972,113.7899998,0,59.48249948,89.11249819,24.54499996,66.1699999,13.38128519,15.80308406,13.73749678,19.48289484,22.46598899,19.96463979,19.54848583,19.57031498,18.03135075,19.61999995,26.26833312,25.8489028,26.4780255,30.37177098,28.79539756,31.9014052,33.48070828,34.35516661,6.122333375,12.74499997,15.39155332,13.69439061,15.83385423,15.9580683,20.41172374,21.45270844,23.93220836,7.516768444,12.28221354,13.06030889,12.7550996,15.35592881,14.67426974,18.11040569,19.30603111,20.37775841,0.822428569,1,0.992325397,0.994092815,1,1,1,0.999431249,30.54708625,-96.43393475,2015,TXH1
PHG39/TX205,TXH1_2016,N,10,675.1286552,0,2,226,82.5,72.5,73,1.633666698,16.13999993,0.99702422,4.719865603,0.129393939,3.277272727,13.06232457,0.703636358,1.017125621,49.01000094,112.9799995,14.5313639,177.3549991,0.33090909,36.05,378.0672674,3.179999969,30.53454577,13.9726292,10.72874144,17.88940951,17.80076093,20.55685321,19.77792414,17.90480363,20.8338604,20.14326093,22.32500016,23.95000022,24.48309256,26.40498513,28.5388636,28.63545455,30.12870319,34.35404525,35.58838723,6.034666632,13.33571414,9.675379644,13.12758779,15.78530267,16.33764454,20.13902853,23.08186362,24.00118421,8.473379033,11.29783551,10.5045992,12.46111665,14.43681279,14.72204148,17.12368238,20.53225114,20.87599038,0.915869048,1,0.972225207,1,1,1,1,1,30.54708625,-96.43393475,2016,TXH1
B37/OH43,SCH1_2020,N,13.345,731.1212129,3,7.5,96,32,58.5,57.5,6.726129055,12.61950016,14.6709951,2.000047064,2.505749965,4.425319405,2.268462711,6.18714998,5.023091868,208.5100007,84.13000107,163.6860008,61.50999924,5.011499929,39.68149965,62.57699943,33.64599986,155.4654979,20.36817608,19.66978326,14.75526058,19.85961082,19.96014466,19.24465486,19.87809105,16.40752662,15.64625104,22.32567731,25.33999968,25.31846332,29.19710574,32.4110003,31.66961065,33.32032281,31.92909988,30.24042268,7.936741977,12.70899997,16.31955663,18.65521183,21.09725013,21.1736526,21.46883008,21.19136654,20.48826235,8.963701593,11.76593586,13.23428606,15.98846211,18.75412521,18.42141037,19.32426,18.56023321,17.40294316,0.984170504,1,0.973950938,1,1,1,1,1,34.62225,-82.736661,2020,SCH1
PHN11_PHG47_0251/PHB47,NEH1_2015,N,14.45,791.6189189,0,2,240,110,65,55.5,2.959062506,0.753999996,4.745632833,2.187040691,0.179999996,3.601448917,1.548000793,0.057812502,1.589214364,94.69000018,3.769999981,46.84999943,63.50812512,0.239999995,39.12187557,55.49499987,0.586250016,47.85812447,19.07194562,25.84699936,20.00593662,19.96245842,20.96463704,17.86296284,18.31175333,17.30405645,12.3794141,23.74906254,30.51399994,29.13009987,30.74148671,30.73750019,28.43858622,29.13031746,26.88374984,20.12342532,13.19218739,15.46999989,18.04036499,19.18092822,19.11281252,17.33248289,15.92131484,11.1533021,6.525200269,11.64481375,15.25955733,15.68336601,16.96891106,16.93845514,15.07345461,14.95183393,12.01070089,8.15887847,0.924598212,1,1,1,1,0.96969665,0.982957588,0.758540943,41.290979,-96.41664325,2015,NEH1
B37/H95,GAH1_2016,N,15.8,734.339176,0,4,185,75,61,59,6.466250051,4.395000041,0.566421492,2.549627568,3.17469698,5.859943136,4.096967014,2.330999996,2.476261007,206.9200016,35.16000032,6.21000006,86.0200003,9.52409094,52.42727233,105.6731797,11.65499998,76.76409122,15.95696127,18.25385642,20.33100053,20.74024209,20.01064868,19.54302735,19.38198769,19.26953352,18.21451922,23.62687498,22.98249984,28.56134937,29.4983659,33.37075638,32.62719045,33.25026907,34.51499955,33.94928126,11.29749997,10.47000009,15.64744728,16.2846205,20.78287862,20.61269551,21.56927107,22.51809092,22.40467728,10.53971422,9.962440438,14.36481163,15.11313475,19.02952924,18.56859265,19.26668195,20.34390963,19.99415841,0.993928569,1,1,1,1,1,1,1,31.5079175,-83.55854775,2016,GAH1
W10005_0107/PHB47,NCH1_2015,Y,16.9,731.1212129,0,0,202,105,65,64,3.0140625,9.692856925,3.043308324,7.00027835,0,3.411347986,2.886716411,10.31533332,6.56176467,96.44999999,67.84999847,47.46470581,233.8535261,0,30.12176424,80.44058821,53.94764695,203.4147048,18.56641886,18.5514961,20.38733283,17.18369043,24.39251002,21.03629604,20.30189304,17.27178406,15.58503138,22.38312501,24.94999995,23.18034629,27.40244989,31.82117664,31.76743482,33.30845927,33.22968591,31.16039845,8.592187501,12.50999982,10.48535005,18.40286831,19.92058833,21.46261411,22.34001137,22.61282364,21.92468694,9.285127697,11.46773529,10.15801447,14.99239002,17.87088248,18.60652477,19.71826945,19.84422869,18.53531879,0.955334819,1,0.995809598,1,1,1,1,1,35.29657708,-77.5664625,2015,NCH1
2369/LH123HT,GAH1_2020,Y,20.01,694.9513078,2,2,220,105,68,65.5,4.279687563,0,6.08243138,3.811420537,2.267976227,2.530000055,3.98378478,1.741833346,2.910207357,136.950002,0,84.37571335,135.9278565,4.833571502,22.77000049,107.9378566,9.115000069,90.21642806,16.61263859,21.5972875,19.10636237,20.72286693,14.54687945,18.15584731,20.08605453,19.68634889,18.27781732,25.37343752,26.77166684,25.94144379,27.77824619,29.55357116,30.6518255,31.78195276,33.48178532,33.56322575,12.43875006,10.55666669,12.19035929,13.80720781,20.58059497,20.26111097,20.57386992,21.96838095,22.25456222,11.80508215,11.69113274,11.88989525,13.35432975,17.06708306,17.45646823,18.17996521,19.67032327,19.80166763,0.988537947,1,1,1,1,1,1,1,31.5079775,-83.558517,2020,GAH1
B37/H95,DEH1_2017,Y,23.15,713.7442122,0,4.5,239.5,117,68.5,69,2.917187458,6.201428686,3.00780289,3.517983876,1.211428521,1.632751291,5.214259368,11.31934688,4.882730708,93.34999865,43.4100008,45.34571489,126.7790489,1.268571377,15.48333303,157.8533328,69.24809492,151.3147631,17.05647962,17.73228645,20.71096481,19.57386043,19.15556694,20.88592809,18.21237176,18.15756056,16.58607394,20.26624998,24.66142872,21.72245043,26.82298965,30.35071437,30.31148162,30.69555299,28.43090921,27.29702356,9.32593758,14.19571427,10.68752201,16.75855213,19.906349,19.88150788,21.21690322,18.72144455,17.91444491,8.690479953,12.08402314,9.787934269,14.12431868,17.15482568,17.14050735,17.94790556,15.63546309,14.74613823,0.907287956,1,0.959736116,1,1,1,1,1,38.67025825,-75.4333645,2017,DEH1
PHW52/PHM49,TXH1_2019,Y,10.99,858.5782947,0,0,195.5,66.5,71.5,70.5,1.71448275,0.072857141,3.656594302,9.095434564,0.409285716,1.207678571,5.355850783,1.246142852,1.574419343,49.71999974,0.50999999,52.00785631,328.2121388,0.592857139,9.661428571,146.4478573,6.531428533,47.51499965,15.42805705,20.52131135,18.76898834,18.57032559,21.42349659,18.85281525,20.14881361,21.03072751,19.84089234,18.45000007,25.76428577,24.43254944,27.27586732,31.09000002,32.37866099,32.72435205,34.04471448,34.98200776,6.826206914,10.35000004,10.67963154,14.78766739,18.65857179,21.85071427,21.02442735,21.79614282,22.6049739,7.457816468,11.1589152,10.85119479,13.46630403,16.91193677,19.11412105,18.84765314,19.77807102,20.01419559,0.749667494,1,0.945308164,1,1,1,1,0.999698925,30.546318,-96.4329965,2019,TXH1
CG108/CGR03,MIH1_2017,N,16.7,709.8826565,0,45.5,96.5,50,57,56.5,2.651290334,1.642500043,0.365195355,3.685889798,0.022982455,0.462972321,1.745768067,1.924198947,6.215848807,82.19000036,13.14000034,4.417894763,131.6678931,0.068947365,5.871578781,77.40789432,25.15789459,187.919471,20.75480046,19.52619267,24.47429891,19.89055103,21.94334328,22.12060477,17.47908742,14.76431364,9.641321864,18.99677434,22.1187501,26.44652255,27.49693157,27.7329823,27.82492569,25.37386911,24.10071042,20.63989867,5.961290348,11.91874993,11.36318641,16.0503933,16.08877179,14.96255052,12.27657104,9.93890341,8.936309075,7.303217139,10.01258026,11.86785018,14.06113521,14.11607898,13.75096176,11.67659513,10.59348898,9.148775778,0.770126733,1,1,1,1,0.999072621,0.949278334,0.816440377,42.68116575,-84.49434125,2017,MIH1
F42/OH43,WIH2_2015,N,42.5,763.9444363,0,0,246,129.5,65,64,3.126774188,2.655000041,4.103605878,5.336067251,1.868823528,3.142847566,3.066358713,6.463272165,3.426278957,96.92999983,15.93000025,53.58117651,186.0694135,5.435882344,36.03705852,132.4747064,52.80117733,103.4994124,19.63646212,20.57311455,21.5892617,21.07111177,18.36300238,19.20517036,18.54583572,13.68038168,11.37476292,15.6409678,24.97666677,26.11823115,28.09529077,27.51588227,27.91298604,26.4469062,23.95331443,17.63645543,3.355806466,13.62666686,13.88922494,15.17788174,17.2276475,16.92946091,13.73434519,12.63733902,6.343913375,5.370860554,11.93138906,12.65256426,14.04290221,14.43586033,14.57588984,12.76646014,11.49482956,7.023163717,0.588214292,1,1,1,1,0.979783322,0.914260835,0.715230077,43.3264485,-89.33359975,2015,WIH2
PHN11_PHG47_0251/PHB47,MOH1_2017,N,15.6,731.1212129,0,1,236.5,106.5,61,60,8.937741737,9.40166688,2.512230721,3.318030003,5.035714369,1.794490762,1.996986524,1.220079397,1.67255761,277.0699939,56.41000128,33.26619119,103.9014299,11.93095259,15.87761924,65.30142803,7.334762096,51.25476209,18.72482054,18.08832916,22.62422694,21.00800173,18.77514496,19.93438148,19.70533138,19.36646121,17.34329115,21.92032254,25.32999992,25.47495036,29.30087203,30.46650729,32.25412016,29.92026774,28.22145964,28.04827898,10.06000005,15.27666648,12.99827088,17.39768618,19.78222205,21.21359122,18.70404881,16.33857143,14.9717184,9.612847321,12.76903024,11.94928206,15.49761919,17.12130987,18.67277384,16.20463701,14.48208578,13.92850008,0.915472353,1,1,1,1,1,1,0.999239796,38.89264,-92.2057525,2017,MOH1
PHG80/PHZ51,MOH1_2017,N,17.7,731.1212129,0,2,229,110,65,64,8.937741737,9.40166688,2.512230721,3.318030003,5.035714369,1.794490762,1.996986524,1.220079397,1.67255761,277.0699939,56.41000128,33.26619119,103.9014299,11.93095259,15.87761924,65.30142803,7.334762096,51.25476209,18.72482054,18.08832916,22.62422694,21.00800173,18.77514496,19.93438148,19.70533138,19.36646121,17.34329115,21.92032254,25.32999992,25.47495036,29.30087203,30.46650729,32.25412016,29.92026774,28.22145964,28.04827898,10.06000005,15.27666648,12.99827088,17.39768618,19.78222205,21.21359122,18.70404881,16.33857143,14.9717184,9.612847321,12.76903024,11.94928206,15.49761919,17.12130987,18.67277384,16.20463701,14.48208578,13.92850008,0.915472353,1,1,1,1,1,1,0.999239796,38.89264,-92.2057525,2017,MOH1
PHW52/PHN82,NEH1_2015,N,14.2,794.8368819,0,2,260,110,65,53,2.959062506,0.753999996,4.745632833,2.187040691,0.179999996,3.601448917,1.548000793,0.057812502,1.589214364,94.69000018,3.769999981,46.84999943,63.50812512,0.239999995,39.12187557,55.49499987,0.586250016,47.85812447,19.07194562,25.84699936,20.00593662,19.96245842,20.96463704,17.86296284,18.31175333,17.30405645,12.3794141,23.74906254,30.51399994,29.13009987,30.74148671,30.73750019,28.43858622,29.13031746,26.88374984,20.12342532,13.19218739,15.46999989,18.04036499,19.18092822,19.11281252,17.33248289,15.92131484,11.1533021,6.525200269,11.64481375,15.25955733,15.68336601,16.96891106,16.93845514,15.07345461,14.95183393,12.01070089,8.15887847,0.924598212,1,1,1,1,0.96969665,0.982957588,0.758540943,41.290979,-96.41664325,2015,NEH1
CG60/LH162,NYH2_2016,N,16.25,731.1212129,2,1.5,137.25,69.75,62.25,61.5,2.034516133,1.030000001,1.88805842,0.867300396,1.140952366,2.326450204,3.376451109,4.287746575,3.208572451,63.07000011,12.36000001,22.4085716,34.4438095,2.622857094,25.59095225,116.65619,31.75809508,97.82571426,19.21240982,23.35584625,23.40556822,22.17883586,23.94456446,21.25361649,17.18897092,16.17245816,13.35906413,14.04935483,18.68749992,27.50851283,26.23633728,28.78071431,29.31692664,28.41638555,26.44500865,23.15297547,1.686774175,4.439999988,12.92699036,12.85534504,13.89476193,15.65588736,16.863818,13.58818034,10.55762265,4.511298309,6.607155497,12.88765676,12.33330427,13.7996272,14.74166699,14.82295673,12.66050813,10.26842414,0.447315667,0.804761906,0.999400038,0.994542932,1,0.999880088,0.994843294,0.949842165,42.726117,-76.655339,2016,NYH2
B37/H95,ARH2_2018,N,16.14,731.1212129,0,2,176.5,80,67.5,64,4.523124937,5.877777735,3.202210455,3.225384198,0.461428574,5.0703967,1.707251537,1.546976178,1.915506911,144.739998,52.89999962,46.32285666,103.4992844,0.461428574,45.6335703,42.68714207,7.346428526,59.38071425,17.7541087,19.6455271,19.52097147,20.05684428,23.80737271,19.97823453,19.1297214,18.25489796,18.05597286,19.61875001,21.92000008,22.77345622,28.90718296,31.9800005,30.98396799,32.84130907,33.56595603,31.90391706,8.73406262,10.34777779,11.28771296,17.85430307,18.706429,19.75547635,22.48266054,23.2605133,21.25223495,8.305601359,9.423215554,10.22107903,15.52009327,17.35232514,17.37984482,19.61861005,20.2782542,18.53689778,0.857433028,1,0.994106717,0.995975764,1,1,1,1,35.674241,-90.0749725,2018,ARH2
PHB47/PHZ51,IAH3_2017,Y,16.175,755.5777323,0,2,229,110,65,64,4.153750014,4.476666673,3.404720357,2.207347727,0.783636364,2.628276904,1.892687593,2.328876272,1.794257086,132.9200004,67.1500001,54.03954627,78.33863542,1.567272728,28.02681865,71.85545488,19.05045461,54.69545453,16.14493189,17.75127989,18.89303832,22.07985964,20.54923199,20.99384486,19.81852315,17.22919489,15.64326955,15.84312499,15.5066665,21.42652578,27.714982,28.45522753,29.90074383,27.6545798,25.64720852,25.13760955,4.41906251,4.141333344,9.782295063,13.56526933,16.05901469,16.6123348,14.8096002,12.74600627,11.28191352,5.818880471,5.62230391,9.387130072,13.2881535,14.4256186,15.3843105,13.65871261,11.89796048,11.29223634,0.568604913,0.570380948,0.879734313,1,1,1,1,0.979205627,41.9758706,-92.24318881,2017,IAH3
CG108/CGR03,WIH1_2017,Y,16.3,737.557139,0,2,230,114.5,67.5,67.5,3.894838602,1.694000003,3.49156578,6.251914317,26.29780264,12.3515148,1.782621048,1.031219451,2.019413967,120.7399967,16.94000003,60.77000046,238.2086357,55.48409002,148.2181776,77.27181808,11.13545426,60.74545419,17.96009764,21.56986256,18.71582301,20.73316127,19.69440102,19.58726141,19.1692292,15.69151392,12.21998586,16.03451621,20.2119998,20.22998088,26.71060266,27.00553033,27.16428033,24.80808837,24.03641879,21.845045,3.37838715,6.260000002,9.268565708,14.6662765,15.35575767,16.21109857,13.17589581,11.52521119,9.509429623,5.507434962,7.720411242,8.664602637,13.14891279,13.46068042,13.9043846,11.67856357,10.90146065,9.608265423,0.606900932,0.8735357,0.867893568,1,1,0.998220242,0.971647403,0.89569217,43.05668125,-89.5308135,2017,WIH1
PHN11_PHG47_0251/PHB47,WIH2_2016,Y,17.35,786.4701779,0,2,270.5,140,60.5,60.5,2.185483832,6.563333432,3.447094458,4.124693788,6.707159024,6.158880111,5.945293137,1.654273513,4.758742445,67.74999878,39.38000059,44.45545418,149.2718189,18.91272705,63.86318129,228.7613642,17.11772738,143.1609097,20.07161814,17.64681498,20.48120554,20.03716075,21.00097141,18.73971629,16.31911952,14.94670844,10.3303759,18.34677419,27.65666644,25.59626749,27.3504729,29.44640147,29.15349181,26.70938079,24.21329019,20.37268081,4.840000014,15.2516667,12.43660419,15.21846351,16.18390156,17.81047537,15.29826924,12.0891497,9.537770322,6.76617685,13.67923016,11.77429452,13.6256578,15.0809804,15.56950508,13.35737665,11.10536848,8.849967039,0.729688939,1,1,1,1,0.998061418,0.979766622,0.886131912,43.32649075,-89.33882925,2016,WIH2
PHW52/PHN82,DEH1_2017,Y,23.125,698.941582,0,1.75,224,105,67.5,67.25,2.917187458,6.201428686,3.00780289,3.517983876,1.211428521,1.632751291,5.214259368,11.31934688,4.882730708,93.34999865,43.4100008,45.34571489,126.7790489,1.268571377,15.48333303,157.8533328,69.24809492,151.3147631,17.05647962,17.73228645,20.71096481,19.57386043,19.15556694,20.88592809,18.21237176,18.15756056,16.58607394,20.26624998,24.66142872,21.72245043,26.82298965,30.35071437,30.31148162,30.69555299,28.43090921,27.29702356,9.32593758,14.19571427,10.68752201,16.75855213,19.906349,19.88150788,21.21690322,18.72144455,17.91444491,8.690479953,12.08402314,9.787934269,14.12431868,17.15482568,17.14050735,17.94790556,15.63546309,14.74613823,0.907287956,1,0.959736116,1,1,1,1,1,38.67025825,-75.4333645,2017,DEH1
PHN11_PHG47_0251/PHB47,ONH2_2016,Y,17.35,713.1006196,0,2,225,103.5,70.5,66,1.435483875,1.740833327,1.463802716,3.022687524,0.150999999,1.134659085,3.046446673,1.693503778,2.765116665,44.50000012,20.88999993,18.84600039,117.1590009,0.150999999,12.25349994,101.0444998,13.16149993,84.26899996,19.72563927,22.19747464,21.68954048,21.77365896,18.98664827,19.92678304,16.69906166,15.68152671,12.9072029,14.10741935,17.58083336,26.00758685,26.04894451,27.78099985,28.79287246,28.2480382,25.9224786,23.75348014,4.257419363,7.13166666,15.03828811,14.1477789,17.72699971,17.33924119,18.24672102,15.95494667,14.17526013,5.131346137,6.986841243,12.85116395,12.65171997,14.84296497,15.26027205,15.31782021,13.26534606,11.67621189,0.511244241,0.799851209,1,1,1,1,1,0.975829282,42.4530035,-81.88279875,2016,ONH2
PHN11_PHW65_0323/LH195,IAH1_2017,Y,18.1,754.2905471,0,2,199,92,65,64,3.40562493,4.965384584,4.756276119,1.833606587,3.814090996,2.221484887,3.670808328,1.81325484,2.347473118,108.9799978,64.54999959,71.28272616,63.78727258,4.177727374,22.83863677,118.9068186,13.7622725,72.03681816,16.19865167,17.41178014,18.84198651,22.07722619,19.57094626,20.6423577,19.65334879,19.12382584,16.87809105,17.11343735,15.37846162,22.95951679,28.09807267,26.50742381,30.27960591,29.79948923,26.92834941,26.37674051,5.413125027,4.923076978,11.46549016,14.16962528,11.61757578,16.65775237,16.66504091,13.38757222,12.41510662,6.530778339,5.768563812,10.45370215,13.71965113,11.94783378,15.64262598,15.39964617,12.71239892,12.1737806,0.629988832,0.555054952,0.946458762,1,1,1,1,0.998130952,41.19924609,-91.49402296,2017,IAH1
PHW52/PHN82,OHH1_2017,N,19.825,660.6478213,0,2,229,110,65,64,4.401935447,12.29571451,4.299880116,6.252045262,18.36299991,4.892395558,3.195317293,3.431958172,3.794688752,136.4599988,86.0700016,53.63949916,223.8204996,40.86499989,50.26800107,124.097,30.99400014,115.4320013,19.0647902,19.03427505,21.00226491,20.15032754,19.69555429,18.89580098,18.69837911,16.0400155,13.85510684,20.47903239,25.43142836,25.24002704,27.25803818,28.09541678,28.73270468,26.30456447,24.69395371,24.25720733,8.011935501,13.44999967,12.59882409,15.91673102,16.75358336,18.39824095,14.97688189,13.11535887,11.81284403,8.407228033,12.106522,11.63721293,13.8931373,14.6377479,15.63224373,13.07252875,11.66012039,11.13333271,0.85352535,1,1,1,1,0.996926048,1,0.96495674,39.855785,-83.66477375,2017,OHH1
F42/H95,IAH1_2015,Y,18.8,722.1109162,2,2,293,135,65,64,1.566451638,2.213076954,8.402418557,1.323463692,0.084411761,2.297359398,2.93999255,2.37101191,2.732793763,48.56000078,28.7700004,122.1399999,43.52999979,0.168823523,22.82352863,100.1182349,16.67000003,83.81294001,20.43214903,18.85811498,14.63317728,22.31276759,19.14227258,22.20806523,19.83862588,18.33763158,15.0581957,16.08774191,16.64538457,21.84697853,28.7334183,30.26852911,31.30747052,29.05105531,29.39636272,24.66946357,1.839032284,4.865384661,13.12892854,16.86768962,20.05941139,18.05705196,16.3929614,15.43749916,11.17229855,5.447129731,6.098188577,10.48240964,14.99632473,17.16639266,16.72884186,14.96924927,14.77137221,11.30644361,0.593087559,0.682994502,0.988452545,1,1,0.997626801,1,0.896934674,41.9980952,-93.69336973,2015,IAH1
TX951/LH195,GAH1_2015,N,14.7,841.819143,0,32.5,205,100,63,62,4.231249915,0,5.95843649,3.852603143,2.594000032,2.429925956,4.217759372,2.225466652,2.667397826,135.3999973,0,82.56599903,137.5619979,4.851333332,21.8693336,117.5779999,11.12733326,82.68933261,16.59936112,21.58269278,19.11661296,20.61616366,14.5260024,17.86473659,19.792993,19.1551459,18.46432438,25.43281227,26.81500022,26.00854227,27.82657943,29.9603331,30.57562955,31.8228303,33.58693334,33.75221527,12.50374998,10.5999999,12.24448314,13.90452364,20.76811106,20.25348139,20.64254904,22.17719986,22.29090342,11.85447967,11.72664631,11.94062668,13.41492991,17.36422208,17.41455547,18.23714923,19.83066815,19.89653894,0.988973219,1,1,1,1,1,1,1,31.505771,-83.555095,2015,GAH1
F42/H95,IAH4_2019,Y,32.875,663.2221918,5.5,5.25,266.5,126.75,62.25,60.75,7.44874995,0,6.508814674,5.652572602,2.433809479,0.731547632,2.455795253,7.856419535,5.758725846,238.3599984,0,89.12928634,169.456428,4.779285618,8.60571444,106.5300014,62.81714391,173.1250012,18.61457558,24.25652275,18.80062453,19.64217675,17.01762246,21.29967345,16.82875041,12.82062273,10.73648339,20.72718754,29.98400002,24.57226332,29.58102216,28.11761892,27.58625519,26.21902431,25.70162766,18.66579105,8.655312385,16.39199963,13.30590142,18.52555793,18.42333308,15.4118289,14.78252205,14.57801647,7.354403302,8.719182336,15.28713381,11.55896644,16.12377034,15.4195504,13.79277779,12.9189296,12.78184671,8.051480754,0.866629464,1,1,1,1,0.996735112,0.969646609,0.721601517,42.03193798,-93.79333213,2019,IAH4
PHG80/PHZ51,NEH4_2015,N,14.65,792.9061041,0,2,265,135,65,60,2.821875036,0,3.668207424,2.0125769,1.951249957,2.654893884,1.684158262,0.190010425,1.166079967,90.30000114,0,33.89000034,59.04687595,1.951249957,28.04999942,59.1787506,1.401875056,35.09749981,18.84220009,27.31064491,20.41342533,20.52862815,19.03072298,18.81303122,18.33826559,17.15407273,12.68489203,24.01437524,30.79399948,29.66091772,30.90712841,30.81250072,28.65153035,29.50292414,26.73776808,20.93262179,13.35843744,15.59799976,18.4981335,19.26878801,20.26031268,17.34358901,16.24316685,11.04417556,7.09840123,11.80342709,15.44887437,16.14310254,17.09436255,17.53736601,15.18702607,15.25106182,11.88303257,8.618375536,0.931774556,1,1,1,1,0.97284651,0.984144349,0.784438609,41.16732275,-96.41663225,2015,NEH4
LH195/PHN37,ARH2_2016,N,13.3,731.1212129,0,2,192.5,104,63.5,62.5,5.780937422,12.26500018,3.712120208,7.0222886,1.105000019,0.295568184,1.931287914,1.454696927,6.280835692,184.9899975,73.59000111,50.67409075,233.2059098,2.210000038,2.364545475,51.29727264,7.656817956,194.7059064,17.76457119,17.22719622,20.14058537,19.80644481,18.88262117,19.79738723,18.69440654,19.88854878,15.60714355,21.02781257,25.69833342,24.88224707,27.55747889,33.1628785,33.38017045,32.40728063,33.71248445,31.37684753,8.517187547,14.13833332,13.26693003,16.75834882,22.79151535,23.21522755,22.56353312,22.95024234,22.3752492,8.626308124,12.37618007,11.75818796,14.46644855,19.89189903,20.24263088,19.43024202,20.23735303,18.81126952,0.958649555,1,1,1,1,1,1,1,35.838614,-90.66530155,2016,ARH2
WF9/H95,IAH2_2017,Y,17.7,731.1212129,0,2,229,110,65,64,2.991935476,4.003749907,5.594154361,1.824159742,2.965909053,1.138616173,3.544395797,5.525860929,3.224964342,92.74999976,32.02999926,86.83999968,64.74363607,5.880909015,11.03545466,133.6850016,39.36636487,98.02272796,18.91811151,22.03083944,18.39067038,21.91300981,21.59707026,21.00058551,18.76246256,16.50136756,14.56336975,16.70258062,25.25375009,21.16444029,28.78792803,31.34295403,31.03890899,27.79230679,26.54138994,25.01808603,3.836129038,9.060000002,9.836484062,14.72352594,17.1804546,18.00485339,15.61890002,13.9478747,12.25710857,5.884356407,10.52058178,9.325556586,14.19611432,16.29393371,16.57150033,14.05801276,12.73803514,11.57992501,0.659274195,1,0.882113053,1,1,1,1,0.976890029,42.06582876,-94.72050129,2017,IAH2
PHG39/TX205,IAH3_2017,Y,22.95,725.3288793,0,2,229,110,65,64,4.153750014,4.476666673,3.404720357,2.207347727,0.783636364,2.628276904,1.892687593,2.328876272,1.794257086,132.9200004,67.1500001,54.03954627,78.33863542,1.567272728,28.02681865,71.85545488,19.05045461,54.69545453,16.14493189,17.75127989,18.89303832,22.07985964,20.54923199,20.99384486,19.81852315,17.22919489,15.64326955,15.84312499,15.5066665,21.42652578,27.714982,28.45522753,29.90074383,27.6545798,25.64720852,25.13760955,4.41906251,4.141333344,9.782295063,13.56526933,16.05901469,16.6123348,14.8096002,12.74600627,11.28191352,5.818880471,5.62230391,9.387130072,13.2881535,14.4256186,15.3843105,13.65871261,11.89796048,11.29223634,0.568604913,0.570380948,0.879734313,1,1,1,1,0.979205627,41.9758706,-92.24318881,2017,IAH3
PHG29/PHG47,COH1_2017,N,17.8,669.9799143,0,12.5,204.5,95,67.75,66.5,3.393124943,0,0.001708684,0.360843908,0.891428554,3.560382097,1.42287895,1.565670675,1.770870451,108.5799982,0,0.02904762,12.29476177,1.600476163,43.78523833,56.48285717,21.02523811,53.20285701,22.26802993,25.65694836,25.9931063,24.2875628,21.26982858,19.37652668,19.65631787,15.92591012,11.99136935,20.38624986,26.27857154,29.00990249,30.95750085,32.84396765,29.24597739,27.87075516,24.49812031,17.64004964,4.676250031,9.955714362,11.44166305,13.33492254,15.64190474,14.2894836,11.55992968,8.650869984,2.505724526,7.387813889,11.22152513,12.97827389,14.53136664,16.23032426,14.11586508,12.58015619,10.40568176,6.007000116,0.859799101,1,1,1,1,0.978368119,0.882220332,0.653649732,40.64850025,-104.9997825,2017,COH1
B73/PHN82,KSH1_2018,N,15.575,790.3317336,27.25,6.5,229,110,65,64,0.123225804,1.309000027,2.835063753,1.245921432,6.190769489,0.847777789,5.121826591,3.691923017,0.576771715,3.819999933,13.09000027,33.35999966,37.39923182,6.190769489,7.630000105,140.8584615,22.1515381,17.82230777,23.1370286,19.20606413,23.76917973,25.01946837,21.72317813,23.99633906,18.76579115,18.12170014,19.24157322,22.75709664,20.771,27.08892973,34.13484851,36.79923102,35.27700868,33.17677556,30.51957897,31.48973893,3.915806478,6.778999925,10.75682887,16.60383588,18.26846137,18.37008543,18.87125761,16.15291204,15.043086,8.255034949,8.267600828,11.90551203,16.73972083,17.84021903,17.73256873,17.54545708,15.43757555,15.43621363,0.847615199,0.789999991,1,1,1,1,1,0.970122947,37.810107,-100.775188,2018,KSH1
PHN11_PHG47_0251/PHB47,INH1_2015,N,13,707.9518787,0,6.5,198.5,90,66.5,66.5,2.968064535,5.608750075,2.401797478,2.620596579,1.049062505,3.048312443,3.454130844,1.332533481,1.484370975,92.01000059,44.8700006,26.44312483,85.12437463,1.715625018,30.48312443,116.5724995,9.316249996,45.68062523,19.44608656,13.59046638,21.88315593,21.65689439,20.60130358,19.73326552,18.77560381,17.99738388,15.64927463,15.67580632,21.0562501,27.44396829,29.52449332,32.66781175,30.16981242,28.17317586,28.46934151,25.5406298,3.004516139,13.05249977,15.22068343,16.62214482,19.56843758,18.02818774,16.71489706,16.46563638,12.56847521,5.360930658,9.9438759,13.725819,15.26696414,18.11812466,16.1828721,14.63810214,14.67667849,11.95902497,0.609504607,1,1,1,1,1,1,0.986081101,40.477075,-87.000205,2015,INH1
PHP02/PHB47,SDH1_2015,N,14.9,656.4644693,0,1,147,86,66,66,1.890000034,2.68444448,2.847212523,0.928406021,1.08916667,1.213193166,1.12388612,3.994558873,0.570569385,58.59000105,24.16000032,33.86000057,31.14874977,1.720000006,12.77624983,39.02562428,27.90249949,17.65812508,21.16446504,23.3864585,24.03054242,23.94878495,21.74335716,21.42490048,20.60212775,16.27746828,15.18579983,19.04290341,22.5888888,27.20826416,30.46229654,29.54760476,31.86073879,31.47770382,29.48664523,24.89733582,4.208709664,8.468888919,11.69082143,14.25969647,14.29062517,16.06534098,14.02269822,14.11578116,6.942900096,6.807516906,9.210660666,12.27390437,14.67606113,14.18888263,15.81431879,15.00552731,14.17539039,9.834808296,0.77025346,0.983690483,1,1,1,0.983472358,0.961069402,0.950039755,44.208745,-102.928745,2015,SDH1
B37/MO17,TXH1-Dry_2018,N,9.7,709.2390639,0,2,240,98,73.5,72,2.442333295,0.87833333,4.91741256,2.91095925,1.112321411,5.987347663,3.094033648,2.445309502,2.573656677,73.26999886,5.269999981,55.2178573,113.3721426,4.449285643,64.36357035,86.72785865,13.67714274,77.357857,13.4988633,14.49154552,13.92485348,19.6618496,19.390827,19.64184359,19.38410293,21.21373351,18.01258323,19.68933331,26.95833333,25.66614373,26.56996845,30.24238085,29.14372996,31.91805433,33.2644762,34.51160554,6.357666679,15.03999996,15.13755815,13.69055459,18.24071415,16.44843436,20.63070323,20.50154739,23.97494014,7.613570572,13.40715604,12.87528071,12.79536137,16.34410207,15.0664779,18.21233438,18.75919739,20.40606275,0.821476194,1,0.991620595,0.99408643,1,1,1,0.999013392,30.546318,-96.4329965,2018,TXH1-Dry
PHN11_OH43_0001/PHB47,INH1_2016,N,17.75,658.3952472,10,9,258.5,109.5,62.5,63,3.034516148,1.382857186,3.106568823,3.966270256,3.500454469,6.752636371,3.451172643,3.198528118,3.024422797,94.07000059,9.680000305,31.26000059,138.8759105,3.500454469,67.52636371,113.8927274,21.6654544,92.62590972,17.63328649,23.97511796,20.66441577,20.1236558,19.9706746,19.39149484,18.14527656,15.98533716,14.62820237,18.74516109,26.31142807,27.84898846,28.12893417,28.20272714,29.14504538,29.16779001,27.95564941,27.07739093,7.950322636,11.69428553,16.31817922,16.10606538,16.8522731,18.34872752,18.58889605,17.50284626,15.03841012,7.677100472,11.91689015,14.24288378,14.4184555,14.68521604,15.7994256,15.9329094,14.92238151,13.51734692,0.852649763,1,1,1,1,1,1,0.996102814,40.4787595,-86.98982,2016,INH1
CG119/CG108,NCH1_2019,N,12.85,755.5777323,0,1.75,156.3125,70.9375,51,47.5,2.191129027,0,0.107342031,4.775073233,0.466011907,4.533660718,6.24100048,2.370892844,2.941295675,67.92499983,0,1.347142833,143.4146411,0.94178571,36.26928575,165.0100003,13.54249993,91.02821354,18.69452832,25.30126673,21.77382428,19.07893176,22.56876209,20.7892765,19.22903807,18.96679552,16.71087377,25.69580629,28.76666609,32.29891346,30.08294473,33.3002377,33.83080339,32.75741781,32.04927549,30.79691829,13.34274195,12.19133326,19.06280588,18.61089734,20.56851188,21.23558053,21.08131414,19.9046464,19.77832645,12.18436683,13.33597385,17.64216348,16.39126772,18.88342746,19.44075481,18.8247811,17.98080212,17.31161093,1,1,1,1,1,1,1,1,35.67010175,-78.510504,2019,NCH1
B37/H95,GAH1_2015,N,15.15,826.3729202,0,9,180,90,63,61,4.231249915,0,5.95843649,3.852603143,2.594000032,2.429925956,4.217759372,2.225466652,2.667397826,135.3999973,0,82.56599903,137.5619979,4.851333332,21.8693336,117.5779999,11.12733326,82.68933261,16.59936112,21.58269278,19.11661296,20.61616366,14.5260024,17.86473659,19.792993,19.1551459,18.46432438,25.43281227,26.81500022,26.00854227,27.82657943,29.9603331,30.57562955,31.8228303,33.58693334,33.75221527,12.50374998,10.5999999,12.24448314,13.90452364,20.76811106,20.25348139,20.64254904,22.17719986,22.29090342,11.85447967,11.72664631,11.94062668,13.41492991,17.36422208,17.41455547,18.23714923,19.83066815,19.89653894,0.988973219,1,1,1,1,1,1,1,31.505771,-83.555095,2015,GAH1
PHW52/PHN82,NYH2_2018,Y,22.52,672.1681292,0,1.333333333,200.3333333,94,69.33333333,68.66666667,4.152903213,0.855714253,1.31693108,2.056877316,18.60714291,4.17142208,1.796460541,3.71345921,2.001911684,128.7399996,5.989999771,17.50499944,73.5107149,37.6500001,45.13714288,70.0178584,34.82000022,60.53000028,20.64383799,23.73438372,20.97980276,21.28373647,15.72294375,18.26843876,18.50915054,13.77481919,12.83457813,12.82806446,24.72714315,24.76775456,27.60101009,28.96428537,28.5122727,26.91050025,24.01606741,19.66558606,1.452258048,10.48999977,13.07559666,14.8719081,19.08642861,17.4819286,14.95013511,12.80738491,7.865124395,4.113027627,10.74522894,11.82847182,13.74928068,16.05096628,15.06575239,13.37181447,11.42873851,8.144119245,0.351670502,1,0.973410204,0.99504728,1,0.991140913,0.940533101,0.821942422,42.72611075,-76.65530175,2018,NYH2
PB80/PHZ51,IAH4_2017,Y,21.8,768.4495847,4.5,1.5,256.5,122,73,70.5,3.054193612,4.63857133,5.654282844,2.356146022,0.145000003,0.823262634,3.029939984,2.506485397,3.022032747,94.68000197,32.46999931,92.55000019,79.81000018,0.290000005,7.931363713,110.0431818,17.65818187,91.79227275,19.60434628,22.37855189,18.81628808,21.46940114,22.42332305,21.26952374,19.1513695,15.94205759,15.34138578,17.83935482,25.21428544,21.76755785,28.88340452,30.88984893,30.99338411,28.30609907,26.26622464,25.93438806,4.952580655,10.13999993,10.24708413,15.02150207,17.47128796,18.07608078,15.80662465,13.87026602,12.51354651,6.575243948,10.82301274,9.649960621,14.3656457,16.22810104,16.57398155,14.36597852,12.57546566,12.06214068,0.727396317,1,0.910082199,1,1,1,1,0.987168831,41.99455432,-93.69030947,2017,IAH4
B37/MO17,ONH1_2016,Y,30.65,629.4335794,0,3,241.5,181.5,88,83.5,1.979032247,2.105714291,0.92181366,1.439738287,4.720833318,2.435439396,4.62931563,1.31185227,2.043303741,61.34999967,29.48000008,13.31600007,60.28400005,10.99249999,28.54150001,172.0475013,11.37649985,61.38049932,20.24883872,21.56727634,23.77365349,22.41142308,19.3081847,20.61473607,17.12813691,15.31534219,11.6349499,10.49290321,16.47999988,25.01561457,25.51466922,28.22516696,27.99415914,27.31356147,24.49017951,20.3886015,-0.735806467,3.753571405,10.93050922,11.61184699,15.55325019,14.71775745,15.07244109,12.71620509,9.185787659,3.269306411,5.688768484,11.09209761,11.56175859,14.2216101,13.76399544,13.57642435,11.5133866,8.776899495,0.291105988,0.684668367,0.99891379,0.988093962,1,0.998165816,0.971212584,0.877977401,43.4997965,-80.451125,2016,ONH1
CG60/LH162,GAH2_2017,Y,14.45,753.0033618,0,2,210.5,101.5,47,50.5,5.215806507,2.59000005,0.877047008,6.976424555,36.66571527,11.68990473,2.766634194,6.717714339,5.237281131,161.6900017,18.13000035,10.98809533,219.4985743,69.630002,116.6428568,77.55666748,33.5885717,162.3557151,18.59375843,20.97986943,21.98193589,18.54567619,14.33990901,17.7663424,19.78523868,18.86354985,17.57616326,25.93516134,24.17571449,30.47339418,29.31252372,29.52904774,29.72980419,32.72601502,32.10511542,30.76784952,12.17225799,9.938571385,16.15324828,18.06353156,20.43476164,19.51114297,21.20992787,20.86352373,19.95543778,11.90954616,10.38538115,15.45655397,15.75249851,16.98190469,16.63412837,18.90169131,18.47155665,17.41241638,0.999631335,0.985714285,1,1,1,1,1,1,33.727145,-83.29821525,2017,GAH2
F42/MO17,WIH1_2018,Y,18.882,792.7001545,0,2,262.6,118.2,68.2,66.4,1.609999989,7.097692302,4.543300024,5.384655594,12.90857152,6.684415526,1.835393967,1.490247701,3.282350194,49.90999967,92.26999992,56.1414287,188.537143,17.774286,73.52857079,76.14071582,18.50214262,100.642856,20.21844376,17.61529163,19.67186989,21.74517717,19.19342093,18.08513378,19.62003162,16.98075827,12.74863056,13.31193533,16.25923072,24.73561688,28.00164855,31.39095186,28.11097395,26.99453296,26.15077082,19.9357303,1.183225821,5.521538512,13.28283365,14.89542408,18.89249983,17.62870117,14.61713968,12.9208708,8.385953947,4.208379921,6.163069931,11.75441076,13.86262536,17.16453014,14.91796624,13.29691021,12.54059059,8.511099252,0.430714275,0.66777473,1,1,1,0.987929958,0.939058758,0.805939432,43.0544,-89.5317,2018,WIH1
B37/OH43,ILH1_2018,Y,16.35,715.6749901,0,2,240.5,101.5,58.5,56.5,4.93870967,7.677000022,2.588106254,5.605117571,0.281428576,3.456349163,4.202656593,1.004543384,2.183824858,153.0999998,76.77000022,33.4678576,176.7721435,0.281428576,32.73642816,135.7042854,6.586428666,67.2342849,18.91812334,19.3164753,20.10278531,22.12028957,18.91592986,20.16297878,19.11980649,19.09856314,16.2127272,15.99580652,18.50399971,25.32625123,29.19453127,30.85535676,31.83740471,28.20358558,28.86124239,26.43877647,3.618387117,7.573000085,14.94700907,16.75211974,20.46500043,20.0205478,17.14982155,16.71822788,13.95248539,5.629456993,7.587936205,12.64486739,15.17263993,17.66017859,17.94105007,14.82889519,14.97382886,12.85823928,0.640783421,0.72660713,1,1,1,1,1,0.984431123,40.06300125,-88.2291765,2018,ILH1
B37/H95,SDH1_2015,N,26.4,607.5514304,0.5,2.5,162.5,90,76,74.5,1.890000034,2.68444448,2.847212523,0.928406021,1.08916667,1.213193166,1.12388612,3.994558873,0.570569385,58.59000105,24.16000032,33.86000057,31.14874977,1.720000006,12.77624983,39.02562428,27.90249949,17.65812508,21.16446504,23.3864585,24.03054242,23.94878495,21.74335716,21.42490048,20.60212775,16.27746828,15.18579983,19.04290341,22.5888888,27.20826416,30.46229654,29.54760476,31.86073879,31.47770382,29.48664523,24.89733582,4.208709664,8.468888919,11.69082143,14.25969647,14.29062517,16.06534098,14.02269822,14.11578116,6.942900096,6.807516906,9.210660666,12.27390437,14.67606113,14.18888263,15.81431879,15.00552731,14.17539039,9.834808296,0.77025346,0.983690483,1,1,1,0.983472358,0.961069402,0.950039755,44.208745,-102.928745,2015,SDH1
B73/PHN82,NCH1_2016,N,15,731.1212129,0.5,5.5,229,134,65,64,2.901562452,3.125714166,7.137907935,4.683034439,4.3177271,0.863030289,5.226283407,5.104181825,4.507668668,92.84999847,21.87999916,91.86318315,160.7736342,8.497726928,8.495454409,139.9318182,26.12772732,139.7377287,16.36857818,22.27138465,15.49498623,18.72849078,21.8793198,21.8664799,18.529992,18.05675722,17.32656161,20.86125001,25.58571407,25.68946269,27.1054564,30.20318166,31.0559697,32.42423852,33.59766701,33.26035177,7.692187494,8.212857212,14.27003911,16.07300028,18.02681784,18.80169681,21.2796372,22.62190931,22.7218182,8.383421821,10.43985322,12.46468669,13.95599298,16.17160042,16.99727481,18.83160592,19.980567,19.86697781,0.913761163,1,1,1,1,1,1,1,35.30015175,-77.57127825,2016,NCH1
PHW52/PHM49,NEH3_2015,N,17.1,743.3494726,0,1,229,110,65,62,3.231250057,0.918000031,0.565093977,1.286692195,3.19749999,1.391136354,0.258061221,1.474667183,0.155891338,103.4000018,4.590000153,6.150000095,39.04749978,4.720000029,15.30249989,11.17999983,14.52874985,4.648125023,21.79127574,25.69442635,22.86725485,21.82271665,15.26317632,20.59079,20.06412842,16.27968968,13.53861776,24.28750017,32.64599991,30.58771447,32.67731329,28.91593772,29.87238656,30.80707127,25.39031645,21.32018275,9.278749934,13.0079998,13.8828633,15.7826582,17.05531204,14.62710229,13.18313307,8.87540479,3.334017086,10.46257825,15.28330691,14.45465852,16.22005678,15.0938879,14.496454,14.53020136,10.90039565,7.851747396,0.909587052,1,1,1,1,0.965712824,0.862507779,0.80953931,41.15824525,-101.9872958,2015,NEH3
CG119/CG108,IAH2_2017,Y,17.7,731.1212129,0,2,229,110,65,64,2.991935476,4.003749907,5.594154361,1.824159742,2.965909053,1.138616173,3.544395797,5.525860929,3.224964342,92.74999976,32.02999926,86.83999968,64.74363607,5.880909015,11.03545466,133.6850016,39.36636487,98.02272796,18.91811151,22.03083944,18.39067038,21.91300981,21.59707026,21.00058551,18.76246256,16.50136756,14.56336975,16.70258062,25.25375009,21.16444029,28.78792803,31.34295403,31.03890899,27.79230679,26.54138994,25.01808603,3.836129038,9.060000002,9.836484062,14.72352594,17.1804546,18.00485339,15.61890002,13.9478747,12.25710857,5.884356407,10.52058178,9.325556586,14.19611432,16.29393371,16.57150033,14.05801276,12.73803514,11.57992501,0.659274195,1,0.882113053,1,1,1,1,0.976890029,42.06582876,-94.72050129,2017,IAH2
B37/MO17,TXH2_2020,N,14.2,757.5085102,0,2,198.755,60.325,68.75,67.75,2.284333333,0,4.621906019,2.982124861,1.655000005,6.689114015,2.894056698,2.615892851,2.528400138,68.53,0,55.88714266,111.3664289,1.655000005,70.91857161,82.98143064,12.87071426,76.16571382,13.91343843,13.3863348,15.08661116,19.80328892,19.03358821,19.2160028,19.61198116,21.5690046,17.9190584,20.02266652,27.17999992,26.59088772,26.49063582,29.80749984,29.13094588,32.17534358,33.00407163,34.57616138,6.794333295,17.20400028,15.22554111,13.60666406,17.96904786,16.63267817,20.78659354,19.79317827,24.13923583,7.901247141,14.27292515,13.36557264,12.73068931,16.08957262,15.12192719,18.39831967,18.39239984,20.46927813,0.821357143,1,0.992404768,0.99375244,1,1,1,0.999043315,30.53825625,-96.42790225,2020,TXH2
B73/PHZ51,IAH4_2017,N,21.65,726.4015337,0.166666667,2.166666667,243,117.1666667,70,67.83333333,3.054193612,4.63857133,5.654282844,2.356146022,0.145000003,0.823262634,3.029939984,2.506485397,3.022032747,94.68000197,32.46999931,92.55000019,79.81000018,0.290000005,7.931363713,110.0431818,17.65818187,91.79227275,19.60434628,22.37855189,18.81628808,21.46940114,22.42332305,21.26952374,19.1513695,15.94205759,15.34138578,17.83935482,25.21428544,21.76755785,28.88340452,30.88984893,30.99338411,28.30609907,26.26622464,25.93438806,4.952580655,10.13999993,10.24708413,15.02150207,17.47128796,18.07608078,15.80662465,13.87026602,12.51354651,6.575243948,10.82301274,9.649960621,14.3656457,16.22810104,16.57398155,14.36597852,12.57546566,12.06214068,0.727396317,1,0.910082199,1,1,1,1,0.987168831,41.99455432,-93.69030947,2017,IAH4
F42/H95,NCH1_2020,N,17.525,755.8995286,1.5,0,223.75,99.0625,65,64,3.811250031,6.583749771,1.870150701,7.593384547,0.8842857,2.636686467,3.330713381,6.121142871,7.323433169,121.960001,52.66999817,29.28357046,255.9407139,2.652857099,23.48571392,94.03142862,30.32857149,227.0264283,17.79310012,18.2030313,21.90311614,16.62410426,22.73441878,20.97653859,20.54309533,18.15988809,15.65141399,21.6678125,23.21999979,23.34870433,27.04964214,28.2173808,30.95634976,33.07043217,33.2972859,31.24656685,8.082812505,11.53125006,9.51933213,18.09668861,18.19142909,20.58560522,22.1124513,22.85800005,21.91055295,8.88590596,10.34544598,9.896418393,14.69404398,15.249625,17.76881847,19.50312724,19.99035698,18.5620876,0.935200903,1,0.995619773,1,1,1,1,1,35.30009892,-77.57131746,2020,NCH1
F42/MO17,ARH1_2018,N,20.35,566.61894,0,2,180,107,65.5,59.5,6.807499945,4.709999936,2.627776375,4.735912158,3.619166647,6.960178526,4.330437569,0.796285741,3.374677434,217.8399982,32.96999955,35.48928591,145.2942843,5.831428528,62.51428531,109.7978577,4.003571561,104.6150005,17.99706709,21.70226043,20.05949982,19.52680112,21.59397623,17.99264813,18.0574776,19.33215022,18.30424355,21.07062507,24.31857109,24.02168934,29.45279857,31.73095224,30.70692423,32.5717108,33.29521443,31.83741963,10.26718749,12.03571429,12.70205088,18.67412083,19.99154783,20.64677572,22.90335213,23.23585706,21.28834102,9.223277534,11.01036775,11.27832322,16.11267445,17.86206546,17.6775748,19.72770382,20.19469271,18.54368809,0.945725441,1,1,1,1,1,1,1,34.729679,-90.7603455,2018,ARH1
LH74/PHN82,GAH2_2017,Y,17.7,731.1212129,0,2,229,110,65,64,5.215806507,2.59000005,0.877047008,6.976424555,36.66571527,11.68990473,2.766634194,6.717714339,5.237281131,161.6900017,18.13000035,10.98809533,219.4985743,69.630002,116.6428568,77.55666748,33.5885717,162.3557151,18.59375843,20.97986943,21.98193589,18.54567619,14.33990901,17.7663424,19.78523868,18.86354985,17.57616326,25.93516134,24.17571449,30.47339418,29.31252372,29.52904774,29.72980419,32.72601502,32.10511542,30.76784952,12.17225799,9.938571385,16.15324828,18.06353156,20.43476164,19.51114297,21.20992787,20.86352373,19.95543778,11.90954616,10.38538115,15.45655397,15.75249851,16.98190469,16.63412837,18.90169131,18.47155665,17.41241638,0.999631335,0.985714285,1,1,1,1,1,1,33.727145,-83.29821525,2017,GAH2
LH198/PHZ51,NYH2_2016,N,17.3,731.1212129,0,2,187.5,94.5,80,74.5,2.034516133,1.030000001,1.88805842,0.867300396,1.140952366,2.326450204,3.376451109,4.287746575,3.208572451,63.07000011,12.36000001,22.4085716,34.4438095,2.622857094,25.59095225,116.65619,31.75809508,97.82571426,19.21240982,23.35584625,23.40556822,22.17883586,23.94456446,21.25361649,17.18897092,16.17245816,13.35906413,14.04935483,18.68749992,27.50851283,26.23633728,28.78071431,29.31692664,28.41638555,26.44500865,23.15297547,1.686774175,4.439999988,12.92699036,12.85534504,13.89476193,15.65588736,16.863818,13.58818034,10.55762265,4.511298309,6.607155497,12.88765676,12.33330427,13.7996272,14.74166699,14.82295673,12.66050813,10.26842414,0.447315667,0.804761906,0.999400038,0.994542932,1,0.999880088,0.994843294,0.949842165,42.726117,-76.655339,2016,NYH2
TX714/PHZ51,DEH1_2017,Y,17.7,731.1212129,0,2,229,110,65,64,2.917187458,6.201428686,3.00780289,3.517983876,1.211428521,1.632751291,5.214259368,11.31934688,4.882730708,93.34999865,43.4100008,45.34571489,126.7790489,1.268571377,15.48333303,157.8533328,69.24809492,151.3147631,17.05647962,17.73228645,20.71096481,19.57386043,19.15556694,20.88592809,18.21237176,18.15756056,16.58607394,20.26624998,24.66142872,21.72245043,26.82298965,30.35071437,30.31148162,30.69555299,28.43090921,27.29702356,9.32593758,14.19571427,10.68752201,16.75855213,19.906349,19.88150788,21.21690322,18.72144455,17.91444491,8.690479953,12.08402314,9.787934269,14.12431868,17.15482568,17.14050735,17.94790556,15.63546309,14.74613823,0.907287956,1,0.959736116,1,1,1,1,1,38.67025825,-75.4333645,2017,DEH1
B14A/OH43,KSH1_2018,N,15.25,768.4495847,30.75,3,229,110,65,64,0.123225804,1.309000027,2.835063753,1.245921432,6.190769489,0.847777789,5.121826591,3.691923017,0.576771715,3.819999933,13.09000027,33.35999966,37.39923182,6.190769489,7.630000105,140.8584615,22.1515381,17.82230777,23.1370286,19.20606413,23.76917973,25.01946837,21.72317813,23.99633906,18.76579115,18.12170014,19.24157322,22.75709664,20.771,27.08892973,34.13484851,36.79923102,35.27700868,33.17677556,30.51957897,31.48973893,3.915806478,6.778999925,10.75682887,16.60383588,18.26846137,18.37008543,18.87125761,16.15291204,15.043086,8.255034949,8.267600828,11.90551203,16.73972083,17.84021903,17.73256873,17.54545708,15.43757555,15.43621363,0.847615199,0.789999991,1,1,1,1,1,0.970122947,37.810107,-100.775188,2018,KSH1
B37/H95,MIH1_2020,N,24.4,699.5851746,5.5,34.5,255.75,138.75,65,64,4.984838709,2.447142908,2.78018427,2.64718347,5.506875038,1.476884461,2.688717092,6.006552647,2.65185957,154.53,17.13000035,30.43499947,89.07562375,6.053750038,16.17374991,112.2143753,49.72375022,79.8756258,20.40588462,19.28742858,24.32683064,21.06964646,18.47526628,19.40802789,18.05267967,13.18055513,11.8632568,17.75483874,24.12857165,28.18736501,29.25734834,30.47187495,29.12451894,27.19720882,23.65947149,18.53645566,5.91032262,13.18571418,13.36449351,15.87753885,17.57625037,17.40439215,14.2199518,12.09430501,6.603961046,6.886871568,11.64218502,13.33305563,14.86544572,16.04104967,15.33737973,13.2580117,11.17810785,7.349100415,0.70564517,0.993469382,1,1,1,0.990981538,0.929873564,0.775463757,42.7085775,-84.4705825,2020,MIH1
B73/PHN82,DEH1_2020,N,20.20714286,726.7999482,0.214285714,0.928571429,240.7142857,125.9285714,63.42857143,62.85714286,3.884838689,2.918749928,0.484801506,3.712682555,3.963928495,10.54878945,3.680508849,4.08975176,5.319973187,120.4299994,23.34999943,5.74999997,113.1935704,6.565714155,94.92928366,102.5935729,23.16642891,164.6128593,19.34389959,17.33862388,21.23126246,20.37262205,20.84469896,18.13380163,16.82964191,15.50064315,15.14081803,17.43483888,21.1624999,25.02143811,29.01024665,32.25440507,31.30417669,31.95048154,29.3682824,28.21514964,6.792903194,12.85250008,15.40184434,18.86790491,21.28607132,21.93053571,22.84339264,21.06525136,19.30786859,6.86665098,10.04482466,12.64072343,16.02028347,18.72161765,18.60397455,19.32804006,17.22313801,15.91003144,0.79362904,0.982098209,1,1,1,1,1,1,38.628981,-75.46566025,2020,DEH1
B73/PHM49,WIH1_2015,Y,37.75,789.0445484,0,0,262.5,152.5,65,64,4.730000059,9.059999784,2.430610682,6.190059866,3.242812514,1.739310909,2.563222068,2.582604527,2.064862235,151.3600019,54.3599987,32.30062549,198.0887501,6.485625029,21.11437514,113.2525011,35.42937557,62.48000012,19.32367544,22.19104989,23.8972515,19.04105101,21.62804324,20.72553659,16.09255797,13.7227876,9.595561915,19.95718755,28.15000025,26.05326099,28.85932006,29.07385437,26.51056077,24.82739399,20.18089026,14.51549808,8.517187543,15.30499983,11.82802944,17.48783518,16.48010375,14.49615378,12.31509137,8.581945626,2.680440183,8.558350873,13.98301754,11.81015597,15.26183828,14.95581898,12.98753542,11.68123469,8.628108428,5.087550731,0.777276777,1,1,1,1,0.929186389,0.833919484,0.505939954,43.05511725,-89.528525,2015,WIH1
B14A/H95,IAH1_2017,Y,18.1,762.0136585,0.5,6,207.5,108.5,65,64,3.40562493,4.965384584,4.756276119,1.833606587,3.814090996,2.221484887,3.670808328,1.81325484,2.347473118,108.9799978,64.54999959,71.28272616,63.78727258,4.177727374,22.83863677,118.9068186,13.7622725,72.03681816,16.19865167,17.41178014,18.84198651,22.07722619,19.57094626,20.6423577,19.65334879,19.12382584,16.87809105,17.11343735,15.37846162,22.95951679,28.09807267,26.50742381,30.27960591,29.79948923,26.92834941,26.37674051,5.413125027,4.923076978,11.46549016,14.16962528,11.61757578,16.65775237,16.66504091,13.38757222,12.41510662,6.530778339,5.768563812,10.45370215,13.71965113,11.94783378,15.64262598,15.39964617,12.71239892,12.1737806,0.629988832,0.555054952,0.946458762,1,1,1,1,0.998130952,41.19924609,-91.49402296,2017,IAH1
PHB47/PHN82,WIH1_2016,Y,19.525,764.5880289,0,3.75,244.75,114.75,71.5,71.25,2.076129018,1.94750002,4.430291291,4.068377178,0.606590927,8.204471101,6.520888551,7.285801826,4.413191112,64.35999957,23.37000024,50.66818307,153.9786358,1.017727305,87.41727302,222.4604529,58.95590957,134.9268184,19.92805462,20.9108026,19.53546339,20.65690042,18.97296773,19.76360502,17.50876714,15.21370917,12.23883056,16.70258062,17.57583312,27.08182728,26.49130857,27.22159082,28.35833875,27.6700069,25.1458901,22.98674642,3.327419363,4.990833327,14.04723809,14.47423798,17.58636334,16.7186736,17.17399145,14.32051147,12.5735533,5.875866612,6.419508974,12.98865398,12.92924289,14.50224274,14.72651534,14.55658067,12.23924581,10.7486024,0.621198161,0.7653869,1,1,1,0.999967803,0.998306277,0.970976554,43.05632525,-89.53194975,2016,WIH1
LH212HT/LH195,TXH1_2016,N,10.2,697.0108042,0,2,218.5,86,72.5,73,1.633666698,16.13999993,0.99702422,4.719865603,0.129393939,3.277272727,13.06232457,0.703636358,1.017125621,49.01000094,112.9799995,14.5313639,177.3549991,0.33090909,36.05,378.0672674,3.179999969,30.53454577,13.9726292,10.72874144,17.88940951,17.80076093,20.55685321,19.77792414,17.90480363,20.8338604,20.14326093,22.32500016,23.95000022,24.48309256,26.40498513,28.5388636,28.63545455,30.12870319,34.35404525,35.58838723,6.034666632,13.33571414,9.675379644,13.12758779,15.78530267,16.33764454,20.13902853,23.08186362,24.00118421,8.473379033,11.29783551,10.5045992,12.46111665,14.43681279,14.72204148,17.12368238,20.53225114,20.87599038,0.915869048,1,0.972225207,1,1,1,1,1,30.54708625,-96.43393475,2016,TXH1
B37/OH43,MNH1_2020,N,23.7,731.1212129,11.5,4,260.5,122,69,63,0.943005099,6.546073051,4.140359128,4.707487639,0.452236841,2.543512757,5.928901117,4.270615044,2.501087783,29.23315806,64.90105435,50.61684199,155.384737,0.714736844,28.61736839,219.2994748,34.34473765,76.93105461,20.83516212,15.73399946,19.74828467,20.97522671,19.78574355,20.20086134,18.41063051,15.8353279,12.84776632,15.708455,18.53155205,25.82840423,28.49526052,29.92499944,28.21992409,26.52185226,25.93987928,19.74067922,2.261239378,9.186207707,13.99244036,16.68286788,19.34447405,16.90528318,15.09377646,14.30914312,8.593217323,5.370680578,7.953384306,12.46596379,14.77865871,16.66236577,14.75116185,13.25288188,13.01752467,8.666130292,0.622613994,0.838417993,1,1,1,0.988450437,0.93066422,0.780758993,44.06907839,-93.53263028,2020,MNH1
LH74/PHN82,SCH1_2020,N,14.125,731.1212129,2,2.5,106.5,41.5,58.5,57.5,6.726129055,12.61950016,14.6709951,2.000047064,2.505749965,4.425319405,2.268462711,6.18714998,5.023091868,208.5100007,84.13000107,163.6860008,61.50999924,5.011499929,39.68149965,62.57699943,33.64599986,155.4654979,20.36817608,19.66978326,14.75526058,19.85961082,19.96014466,19.24465486,19.87809105,16.40752662,15.64625104,22.32567731,25.33999968,25.31846332,29.19710574,32.4110003,31.66961065,33.32032281,31.92909988,30.24042268,7.936741977,12.70899997,16.31955663,18.65521183,21.09725013,21.1736526,21.46883008,21.19136654,20.48826235,8.963701593,11.76593586,13.23428606,15.98846211,18.75412521,18.42141037,19.32426,18.56023321,17.40294316,0.984170504,1,0.973950938,1,1,1,1,1,34.62225,-82.736661,2020,SCH1
PHG39/TX205,MIH1_2017,Y,28,644.2362096,0,5,110,53,70,70.5,2.651290334,1.642500043,0.365195355,3.685889798,0.022982455,0.462972321,1.745768067,1.924198947,6.215848807,82.19000036,13.14000034,4.417894763,131.6678931,0.068947365,5.871578781,77.40789432,25.15789459,187.919471,20.75480046,19.52619267,24.47429891,19.89055103,21.94334328,22.12060477,17.47908742,14.76431364,9.641321864,18.99677434,22.1187501,26.44652255,27.49693157,27.7329823,27.82492569,25.37386911,24.10071042,20.63989867,5.961290348,11.91874993,11.36318641,16.0503933,16.08877179,14.96255052,12.27657104,9.93890341,8.936309075,7.303217139,10.01258026,11.86785018,14.06113521,14.11607898,13.75096176,11.67659513,10.59348898,9.148775778,0.770126733,1,1,1,1,0.999072621,0.949278334,0.816440377,42.68116575,-84.49434125,2017,MIH1
B37/OH43,ILH1_2016,Y,16.9,738.2007317,0,2,267.5,140.5,74,72.5,2.976905237,4.388409027,2.266536067,5.61207631,2.384848472,3.596551307,3.312350719,4.357499975,4.793790319,93.71999985,46.35499933,33.46068128,180.4177266,4.628863606,41.73386359,104.1413657,28.32431801,148.2020453,18.82488241,16.77241452,21.32061235,20.18653607,20.74234538,18.07981042,18.8666989,17.85818253,16.07680721,18.05081144,19.20204525,23.0422997,29.42292662,27.90308728,26.97317812,29.60218573,29.15938829,28.17592877,4.960040295,8.531272602,10.4507586,17.10049505,15.99717794,16.84881478,19.41054858,18.84383108,17.09740687,6.781235125,7.969267807,10.17119166,15.41614171,14.29579798,14.15384892,16.51995977,16.04951253,14.84458937,0.666766271,0.897956159,0.946860721,1,1,1,1,0.999883117,40.0607245,-88.2338815,2016,ILH1
LH74/PHN82,NCH1_2016,N,14.6,731.1212129,3,4,213.5,111.5,65,64,2.901562452,3.125714166,7.137907935,4.683034439,4.3177271,0.863030289,5.226283407,5.104181825,4.507668668,92.84999847,21.87999916,91.86318315,160.7736342,8.497726928,8.495454409,139.9318182,26.12772732,139.7377287,16.36857818,22.27138465,15.49498623,18.72849078,21.8793198,21.8664799,18.529992,18.05675722,17.32656161,20.86125001,25.58571407,25.68946269,27.1054564,30.20318166,31.0559697,32.42423852,33.59766701,33.26035177,7.692187494,8.212857212,14.27003911,16.07300028,18.02681784,18.80169681,21.2796372,22.62190931,22.7218182,8.383421821,10.43985322,12.46468669,13.95599298,16.17160042,16.99727481,18.83160592,19.980567,19.86697781,0.913761163,1,1,1,1,1,1,1,35.30015175,-77.57127825,2016,NCH1
LH195/PHZ51,NYS1_2020,Y,15.15,747.8546209,0,0.5,251.5,121,69,69,4.422257993,0,1.465106888,3.112730419,5.226388772,3.791500035,2.252145842,1.205606062,2.258500008,137.0899978,0,18.69000064,111.7083327,11.12166643,40.23500037,81.04333365,12.37166667,67.75500025,20.93932216,21.78258165,21.50902141,20.73125831,19.36904918,18.75308368,18.06102422,15.18229782,12.07034185,14.51129027,27.91833337,23.80048522,27.65661692,28.12555557,28.75518193,26.95460769,22.41267031,19.20822226,2.574516131,15.64333328,11.50500006,15.28648379,16.42583349,17.59142435,15.02631586,10.71009203,7.777611178,4.955392842,14.00347271,10.82536169,13.9247866,14.40689442,15.2259098,13.37336426,9.961154016,7.871549184,0.467914747,1,0.970676975,0.994134504,1,0.998779762,0.945742115,0.836474207,42.7322645,-76.651743,2020,NYS1
F42/OH43,WIH2_2018,N,26.85,765.6606833,0,2,258.8333333,131.8333333,68.16666667,67.5,3.144193572,1.768571428,3.785071194,5.164846227,1.715952385,3.402224049,3.044948822,9.615599338,3.371772616,97.47000074,12.38,46.28142902,179.8699983,4.560714279,37.70642883,131.4821453,73.47714479,101.7171416,19.25733411,21.12108299,21.47525877,21.2745393,18.31717262,18.53021556,18.66070884,13.62580315,11.37185475,15.52870961,24.66571426,26.09170284,28.23486864,27.86595249,27.65838755,26.70641136,24.92152362,17.96867439,3.195161297,12.95000008,13.88902894,15.13385395,17.40500012,17.0648215,13.77097062,13.5657747,6.887165117,5.289841082,11.57195132,12.6458491,14.08946858,14.71699087,14.50107081,12.89356629,12.23397282,7.279203781,0.580092163,1,1,1,1,0.981419113,0.932006969,0.73866365,43.38075,-89.38645,2018,WIH2
LH74/PHN82,ILH1_2016,N,14.6,766.5188068,0,2,258.5,138,76.5,75,2.976905237,4.388409027,2.266536067,5.61207631,2.384848472,3.596551307,3.312350719,4.357499975,4.793790319,93.71999985,46.35499933,33.46068128,180.4177266,4.628863606,41.73386359,104.1413657,28.32431801,148.2020453,18.82488241,16.77241452,21.32061235,20.18653607,20.74234538,18.07981042,18.8666989,17.85818253,16.07680721,18.05081144,19.20204525,23.0422997,29.42292662,27.90308728,26.97317812,29.60218573,29.15938829,28.17592877,4.960040295,8.531272602,10.4507586,17.10049505,15.99717794,16.84881478,19.41054858,18.84383108,17.09740687,6.781235125,7.969267807,10.17119166,15.41614171,14.29579798,14.15384892,16.51995977,16.04951253,14.84458937,0.666766271,0.897956159,0.946860721,1,1,1,1,0.999883117,40.0607245,-88.2338815,2016,ILH1
B73/MO17,WIH2_2018,N,29.17142857,741.9703456,3.428571429,2,265.4285714,131.2857143,67.57142857,66.71428571,3.144193572,1.768571428,3.785071194,5.164846227,1.715952385,3.402224049,3.044948822,9.615599338,3.371772616,97.47000074,12.38,46.28142902,179.8699983,4.560714279,37.70642883,131.4821453,73.47714479,101.7171416,19.25733411,21.12108299,21.47525877,21.2745393,18.31717262,18.53021556,18.66070884,13.62580315,11.37185475,15.52870961,24.66571426,26.09170284,28.23486864,27.86595249,27.65838755,26.70641136,24.92152362,17.96867439,3.195161297,12.95000008,13.88902894,15.13385395,17.40500012,17.0648215,13.77097062,13.5657747,6.887165117,5.289841082,11.57195132,12.6458491,14.08946858,14.71699087,14.50107081,12.89356629,12.23397282,7.279203781,0.580092163,1,1,1,1,0.981419113,0.932006969,0.73866365,43.38075,-89.38645,2018,WIH2
CG44/CGR01,INH1_2016,N,15.15,650.6721357,0,3,224,100.5,57,55,3.034516148,1.382857186,3.106568823,3.966270256,3.500454469,6.752636371,3.451172643,3.198528118,3.024422797,94.07000059,9.680000305,31.26000059,138.8759105,3.500454469,67.52636371,113.8927274,21.6654544,92.62590972,17.63328649,23.97511796,20.66441577,20.1236558,19.9706746,19.39149484,18.14527656,15.98533716,14.62820237,18.74516109,26.31142807,27.84898846,28.12893417,28.20272714,29.14504538,29.16779001,27.95564941,27.07739093,7.950322636,11.69428553,16.31817922,16.10606538,16.8522731,18.34872752,18.58889605,17.50284626,15.03841012,7.677100472,11.91689015,14.24288378,14.4184555,14.68521604,15.7994256,15.9329094,14.92238151,13.51734692,0.852649763,1,1,1,1,1,1,0.996102814,40.4787595,-86.98982,2016,INH1
B37/H95,NYH2_2018,Y,21.935,721.5960421,11,1.5,208.5,105,72.5,72,4.152903213,0.855714253,1.31693108,2.056877316,18.60714291,4.17142208,1.796460541,3.71345921,2.001911684,128.7399996,5.989999771,17.50499944,73.5107149,37.6500001,45.13714288,70.0178584,34.82000022,60.53000028,20.64383799,23.73438372,20.97980276,21.28373647,15.72294375,18.26843876,18.50915054,13.77481919,12.83457813,12.82806446,24.72714315,24.76775456,27.60101009,28.96428537,28.5122727,26.91050025,24.01606741,19.66558606,1.452258048,10.48999977,13.07559666,14.8719081,19.08642861,17.4819286,14.95013511,12.80738491,7.865124395,4.113027627,10.74522894,11.82847182,13.74928068,16.05096628,15.06575239,13.37181447,11.42873851,8.144119245,0.351670502,1,0.973410204,0.99504728,1,0.991140913,0.940533101,0.821942422,42.72611075,-76.65530175,2018,NYH2
LH195/PHN37,COH1_2017,N,27.725,585.186587,0.5,4.125,228.5,98.5,75.25,73,3.393124943,0,0.001708684,0.360843908,0.891428554,3.560382097,1.42287895,1.565670675,1.770870451,108.5799982,0,0.02904762,12.29476177,1.600476163,43.78523833,56.48285717,21.02523811,53.20285701,22.26802993,25.65694836,25.9931063,24.2875628,21.26982858,19.37652668,19.65631787,15.92591012,11.99136935,20.38624986,26.27857154,29.00990249,30.95750085,32.84396765,29.24597739,27.87075516,24.49812031,17.64004964,4.676250031,9.955714362,11.44166305,13.33492254,15.64190474,14.2894836,11.55992968,8.650869984,2.505724526,7.387813889,11.22152513,12.97827389,14.53136664,16.23032426,14.11586508,12.58015619,10.40568176,6.007000116,0.859799101,1,1,1,1,0.978368119,0.882220332,0.653649732,40.64850025,-104.9997825,2017,COH1
B37/H95,SCH1_2020,N,12.975,731.1212129,0,1.5,100,40,58,57,6.726129055,12.61950016,14.6709951,2.000047064,2.505749965,4.425319405,2.268462711,6.18714998,5.023091868,208.5100007,84.13000107,163.6860008,61.50999924,5.011499929,39.68149965,62.57699943,33.64599986,155.4654979,20.36817608,19.66978326,14.75526058,19.85961082,19.96014466,19.24465486,19.87809105,16.40752662,15.64625104,22.32567731,25.33999968,25.31846332,29.19710574,32.4110003,31.66961065,33.32032281,31.92909988,30.24042268,7.936741977,12.70899997,16.31955663,18.65521183,21.09725013,21.1736526,21.46883008,21.19136654,20.48826235,8.963701593,11.76593586,13.23428606,15.98846211,18.75412521,18.42141037,19.32426,18.56023321,17.40294316,0.984170504,1,0.973950938,1,1,1,1,1,34.62225,-82.736661,2020,SCH1
TX777/LH195,MNH1_2020,N,35.45,688.6441001,0,0,293.5,160,87,80,0.943005099,6.546073051,4.140359128,4.707487639,0.452236841,2.543512757,5.928901117,4.270615044,2.501087783,29.23315806,64.90105435,50.61684199,155.384737,0.714736844,28.61736839,219.2994748,34.34473765,76.93105461,20.83516212,15.73399946,19.74828467,20.97522671,19.78574355,20.20086134,18.41063051,15.8353279,12.84776632,15.708455,18.53155205,25.82840423,28.49526052,29.92499944,28.21992409,26.52185226,25.93987928,19.74067922,2.261239378,9.186207707,13.99244036,16.68286788,19.34447405,16.90528318,15.09377646,14.30914312,8.593217323,5.370680578,7.953384306,12.46596379,14.77865871,16.66236577,14.75116185,13.25288188,13.01752467,8.666130292,0.622613994,0.838417993,1,1,1,0.988450437,0.93066422,0.780758993,44.06907839,-93.53263028,2020,MNH1
W10001_0022/PHB47,COH1_2017,N,23.35,661.6132102,5.75,17.75,212,86.25,70.75,67.25,3.393124943,0,0.001708684,0.360843908,0.891428554,3.560382097,1.42287895,1.565670675,1.770870451,108.5799982,0,0.02904762,12.29476177,1.600476163,43.78523833,56.48285717,21.02523811,53.20285701,22.26802993,25.65694836,25.9931063,24.2875628,21.26982858,19.37652668,19.65631787,15.92591012,11.99136935,20.38624986,26.27857154,29.00990249,30.95750085,32.84396765,29.24597739,27.87075516,24.49812031,17.64004964,4.676250031,9.955714362,11.44166305,13.33492254,15.64190474,14.2894836,11.55992968,8.650869984,2.505724526,7.387813889,11.22152513,12.97827389,14.53136664,16.23032426,14.11586508,12.58015619,10.40568176,6.007000116,0.859799101,1,1,1,1,0.978368119,0.882220332,0.653649732,40.64850025,-104.9997825,2017,COH1
LH195/LH82,MIH1_2016,N,18.55,713.1006196,0,15,200.5,104,63.5,63,3.213870927,0.372000003,1.277668238,2.072144594,0.204761899,2.382636341,6.277866916,3.129595251,4.115734243,99.62999874,1.860000014,16.77857134,74.4033328,0.614285696,24.34142835,217.3680916,23.88571438,123.5814282,20.04481233,22.69628944,22.57460654,21.19066928,19.62511718,19.41470496,17.43536011,14.16523572,12.41239439,17.74322581,29.20999985,25.57947765,28.1508514,27.23547651,30.32783564,28.27294529,26.6388532,22.50219404,5.299677434,16.33600006,11.90361174,14.70447611,15.74579377,17.52671,16.25511672,15.58650841,10.86825081,6.615827776,14.89908974,11.62365975,13.82943527,13.70908531,16.01583991,14.48649579,13.48265,10.09129455,0.734400922,1,1,1,1,0.999987733,0.99326559,0.936590208,42.41206675,-84.2952625,2016,MIH1
F42/H95,GAH2_2018,Y,13.8,782.6086222,0,2,242,116,56,55.5,4.849677459,0.472857135,6.389842835,2.50728713,2.625000003,3.795198411,2.499668454,2.828785729,3.724124467,150.3400012,3.309999943,84.90856965,76.95785742,5.387857173,33.84785713,66.14142865,15.06428581,115.4478585,20.49558812,21.88511535,20.33298503,19.15998772,23.51626716,19.70790798,20.02489003,19.42019064,16.00793598,23.5748387,25.80428559,25.09824669,29.4338755,32.57678595,32.30446448,33.95531338,34.12885699,31.99587548,8.787742034,10.57714278,11.20780819,18.18961495,18.46904782,20.57888879,21.25284753,21.08492862,21.01629033,9.717543295,11.3392147,11.23425566,15.89113211,17.53376954,18.44167663,19.31882395,19.47290933,18.49284767,0.993778801,1,1,1,1,1,1,1,33.71560925,-83.30894675,2018,GAH2
TX714/TX779,IAH2_2017,N,22.9,690.574878,0.5,2,254,152.5,65,64,2.991935476,4.003749907,5.594154361,1.824159742,2.965909053,1.138616173,3.544395797,5.525860929,3.224964342,92.74999976,32.02999926,86.83999968,64.74363607,5.880909015,11.03545466,133.6850016,39.36636487,98.02272796,18.91811151,22.03083944,18.39067038,21.91300981,21.59707026,21.00058551,18.76246256,16.50136756,14.56336975,16.70258062,25.25375009,21.16444029,28.78792803,31.34295403,31.03890899,27.79230679,26.54138994,25.01808603,3.836129038,9.060000002,9.836484062,14.72352594,17.1804546,18.00485339,15.61890002,13.9478747,12.25710857,5.884356407,10.52058178,9.325556586,14.19611432,16.29393371,16.57150033,14.05801276,12.73803514,11.57992501,0.659274195,1,0.882113053,1,1,1,1,0.976890029,42.06582876,-94.72050129,2017,IAH2
PHW52/PHN82,INH1_2019,Y,25.81,881.0782926,0,2,218.5,106.5,63,61,4.638124973,1.291666667,4.254883356,1.873002707,7.542143106,0.579848493,2.745608418,1.194209184,2.037834084,148.4199991,7.75,53.11714339,53.83785783,14.64785763,6.669285808,98.22214476,12.45785718,61.58714233,19.82387961,19.183822,19.33565513,20.5079362,16.64856858,22.30931036,17.46113557,15.79330395,12.43542766,23.34687504,26.15000025,24.44131608,31.06458042,27.9682139,28.43625549,27.60941131,25.59340811,22.91422815,11.29093746,15.88166634,14.27159151,19.40569109,18.2715475,15.1189393,15.69895629,13.38685715,10.33005226,10.62626718,13.2428989,11.86638398,17.27971266,15.26406297,14.09359416,13.93027737,12.23653025,10.46761426,0.918526784,1,1,1,1,0.999060374,0.966691327,0.86252861,40.477063,-87.00020175,2019,INH1
B14A/MO17,SCH1_2020,N,14.48,731.1212129,0.5,5.5,106,39,59,58,6.726129055,12.61950016,14.6709951,2.000047064,2.505749965,4.425319405,2.268462711,6.18714998,5.023091868,208.5100007,84.13000107,163.6860008,61.50999924,5.011499929,39.68149965,62.57699943,33.64599986,155.4654979,20.36817608,19.66978326,14.75526058,19.85961082,19.96014466,19.24465486,19.87809105,16.40752662,15.64625104,22.32567731,25.33999968,25.31846332,29.19710574,32.4110003,31.66961065,33.32032281,31.92909988,30.24042268,7.936741977,12.70899997,16.31955663,18.65521183,21.09725013,21.1736526,21.46883008,21.19136654,20.48826235,8.963701593,11.76593586,13.23428606,15.98846211,18.75412521,18.42141037,19.32426,18.56023321,17.40294316,0.984170504,1,0.973950938,1,1,1,1,1,34.62225,-82.736661,2020,SCH1
LH195/LH82,ARH1_2016,N,17.15,785.1829927,0,2,168,77.5,70,69,12.62656226,6.052222146,7.859593922,4.411032368,3.769999921,0.095833332,1.834913509,2.950363528,2.931715563,404.0499923,54.46999931,101.1431819,160.496816,7.539999843,0.824999988,46.86636396,14.75181764,90.88318244,16.40757677,14.40289243,17.41332625,19.31399891,17.48165414,22.15918181,19.7781726,18.25208951,17.22596404,20.37124979,20.08666674,25.25253507,26.30445415,29.50681779,32.27019592,33.22074717,33.17606868,32.75999986,8.53968759,10.04999993,14.84655054,15.67568893,20.10318184,20.90335237,23.01320039,23.46584116,23.35664232,8.376579132,8.623890092,12.4075181,13.38568101,16.80499981,18.57005087,20.09384313,20.24603027,19.89808151,0.932198657,0.999841266,1,1,1,1,1,1,34.72952,-90.7603555,2016,ARH1
CG44/CGR01,DEH1_2016,N,14.9,713.7442122,0,17,225,106,72.5,72,2.701875035,7.431818214,3.891344367,3.01543569,5.358105985,2.453055546,7.028031294,2.624318106,3.1968602,86.46000111,81.75000036,66.39499953,101.6163622,13.33454524,24.02227264,188.3231781,15.05272682,98.58045408,18.33047433,10.1000462,19.40971708,21.02938559,18.25055452,17.64652011,18.94468483,17.7865103,16.44449792,18.09,16.60090897,19.90208421,27.67646738,27.79681775,28.9030859,31.91379825,31.21812112,30.57169607,5.529687506,9.93090907,10.11289786,16.8589893,18.02106052,19.78800518,21.90881045,21.62957593,20.16127331,6.825577378,7.645605865,8.606637786,14.43603228,14.98401645,16.37610101,18.85541374,18.37748956,17.3477875,0.726328134,0.729318176,0.990929859,1,1,1,1,1,38.6482025,-75.44606,2016,DEH1
PB80/PHZ51,WIH2_2017,Y,19.4,784.5394001,0,2,275,141,78,79,5.048709616,4.636666616,1.142383575,5.763857885,8.001590729,6.160048604,1.607776433,1.167726513,2.257555268,156.5099981,41.72999954,17.5799998,219.3963643,12.14409065,74.04090792,72.28863683,15.04409093,68.0204557,18.1690344,19.72049554,20.64727683,20.23287988,19.13163679,19.37493243,18.51401576,14.93340477,10.89478233,16.03129027,21.86555545,22.15746071,26.59689143,27.90045501,26.76799254,24.73062069,22.38533393,20.51274781,3.24419354,8.791111098,9.553497601,14.54337319,16.81037892,15.37831158,12.19271258,9.193202486,7.868866577,5.438218202,9.209131236,9.451203107,13.05708411,14.51682301,13.37610723,11.31306373,9.686333754,8.853113959,0.624158991,0.847976183,0.950288768,1,1,0.998699911,0.954544862,0.834596302,43.3246415,-89.33688775,2017,WIH2
2369/LH123HT,WIH1_2019,Y,23.9,731.1212129,0,0,250.835,121.665,77.5,80,3.104193578,4.990909143,3.989206625,5.063632664,7.174102343,5.657788874,3.979490855,4.117971668,7.043559998,96.23000091,54.90000057,56.46538491,184.9676922,7.656153606,56.9199983,170.6046141,43.34153838,211.8461548,19.32800511,20.47989629,21.14585761,19.94081469,20.4834897,19.00171798,17.70480678,14.70759561,11.13260624,14.4303226,19.6027272,23.71186264,26.54399323,29.1737175,29.51828996,25.99775321,22.10125555,19.22207941,3.044193574,6.375454621,11.90649765,15.02653282,17.46782019,18.4264638,14.78313726,11.24849031,9.42963116,4.974875238,7.497369644,10.75801096,13.26663909,15.42227287,16.03343447,12.80151602,10.12875121,8.730340077,0.520449311,0.882272729,0.994529143,0.999440504,1,0.998245342,0.92932789,0.792629622,43.060857,-89.494068,2019,WIH1
PHN11_OH43_0001/PHB47,WIH2_2015,Y,23.55,724.0416941,0,0,257.5,118.5,65,64,3.126774188,2.655000041,4.103605878,5.336067251,1.868823528,3.142847566,3.066358713,6.463272165,3.426278957,96.92999983,15.93000025,53.58117651,186.0694135,5.435882344,36.03705852,132.4747064,52.80117733,103.4994124,19.63646212,20.57311455,21.5892617,21.07111177,18.36300238,19.20517036,18.54583572,13.68038168,11.37476292,15.6409678,24.97666677,26.11823115,28.09529077,27.51588227,27.91298604,26.4469062,23.95331443,17.63645543,3.355806466,13.62666686,13.88922494,15.17788174,17.2276475,16.92946091,13.73434519,12.63733902,6.343913375,5.370860554,11.93138906,12.65256426,14.04290221,14.43586033,14.57588984,12.76646014,11.49482956,7.023163717,0.588214292,1,1,1,1,0.979783322,0.914260835,0.715230077,43.3264485,-89.33359975,2015,WIH2
TX951/LH195,KSH1_2015,N,19.95,772.954733,0,2,229,110,83.5,83.5,0.688124985,3.518749885,2.537239536,4.634326915,6.340784251,4.013516285,5.753010874,3.95559662,1.81791271,22.01999953,28.14999908,47.40176476,147.1705882,9.165882307,38.18235242,161.646473,23.74705871,56.35529401,19.48910828,20.34062409,19.21958791,21.30664108,18.00351726,18.80818483,18.60066932,17.86718078,18.78253622,17.69406253,22.96750021,19.85221485,29.31892792,29.11705877,31.41670577,31.16760655,30.50505886,29.96204923,3.297187492,8.938749969,8.792561365,16.998743,18.09705929,19.84989561,20.1377744,20.03282345,17.06836811,6.184738542,9.476230158,8.381520189,15.38816616,15.61697663,17.65547515,17.65556265,17.32458654,15.75670183,0.6778125,1,0.850138809,1,1,1,1,0.98304554,39.21641775,-96.60482225,2015,KSH1
B37/MO17,OHH1_2016,N,25.05,659.0388398,0,84,283.5,143.5,65,64,4.328064465,1.776000023,3.915145208,2.580740659,3.890757626,4.17049496,5.079069289,3.957741935,3.614594814,134.1699984,8.880000114,44.70363614,85.9177286,9.330454675,39.94818193,160.1854537,27.69772666,110.1186362,18.3437644,22.24283047,20.73146956,20.35982518,19.15233416,18.82824642,16.72048491,17.98730955,14.71797893,19.63580645,29.63200035,26.56953589,28.59263588,29.59106055,30.69283836,29.21689182,28.27188687,26.30588322,8.120967747,16.89599972,14.9739129,16.70528562,18.30318191,19.74443426,18.9160149,15.44500838,13.40262461,8.117657052,15.32722009,13.17028057,14.81678154,15.96857054,17.23303236,16.11713161,14.21502474,12.5845871,0.859331788,1,1,1,1,1,0.999172078,0.989049277,39.860924,-83.6755995,2016,OHH1
2369/LH123HT,GAH1_2017,N,13.75,734.9827686,1.5,2,190,85,61,60.5,1.929687474,5.730000019,0.343252103,3.449286585,2.107618968,4.586772466,5.884115127,3.462793619,5.790337869,61.74999917,45.84000015,4.185237975,115.4628578,3.161428452,44.24761888,164.3961923,18.00285697,179.500474,16.80249013,20.13732326,20.17342047,19.27076224,21.20480144,16.6798163,18.15858085,19.37517402,17.73704587,23.5584375,24.76124978,28.73884546,29.02932191,29.79031757,30.11825943,30.88468736,33.04158726,32.39466959,8.654999979,9.073749959,13.81601286,15.94569083,16.85142871,20.07059283,21.0580027,22.24365102,22.03411694,9.935165979,10.3201674,13.6844889,14.81363998,15.5596332,17.10789698,17.95959829,19.61349988,19.1980032,0.8834375,1,1,1,1,1,1,1,31.50794425,-83.55854475,2017,GAH1
TX714/TX779,OHH1_2020,Y,30.5,668.0491364,0,0,229,110,67,65,4.175312527,1.24000001,2.003453903,2.609830299,3.238461531,4.458868342,3.000365612,1.621237519,2.44580479,133.6100008,6.200000048,24.41307693,78.60461595,5.612307695,46.13538504,105.0992289,18.40384625,73.98230748,19.06994028,20.34349766,22.26062964,20.30125672,18.94980258,17.72364635,17.47781057,14.69815231,13.31876726,20.75593752,29.31000023,26.9862925,30.26951119,31.92230738,29.63458284,27.3548547,24.45496262,20.91339716,9.301875014,17.61400032,14.18652547,18.22082699,19.47423084,18.74255468,15.66305293,13.07056974,8.164555027,9.098127154,15.53923951,13.05396234,16.29356655,17.69826911,16.21360084,13.84725457,11.75523116,8.713632263,0.810993302,1,1,1,1,0.998602591,0.941606618,0.857376019,39.85643475,-83.67288725,2020,OHH1
WF9/H95,WIH1_2017,Y,19.65,682.208174,29,2,247.5,105.5,80,80,3.894838602,1.694000003,3.49156578,6.251914317,26.29780264,12.3515148,1.782621048,1.031219451,2.019413967,120.7399967,16.94000003,60.77000046,238.2086357,55.48409002,148.2181776,77.27181808,11.13545426,60.74545419,17.96009764,21.56986256,18.71582301,20.73316127,19.69440102,19.58726141,19.1692292,15.69151392,12.21998586,16.03451621,20.2119998,20.22998088,26.71060266,27.00553033,27.16428033,24.80808837,24.03641879,21.845045,3.37838715,6.260000002,9.268565708,14.6662765,15.35575767,16.21109857,13.17589581,11.52521119,9.509429623,5.507434962,7.720411242,8.664602637,13.14891279,13.46068042,13.9043846,11.67856357,10.90146065,9.608265423,0.606900932,0.8735357,0.867893568,1,1,0.998220242,0.971647403,0.89569217,43.05668125,-89.5308135,2017,WIH1
CG119/CG108,NEH1_2015,N,14.05,792.9061041,0,2,220,120,65,49.5,2.959062506,0.753999996,4.745632833,2.187040691,0.179999996,3.601448917,1.548000793,0.057812502,1.589214364,94.69000018,3.769999981,46.84999943,63.50812512,0.239999995,39.12187557,55.49499987,0.586250016,47.85812447,19.07194562,25.84699936,20.00593662,19.96245842,20.96463704,17.86296284,18.31175333,17.30405645,12.3794141,23.74906254,30.51399994,29.13009987,30.74148671,30.73750019,28.43858622,29.13031746,26.88374984,20.12342532,13.19218739,15.46999989,18.04036499,19.18092822,19.11281252,17.33248289,15.92131484,11.1533021,6.525200269,11.64481375,15.25955733,15.68336601,16.96891106,16.93845514,15.07345461,14.95183393,12.01070089,8.15887847,0.924598212,1,1,1,1,0.96969665,0.982957588,0.758540943,41.290979,-96.41664325,2015,NEH1
PHG39/PHN82,WIH3_2020,N,24.225,656.142673,0,0,242,124,69.5,67.25,2.733870995,5.446666638,6.112394342,4.74655674,3.655208389,1.04360979,2.527373572,3.69928986,2.61452892,84.75000083,32.67999983,82.9068754,167.6149986,8.003125131,12.58312517,113.8450009,40.74312496,78.93437568,20.41919384,18.2775027,21.33639865,20.40337995,19.49413761,18.99324058,17.80850823,14.15156863,10.1168501,15.48354838,26.52499994,25.39100386,27.30541678,28.00124967,27.24401428,25.77617537,21.78088819,14.67245705,3.106129019,15.18500026,12.31273591,15.12317531,16.14624966,16.31340126,13.17330579,9.92591724,4.431311843,5.287102842,13.2823578,11.70416503,13.61992535,14.28505882,13.97808988,12.29059579,9.657643491,5.630137727,0.571854837,1,1,1,1,0.965668942,0.879609054,0.560799012,44.115703,-89.54491325,2020,WIH3
2369/LH123HT,NYH3_2018,N,23.50166667,721.7033076,0.166666667,2.5,232.3333333,119.5,74.5,73.83333333,4.152903213,0.855714253,1.333281551,1.973054112,19.58384622,4.14286014,1.827699262,3.76173812,1.90156246,128.7399996,5.989999771,17.49230713,69.9676929,40.09153858,44.76538462,69.41461665,34.65000019,57.30153882,20.64383799,23.73438372,20.91517994,21.34827616,15.57480097,18.28181198,18.59806785,13.9987834,13.21485935,12.82806446,24.72714315,24.74142799,27.59651287,28.68307664,28.50629367,27.06434367,24.34345721,20.06623908,1.452258048,10.48999977,13.10088293,14.82547593,19.13846159,17.45270631,15.13507682,13.07327349,8.10410419,4.113027627,10.74522894,11.82730489,13.73068126,15.93834835,15.05075648,13.50240047,11.64767513,8.352187515,0.351670502,1,0.973040659,0.995029228,1,0.992439429,0.946636381,0.843044516,42.7261605,-76.6556765,2018,NYH3
PHG39/TX205,NCH1_2017,Y,17,731.1212129,0,2,219.5,102.5,65,64,5.929354779,4.097142833,0.297958702,3.860588722,6.673809642,5.437090039,2.513672686,1.67758051,4.140460835,183.8099982,28.67999983,4.023333254,115.8195228,10.90952401,51.84571517,65.15761944,9.68857149,128.3542859,16.84796118,19.66078799,22.20077414,19.20396089,15.77249108,20.54839894,18.7994723,19.26606379,16.40835168,26.07000006,23.57857159,28.17011276,29.72614366,31.01404729,30.48814813,32.54721675,31.95695904,30.43138246,13.64064524,11.25142826,15.69757802,18.87536398,22.57674573,19.84793622,22.28039625,21.2748593,20.81350234,12.56442422,10.48784987,14.26665949,16.36044911,18.79940835,17.21144066,19.38557496,18.57336573,17.65269876,0.998329492,1,1,1,1,1,1,1,35.29663725,-77.5668065,2017,NCH1
B14A/OH43,NCH1_2017,Y,17.7,731.1212129,0,2,229,110,65,64,5.929354779,4.097142833,0.297958702,3.860588722,6.673809642,5.437090039,2.513672686,1.67758051,4.140460835,183.8099982,28.67999983,4.023333254,115.8195228,10.90952401,51.84571517,65.15761944,9.68857149,128.3542859,16.84796118,19.66078799,22.20077414,19.20396089,15.77249108,20.54839894,18.7994723,19.26606379,16.40835168,26.07000006,23.57857159,28.17011276,29.72614366,31.01404729,30.48814813,32.54721675,31.95695904,30.43138246,13.64064524,11.25142826,15.69757802,18.87536398,22.57674573,19.84793622,22.28039625,21.2748593,20.81350234,12.56442422,10.48784987,14.26665949,16.36044911,18.79940835,17.21144066,19.38557496,18.57336573,17.65269876,0.998329492,1,1,1,1,1,1,1,35.29663725,-77.5668065,2017,NCH1
PHG29/PHG47,NCH1_2016,N,13.7,731.1212129,0.5,4.5,209,102.5,65,64,2.901562452,3.125714166,7.137907935,4.683034439,4.3177271,0.863030289,5.226283407,5.104181825,4.507668668,92.84999847,21.87999916,91.86318315,160.7736342,8.497726928,8.495454409,139.9318182,26.12772732,139.7377287,16.36857818,22.27138465,15.49498623,18.72849078,21.8793198,21.8664799,18.529992,18.05675722,17.32656161,20.86125001,25.58571407,25.68946269,27.1054564,30.20318166,31.0559697,32.42423852,33.59766701,33.26035177,7.692187494,8.212857212,14.27003911,16.07300028,18.02681784,18.80169681,21.2796372,22.62190931,22.7218182,8.383421821,10.43985322,12.46468669,13.95599298,16.17160042,16.99727481,18.83160592,19.980567,19.86697781,0.913761163,1,1,1,1,1,1,1,35.30015175,-77.57127825,2016,NCH1
LH195/LH82,GAH1_2016,N,14.85,792.2625115,0,2,170,80,61,59,6.466250051,4.395000041,0.566421492,2.549627568,3.17469698,5.859943136,4.096967014,2.330999996,2.476261007,206.9200016,35.16000032,6.21000006,86.0200003,9.52409094,52.42727233,105.6731797,11.65499998,76.76409122,15.95696127,18.25385642,20.33100053,20.74024209,20.01064868,19.54302735,19.38198769,19.26953352,18.21451922,23.62687498,22.98249984,28.56134937,29.4983659,33.37075638,32.62719045,33.25026907,34.51499955,33.94928126,11.29749997,10.47000009,15.64744728,16.2846205,20.78287862,20.61269551,21.56927107,22.51809092,22.40467728,10.53971422,9.962440438,14.36481163,15.11313475,19.02952924,18.56859265,19.26668195,20.34390963,19.99415841,0.993928569,1,1,1,1,1,1,1,31.5079175,-83.55854775,2016,GAH1
LH195/PHZ51,IAH1_2017,Y,16.83333333,769.9513008,0,2.166666667,220.8333333,97,65,64,3.40562493,4.965384584,4.756276119,1.833606587,3.814090996,2.221484887,3.670808328,1.81325484,2.347473118,108.9799978,64.54999959,71.28272616,63.78727258,4.177727374,22.83863677,118.9068186,13.7622725,72.03681816,16.19865167,17.41178014,18.84198651,22.07722619,19.57094626,20.6423577,19.65334879,19.12382584,16.87809105,17.11343735,15.37846162,22.95951679,28.09807267,26.50742381,30.27960591,29.79948923,26.92834941,26.37674051,5.413125027,4.923076978,11.46549016,14.16962528,11.61757578,16.65775237,16.66504091,13.38757222,12.41510662,6.530778339,5.768563812,10.45370215,13.71965113,11.94783378,15.64262598,15.39964617,12.71239892,12.1737806,0.629988832,0.555054952,0.946458762,1,1,1,1,0.998130952,41.19924609,-91.49402296,2017,IAH1
PHW52/PHM49,IAH3_2019,Y,23.25,698.2979894,0.5,0,226,114,65,64,2.879677419,8.325833271,8.514982687,3.930253796,0.537380945,2.3054841,2.306432914,9.350841805,5.38576807,89.26999998,99.90999925,122.1842849,140.4857139,1.612142835,22.50785688,97.56999955,77.30999979,164.0414292,18.1142604,18.14433392,18.34133211,20.20102762,20.30083813,21.10542726,19.14151731,15.03963484,12.83068274,16.60032246,18.1858333,22.24543073,27.09611601,28.60416662,30.1634999,27.59661349,25.62734982,23.13272506,3.497096781,6.015833348,10.94521806,15.70806976,18.18130992,18.44873807,15.55405048,14.14793364,12.04513443,5.803122395,7.048807354,9.977529243,13.7421048,15.43701566,16.36698878,13.8976006,12.43400485,10.94701098,0.634539169,0.718095232,0.926337681,1,1,1,0.9932483,0.897879883,41.97593131,-92.24310603,2019,IAH3
LH198/PHZ51,ONH1_2016,Y,27.15,660.9696176,0,1,217.5,122,85.5,83.5,1.979032247,2.105714291,0.92181366,1.439738287,4.720833318,2.435439396,4.62931563,1.31185227,2.043303741,61.34999967,29.48000008,13.31600007,60.28400005,10.99249999,28.54150001,172.0475013,11.37649985,61.38049932,20.24883872,21.56727634,23.77365349,22.41142308,19.3081847,20.61473607,17.12813691,15.31534219,11.6349499,10.49290321,16.47999988,25.01561457,25.51466922,28.22516696,27.99415914,27.31356147,24.49017951,20.3886015,-0.735806467,3.753571405,10.93050922,11.61184699,15.55325019,14.71775745,15.07244109,12.71620509,9.185787659,3.269306411,5.688768484,11.09209761,11.56175859,14.2216101,13.76399544,13.57642435,11.5133866,8.776899495,0.291105988,0.684668367,0.99891379,0.988093962,1,0.998165816,0.971212584,0.877977401,43.4997965,-80.451125,2016,ONH1
LH212HT/LH195,GAH1_2017,N,13.35,746.5674357,0,1.5,180,80,61,61,1.929687474,5.730000019,0.343252103,3.449286585,2.107618968,4.586772466,5.884115127,3.462793619,5.790337869,61.74999917,45.84000015,4.185237975,115.4628578,3.161428452,44.24761888,164.3961923,18.00285697,179.500474,16.80249013,20.13732326,20.17342047,19.27076224,21.20480144,16.6798163,18.15858085,19.37517402,17.73704587,23.5584375,24.76124978,28.73884546,29.02932191,29.79031757,30.11825943,30.88468736,33.04158726,32.39466959,8.654999979,9.073749959,13.81601286,15.94569083,16.85142871,20.07059283,21.0580027,22.24365102,22.03411694,9.935165979,10.3201674,13.6844889,14.81363998,15.5596332,17.10789698,17.95959829,19.61349988,19.1980032,0.8834375,1,1,1,1,1,1,1,31.50794425,-83.55854475,2017,GAH1
PHW52/PHN82,TXH2_2019,N,10.59,791.2778148,0,0,210.5,61,69.5,69.5,1.71448275,0.072857141,3.656594302,9.095434564,0.409285716,1.207678571,5.355850783,1.246142852,1.574419343,49.71999974,0.50999999,52.00785631,328.2121388,0.592857139,9.661428571,146.4478573,6.531428533,47.51499965,15.42805705,20.52131135,18.76898834,18.57032559,21.42349659,18.85281525,20.14881361,21.03072751,19.84089234,18.45000007,25.76428577,24.43254944,27.27586732,31.09000002,32.37866099,32.72435205,34.04471448,34.98200776,6.826206914,10.35000004,10.67963154,14.78766739,18.65857179,21.85071427,21.02442735,21.79614282,22.6049739,7.457816468,11.1589152,10.85119479,13.46630403,16.91193677,19.11412105,18.84765314,19.77807102,20.01419559,0.749667494,1,0.945308164,1,1,1,1,0.999698925,30.546318,-96.4329965,2019,TXH2
PB80/PHZ51,OHH1_2015,Y,15.13333333,791.6189189,0,0,256.6666667,123.6666667,63.66666667,62,4.820000016,2.056666652,1.801667061,2.430255425,2.070588264,2.75488235,3.664772063,1.623969288,1.874022108,149.4200005,12.33999991,20.27235275,82.00588303,2.23529414,26.29176468,128.0200007,12.16764697,57.18411674,17.71339239,20.831882,20.85048625,20.93566426,20.28419298,19.59839119,17.66236547,17.23782846,14.83481447,16.95064511,28.03666687,26.64173705,29.01382079,31.07970569,30.59522857,27.99762273,26.69097183,23.34659959,5.9283871,15.42166694,14.66308043,16.74801267,19.23764672,18.74322206,16.69895781,13.90980629,10.26308727,6.580773377,14.04730329,13.19467995,15.08203889,17.16864649,16.69143216,14.53513226,12.92347397,10.29932856,0.672569122,1,1,1,1,1,0.994932126,0.947361455,39.855785,-83.66477375,2015,OHH1
F42/OH43,MOH1_1_2018,N,17.76666667,731.1212129,0,1.666666667,242.3333333,119.3333333,55.66666667,54,4.419032262,0.120000001,6.56660792,4.995913726,0,0.865952386,4.867908623,7.318145406,3.629241153,136.9900001,0.840000004,71.60142667,150.6285707,0,7.793571472,145.6157139,39.85928573,112.0157138,18.39395777,18.46565301,20.1607481,20.70593221,19.87326009,21.97749135,18.06982858,17.46468943,16.31914076,19.5254839,22.76714298,27.16554273,29.60936822,31.6271427,32.32420578,29.51628185,29.85375934,27.04843165,7.99741943,14.14714282,16.43732974,18.81172612,21.79964249,20.71007941,19.44316189,19.21155699,15.91814144,7.992986492,11.1555316,14.00535673,16.26359619,18.7133926,18.51714259,16.54699664,16.60044059,13.86670431,0.872361758,1,1,1,1,1,1,0.995607144,38.89791675,-92.20952075,2018,MOH1
F42/MO17,DEH1_2015,Y,20.7,680.9209887,0,0.5,255,121.5,67,64,2.877187484,6.848000002,1.658122271,2.899811139,0.533124998,6.398055441,4.542065261,4.666333417,5.694818618,92.06999949,68.48000002,26.86312445,94.40374921,0.778750002,57.58249897,115.8581242,26.73625046,176.5393772,18.09789148,17.20138936,20.11151884,21.0089777,21.53492481,19.24730516,17.70191113,15.05628078,15.14846735,16.82656264,19.24400005,20.72376954,27.68890342,31.56656283,31.86354174,32.09465687,30.43364003,29.09395151,6.265937505,9.858999991,10.7453803,17.67876376,20.38750017,21.35659703,22.77220607,22.28250884,20.56647162,6.521960329,8.412914767,9.229957748,14.85993723,17.9770315,18.58170739,19.36170697,18.35807444,16.86736745,0.750435273,0.870857151,0.962682184,1,1,1,1,1,38.62935675,-75.4656925,2015,DEH1
B73/TX779,NCH1_2017,N,17.85,731.1212129,0,2,221,129.5,65,64,5.929354779,4.097142833,0.297958702,3.860588722,6.673809642,5.437090039,2.513672686,1.67758051,4.140460835,183.8099982,28.67999983,4.023333254,115.8195228,10.90952401,51.84571517,65.15761944,9.68857149,128.3542859,16.84796118,19.66078799,22.20077414,19.20396089,15.77249108,20.54839894,18.7994723,19.26606379,16.40835168,26.07000006,23.57857159,28.17011276,29.72614366,31.01404729,30.48814813,32.54721675,31.95695904,30.43138246,13.64064524,11.25142826,15.69757802,18.87536398,22.57674573,19.84793622,22.28039625,21.2748593,20.81350234,12.56442422,10.48784987,14.26665949,16.36044911,18.79940835,17.21144066,19.38557496,18.57336573,17.65269876,0.998329492,1,1,1,1,1,1,1,35.29663725,-77.5668065,2017,NCH1
CG108/CGR03,NYH1_2017,N,15.75,731.1212129,0,5,209,109,66.5,66.5,4.758709581,4.139999986,2.953024942,5.715506232,4.320872878,2.701732063,2.616328443,1.022630585,3.614268439,147.519997,37.25999987,45.12618999,219.9223815,11.26857107,35.6957141,128.4247627,13.30476207,110.8900009,18.97444351,17.81005277,22.0763727,19.38397475,18.56141379,19.22534974,16.71382568,13.43506643,9.037548332,17.06967752,20.23333359,22.7745171,25.66488699,26.70396817,25.32691524,23.26007272,23.96840526,17.61119819,5.964193534,10.19,10.93717632,15.20362294,16.36293638,14.60656728,11.31793404,11.56685323,6.669544781,6.641127344,8.727253675,10.15270493,12.79474615,13.71935226,12.37567782,10.45035179,10.9124923,7.239151369,0.685760371,1,1,1,1,0.982493678,0.953634339,0.701363064,42.72880835,-76.6515625,2017,NYH1
B73/PHN82,NEH3_2015,N,19.65,714.3878048,0,1,229,110,63.5,63,3.231250057,0.918000031,0.565093977,1.286692195,3.19749999,1.391136354,0.258061221,1.474667183,0.155891338,103.4000018,4.590000153,6.150000095,39.04749978,4.720000029,15.30249989,11.17999983,14.52874985,4.648125023,21.79127574,25.69442635,22.86725485,21.82271665,15.26317632,20.59079,20.06412842,16.27968968,13.53861776,24.28750017,32.64599991,30.58771447,32.67731329,28.91593772,29.87238656,30.80707127,25.39031645,21.32018275,9.278749934,13.0079998,13.8828633,15.7826582,17.05531204,14.62710229,13.18313307,8.87540479,3.334017086,10.46257825,15.28330691,14.45465852,16.22005678,15.0938879,14.496454,14.53020136,10.90039565,7.851747396,0.909587052,1,1,1,1,0.965712824,0.862507779,0.80953931,41.15824525,-101.9872958,2015,NEH3
WF9/H95,ILH1_2015,N,11.95,755.5777323,0,1,252.5,105,71,69.5,4.343437491,1.296153843,7.654899739,5.34311295,3.674999952,2.467291633,4.647268051,0.712819956,1.951907909,138.9899997,16.84999996,99.86750055,177.342501,7.349999905,22.2056247,144.0256246,5.039375113,60.06187434,19.4076893,20.21820178,17.58012378,22.59231729,17.35775694,20.12242863,18.79551315,20.37165926,16.80998738,15.69375022,16.27615364,23.81483975,28.77428317,30.28249967,31.91701372,28.65899596,28.4854072,27.09877011,2.916875011,4.602307732,13.93389792,16.26044709,20.47749984,20.41381959,17.79543547,15.77196732,14.62672175,5.339800043,5.921635642,11.53105666,14.7484369,17.37999976,18.17178164,15.31569586,14.44648847,13.36421336,0.599162964,0.636840646,1,1,1,1,1,0.99828125,40.05982425,-88.23397575,2015,ILH1
LH195/LH82,ONH2_2015,Y,25.2,733.0519907,0,1.5,218,104,80,80.5,1.876451608,4.282666683,1.928005431,1.58261263,10.80264742,1.923208582,3.114388399,4.294901914,2.356388962,58.16999984,64.24000025,23.61999965,57.22470651,21.60529484,21.1552944,115.5017658,31.56294079,72.1164696,18.95380112,18.76709785,21.17743809,22.45418875,20.04103015,18.4543581,18.45373918,15.80078253,13.34539525,11.17387095,14.38466663,23.91200153,26.61279381,30.15176526,27.65053462,26.77986929,25.87464046,20.7920557,2.006774224,5.636000033,13.64950245,15.64688346,19.32647026,18.51812829,16.74694623,15.4972221,11.03054456,3.742938436,5.617129505,11.53065914,13.52353119,16.78542678,15.13421866,13.95153495,13.1846932,9.37660249,0.276970043,0.589690475,0.985132406,1,1,1,0.993019959,0.931831119,42.45408625,-81.8816065,2015,ONH2
LH195/PHN37,MIH1_2017,Y,23.8,674.4850626,0,2,103,45.5,65,66,2.651290334,1.642500043,0.365195355,3.685889798,0.022982455,0.462972321,1.745768067,1.924198947,6.215848807,82.19000036,13.14000034,4.417894763,131.6678931,0.068947365,5.871578781,77.40789432,25.15789459,187.919471,20.75480046,19.52619267,24.47429891,19.89055103,21.94334328,22.12060477,17.47908742,14.76431364,9.641321864,18.99677434,22.1187501,26.44652255,27.49693157,27.7329823,27.82492569,25.37386911,24.10071042,20.63989867,5.961290348,11.91874993,11.36318641,16.0503933,16.08877179,14.96255052,12.27657104,9.93890341,8.936309075,7.303217139,10.01258026,11.86785018,14.06113521,14.11607898,13.75096176,11.67659513,10.59348898,9.148775778,0.770126733,1,1,1,1,0.999072621,0.949278334,0.816440377,42.68116575,-84.49434125,2017,MIH1
LH195/PHZ51,ARH2_2016,N,14.15,731.1212129,0,1.75,196.75,106.25,67.5,66.5,5.780937422,12.26500018,3.712120208,7.0222886,1.105000019,0.295568184,1.931287914,1.454696927,6.280835692,184.9899975,73.59000111,50.67409075,233.2059098,2.210000038,2.364545475,51.29727264,7.656817956,194.7059064,17.76457119,17.22719622,20.14058537,19.80644481,18.88262117,19.79738723,18.69440654,19.88854878,15.60714355,21.02781257,25.69833342,24.88224707,27.55747889,33.1628785,33.38017045,32.40728063,33.71248445,31.37684753,8.517187547,14.13833332,13.26693003,16.75834882,22.79151535,23.21522755,22.56353312,22.95024234,22.3752492,8.626308124,12.37618007,11.75818796,14.46644855,19.89189903,20.24263088,19.43024202,20.23735303,18.81126952,0.958649555,1,1,1,1,1,1,1,35.838614,-90.66530155,2016,ARH2
B14A/H95,NYH2_2017,Y,17.7,731.1212129,0,2,229,110,65,64,4.985806354,2.593333337,3.453715005,5.89688957,0.948070192,3.208418109,2.379655727,2.694333021,3.397972982,154.559997,23.34000003,55.2357889,222.9889478,1.763157895,41.81263091,117.7794744,23.637895,104.1910535,18.91896409,18.22902181,21.62310913,19.28169434,21.2024166,18.91678159,16.97406986,13.88043676,9.439494818,16.54903238,19.80111122,22.34881997,25.65461899,27.16105275,25.3148988,23.28803047,24.25146582,18.24460841,5.239677404,10.2422222,10.55939387,15.21770316,15.87359667,14.84504335,11.5614249,11.15398494,7.352427253,6.267898103,8.570747831,9.793885142,12.80097944,13.68904673,12.46138399,10.55155578,10.87663924,7.688896934,0.638917053,1,1,1,1,0.981507475,0.966916282,0.722284214,42.73248125,-76.65275025,2017,NYH2
F42/MO17,TXH1-Late_2018,N,10.8,706.6646934,0,2,242.5,98,60.5,60,3.579375003,7.22999986,0.880950212,3.393996506,5.74642872,3.619146949,3.455600496,0.428285708,2.278709721,114.5400001,43.37999916,11.7107143,109.309285,11.49285744,35.41714406,87.15857094,2.141428539,70.64000136,15.18905504,16.98149872,20.4111462,19.99876216,15.81608334,20.1152116,19.58230121,16.39417859,18.61523184,25.42156261,25.48166672,24.9240565,29.86096768,30.55928573,31.11103384,33.47173554,33.67857067,35.62923946,13.73406251,14.7233332,12.14174484,16.97683375,21.17380969,19.92907914,21.60030195,24.8844286,24.53525352,12.24876106,12.9546326,11.47321097,15.6369769,17.86869493,17.49319399,19.34856645,20.63058471,20.90474588,0.995234379,0.961607144,1,1,1,0.999944236,0.999152383,0.999033412,30.546318,-96.4329965,2018,TXH1-Late
2369/LH123HT,NYH2_2016,N,19.05,731.1212129,0,2,184.5,84.5,79.5,75.5,2.034516133,1.030000001,1.88805842,0.867300396,1.140952366,2.326450204,3.376451109,4.287746575,3.208572451,63.07000011,12.36000001,22.4085716,34.4438095,2.622857094,25.59095225,116.65619,31.75809508,97.82571426,19.21240982,23.35584625,23.40556822,22.17883586,23.94456446,21.25361649,17.18897092,16.17245816,13.35906413,14.04935483,18.68749992,27.50851283,26.23633728,28.78071431,29.31692664,28.41638555,26.44500865,23.15297547,1.686774175,4.439999988,12.92699036,12.85534504,13.89476193,15.65588736,16.863818,13.58818034,10.55762265,4.511298309,6.607155497,12.88765676,12.33330427,13.7996272,14.74166699,14.82295673,12.66050813,10.26842414,0.447315667,0.804761906,0.999400038,0.994542932,1,0.999880088,0.994843294,0.949842165,42.726117,-76.655339,2016,NYH2
B14A/OH43,NYH3_2020,Y,15.95,704.7339156,0.5,10,259.5,134,64,64.5,4.422257993,0,1.373865683,3.203515064,6.161458224,3.578657229,2.247619776,1.339995863,2.270768823,137.0899978,0,18.69000064,113.6731244,12.19749978,37.86125033,87.74812532,17.041875,68.54562519,20.94560956,21.78233427,21.55267425,20.63825651,19.18147684,18.87690393,17.75633085,13.93943947,11.5316014,14.59225801,27.97729172,23.60945411,27.89842024,28.17958339,28.76829368,26.51617347,21.47489044,18.12990527,2.644717742,15.68266662,11.3508871,15.53912014,16.43281273,17.50013456,14.53010818,10.52921434,6.891416056,5.000434995,14.04753459,10.70035646,14.11697706,14.42792892,15.19886376,13.03509367,9.604727821,7.356101809,0.471947005,1,0.969562211,0.99553941,1,0.989555914,0.903066166,0.764418635,42.73227475,-76.6513705,2020,NYH3
B73/MO17,GAH1_2020,N,18.305,686.0053704,11.5,0,205,97.5,68,66.5,4.279687563,0,6.08243138,3.811420537,2.267976227,2.530000055,3.98378478,1.741833346,2.910207357,136.950002,0,84.37571335,135.9278565,4.833571502,22.77000049,107.9378566,9.115000069,90.21642806,16.61263859,21.5972875,19.10636237,20.72286693,14.54687945,18.15584731,20.08605453,19.68634889,18.27781732,25.37343752,26.77166684,25.94144379,27.77824619,29.55357116,30.6518255,31.78195276,33.48178532,33.56322575,12.43875006,10.55666669,12.19035929,13.80720781,20.58059497,20.26111097,20.57386992,21.96838095,22.25456222,11.80508215,11.69113274,11.88989525,13.35432975,17.06708306,17.45646823,18.17996521,19.67032327,19.80166763,0.988537947,1,1,1,1,1,1,1,31.5079775,-83.558517,2020,GAH1
CG119/CG108,NYH3_2020,N,11.85,653.8900988,0,8.5,172,76.5,58.5,58,4.422257993,0,1.373865683,3.203515064,6.161458224,3.578657229,2.247619776,1.339995863,2.270768823,137.0899978,0,18.69000064,113.6731244,12.19749978,37.86125033,87.74812532,17.041875,68.54562519,20.94560956,21.78233427,21.55267425,20.63825651,19.18147684,18.87690393,17.75633085,13.93943947,11.5316014,14.59225801,27.97729172,23.60945411,27.89842024,28.17958339,28.76829368,26.51617347,21.47489044,18.12990527,2.644717742,15.68266662,11.3508871,15.53912014,16.43281273,17.50013456,14.53010818,10.52921434,6.891416056,5.000434995,14.04753459,10.70035646,14.11697706,14.42792892,15.19886376,13.03509367,9.604727821,7.356101809,0.471947005,1,0.969562211,0.99553941,1,0.989555914,0.903066166,0.764418635,42.73227475,-76.6513705,2020,NYH3
B73/PHM49,NEH1_2015,N,14.2,791.6189189,0,2,240,125,65,55.5,2.959062506,0.753999996,4.745632833,2.187040691,0.179999996,3.601448917,1.548000793,0.057812502,1.589214364,94.69000018,3.769999981,46.84999943,63.50812512,0.239999995,39.12187557,55.49499987,0.586250016,47.85812447,19.07194562,25.84699936,20.00593662,19.96245842,20.96463704,17.86296284,18.31175333,17.30405645,12.3794141,23.74906254,30.51399994,29.13009987,30.74148671,30.73750019,28.43858622,29.13031746,26.88374984,20.12342532,13.19218739,15.46999989,18.04036499,19.18092822,19.11281252,17.33248289,15.92131484,11.1533021,6.525200269,11.64481375,15.25955733,15.68336601,16.96891106,16.93845514,15.07345461,14.95183393,12.01070089,8.15887847,0.924598212,1,1,1,1,0.96969665,0.982957588,0.758540943,41.290979,-96.41664325,2015,NEH1
LH74/PHN82,NYH2_2016,N,20.1,731.1212129,0,2,159,82,74.5,71,2.034516133,1.030000001,1.88805842,0.867300396,1.140952366,2.326450204,3.376451109,4.287746575,3.208572451,63.07000011,12.36000001,22.4085716,34.4438095,2.622857094,25.59095225,116.65619,31.75809508,97.82571426,19.21240982,23.35584625,23.40556822,22.17883586,23.94456446,21.25361649,17.18897092,16.17245816,13.35906413,14.04935483,18.68749992,27.50851283,26.23633728,28.78071431,29.31692664,28.41638555,26.44500865,23.15297547,1.686774175,4.439999988,12.92699036,12.85534504,13.89476193,15.65588736,16.863818,13.58818034,10.55762265,4.511298309,6.607155497,12.88765676,12.33330427,13.7996272,14.74166699,14.82295673,12.66050813,10.26842414,0.447315667,0.804761906,0.999400038,0.994542932,1,0.999880088,0.994843294,0.949842165,42.726117,-76.655339,2016,NYH2
WF9/H95,MOH1_2016,N,16.5,731.1212129,14,1.5,265,122.5,59.5,57.5,2.465483877,8.058000231,0.264259377,6.282521268,1.94553035,9.25680559,4.358907121,3.354664451,5.453130527,76.43000019,40.29000115,2.879999995,172.8372758,4.262727369,83.20363667,125.2090916,21.13363606,168.2240918,20.2309363,16.93509369,22.49829557,20.20959989,18.68177986,19.21408964,18.0090922,17.17714413,15.87534947,21.83193548,27.56600037,27.88644765,31.21215235,30.25795442,31.2505745,30.57423065,29.80077912,28.25339236,10.073871,16.74400005,16.26474463,19.86215984,19.98371223,20.49117413,20.76153791,19.91431794,17.56318368,9.497798547,14.24343349,14.21296425,17.47336946,17.12232598,17.8699151,17.65104862,16.90998551,15.09561117,0.937315665,1,1,1,1,1,1,0.999442641,38.8955475,-92.2072025,2016,MOH1
LH82/PHB47,WIH1_2016,N,18.275,777.4598813,5,12.75,228.75,117.75,68.75,68.75,2.076129018,1.94750002,4.430291291,4.068377178,0.606590927,8.204471101,6.520888551,7.285801826,4.413191112,64.35999957,23.37000024,50.66818307,153.9786358,1.017727305,87.41727302,222.4604529,58.95590957,134.9268184,19.92805462,20.9108026,19.53546339,20.65690042,18.97296773,19.76360502,17.50876714,15.21370917,12.23883056,16.70258062,17.57583312,27.08182728,26.49130857,27.22159082,28.35833875,27.6700069,25.1458901,22.98674642,3.327419363,4.990833327,14.04723809,14.47423798,17.58636334,16.7186736,17.17399145,14.32051147,12.5735533,5.875866612,6.419508974,12.98865398,12.92924289,14.50224274,14.72651534,14.55658067,12.23924581,10.7486024,0.621198161,0.7653869,1,1,1,0.999967803,0.998306277,0.970976554,43.05632525,-89.53194975,2016,WIH1
B37/H95,WIH1_2018,N,21.234,801.9164007,0,2,271.4,125.4,70.4,67.8,1.609999989,7.097692302,4.543300024,5.384655594,12.90857152,6.684415526,1.835393967,1.490247701,3.282350194,49.90999967,92.26999992,56.1414287,188.537143,17.774286,73.52857079,76.14071582,18.50214262,100.642856,20.21844376,17.61529163,19.67186989,21.74517717,19.19342093,18.08513378,19.62003162,16.98075827,12.74863056,13.31193533,16.25923072,24.73561688,28.00164855,31.39095186,28.11097395,26.99453296,26.15077082,19.9357303,1.183225821,5.521538512,13.28283365,14.89542408,18.89249983,17.62870117,14.61713968,12.9208708,8.385953947,4.208379921,6.163069931,11.75441076,13.86262536,17.16453014,14.91796624,13.29691021,12.54059059,8.511099252,0.430714275,0.66777473,1,1,1,0.987929958,0.939058758,0.805939432,43.0544,-89.5317,2018,WIH1
F42/OH43,TXH2_2019,N,11.95,801.7812463,0,0,176.5,52,68.5,68,1.71448275,0.072857141,3.656594302,9.095434564,0.409285716,1.207678571,5.355850783,1.246142852,1.574419343,49.71999974,0.50999999,52.00785631,328.2121388,0.592857139,9.661428571,146.4478573,6.531428533,47.51499965,15.42805705,20.52131135,18.76898834,18.57032559,21.42349659,18.85281525,20.14881361,21.03072751,19.84089234,18.45000007,25.76428577,24.43254944,27.27586732,31.09000002,32.37866099,32.72435205,34.04471448,34.98200776,6.826206914,10.35000004,10.67963154,14.78766739,18.65857179,21.85071427,21.02442735,21.79614282,22.6049739,7.457816468,11.1589152,10.85119479,13.46630403,16.91193677,19.11412105,18.84765314,19.77807102,20.01419559,0.749667494,1,0.945308164,1,1,1,1,0.999698925,30.546318,-96.4329965,2019,TXH2
2369/LH123HT,NYH2_2020,Y,14.2,736.2699538,0,4,267.5,120,67.5,67.5,4.422257993,0,1.391731236,3.182357247,6.170888774,3.507901041,2.283490724,1.426918664,2.172175634,137.0899978,0,18.68266731,113.2706661,12.6093331,36.98266699,88.46933366,18.14666667,65.61600019,20.94267544,21.78244971,21.55666085,20.64321436,19.27786447,18.92984529,17.76882093,13.77968924,11.70490539,14.55447306,27.94977782,23.62933928,27.86541297,27.88688897,28.78672537,26.53302948,21.56675493,18.20507674,2.61195699,15.66431106,11.35573055,15.51025755,16.31100023,17.48208292,14.53826355,10.86377734,6.879177126,4.979415324,14.02697238,10.70801105,14.09392345,14.22879085,15.20067311,13.04971037,9.749522427,7.387680802,0.470065285,1,0.969822941,0.995242037,1,0.988859641,0.904446401,0.765938608,42.73230075,-76.65036275,2020,NYH2
TX951/LH195,MNH1_2016,N,29.45,731.1212129,0,2,229,110,70.5,69,2.893225764,0.170000008,5.030425272,6.121705224,6.438583227,6.210954471,8.179238718,7.617170889,9.394742846,89.68999869,1.190000057,67.79499967,212.8530004,13.67999972,65.11499918,295.599999,62.20750045,287.315495,17.89673604,26.28611401,18.122652,20.29948324,15.80941307,17.87578139,16.93568638,15.29315111,12.15008877,17.5148386,25.45428576,24.53269911,27.63337014,28.14450006,28.70269129,27.15887183,24.8505404,22.53032632,6.338387108,9.824285678,13.68155402,15.81410535,17.82425013,18.42635015,16.92976579,13.57123889,11.50456607,6.871134867,10.90204251,11.6566452,13.98369248,15.05511886,15.68076391,14.22086787,11.86153057,10.26982602,0.734527645,1,1,1,1,0.999952477,0.98729881,0.936092645,44.06646925,-93.533648,2016,MNH1
W10005_0107/PHB47,MIH1_2016,N,16.9,710.5262491,0,2,208,108,59.5,59,3.213870927,0.372000003,1.277668238,2.072144594,0.204761899,2.382636341,6.277866916,3.129595251,4.115734243,99.62999874,1.860000014,16.77857134,74.4033328,0.614285696,24.34142835,217.3680916,23.88571438,123.5814282,20.04481233,22.69628944,22.57460654,21.19066928,19.62511718,19.41470496,17.43536011,14.16523572,12.41239439,17.74322581,29.20999985,25.57947765,28.1508514,27.23547651,30.32783564,28.27294529,26.6388532,22.50219404,5.299677434,16.33600006,11.90361174,14.70447611,15.74579377,17.52671,16.25511672,15.58650841,10.86825081,6.615827776,14.89908974,11.62365975,13.82943527,13.70908531,16.01583991,14.48649579,13.48265,10.09129455,0.734400922,1,1,1,1,0.999987733,0.99326559,0.936590208,42.41206675,-84.2952625,2016,MIH1
W10001_0022/PHB47,MNH1_2015,Y,16.5,745.9238431,13.5,4,250,111.5,70.5,69.5,2.676451665,6.10285713,1.587216104,4.707726326,2.093823531,4.685775359,5.935015669,2.223261507,2.198788145,82.97000162,42.71999991,19.59000013,155.007059,3.965294123,52.23235247,227.0947085,20.90117698,67.40117758,19.81693462,15.87546921,21.62818458,20.65236193,17.21434565,21.12123323,17.7408483,14.5374504,12.06297535,17.43387093,22.63000025,27.28921799,28.46423671,28.36529418,28.07899716,26.14089523,24.73259507,17.90095705,4.567419307,13.73428563,14.30007362,16.89716897,18.65411764,16.19745995,14.75643511,13.57280729,6.634647692,6.2838161,10.87437977,13.26905608,14.87023808,15.64114514,14.35392043,12.99006372,12.46836687,7.55733068,0.722983866,1,1,1,1,0.977703003,0.878626049,0.721229646,44.07038575,-93.53519625,2015,MNH1
LH198/PHZ51,OHH1_2015,Y,15.25,791.6189189,0,1,265.5,115.5,63.5,63,4.820000016,2.056666652,1.801667061,2.430255425,2.070588264,2.75488235,3.664772063,1.623969288,1.874022108,149.4200005,12.33999991,20.27235275,82.00588303,2.23529414,26.29176468,128.0200007,12.16764697,57.18411674,17.71339239,20.831882,20.85048625,20.93566426,20.28419298,19.59839119,17.66236547,17.23782846,14.83481447,16.95064511,28.03666687,26.64173705,29.01382079,31.07970569,30.59522857,27.99762273,26.69097183,23.34659959,5.9283871,15.42166694,14.66308043,16.74801267,19.23764672,18.74322206,16.69895781,13.90980629,10.26308727,6.580773377,14.04730329,13.19467995,15.08203889,17.16864649,16.69143216,14.53513226,12.92347397,10.29932856,0.672569122,1,1,1,1,1,0.994932126,0.947361455,39.855785,-83.66477375,2015,OHH1
B97/PHB47,MIH1_2016,N,18.05,712.457027,0,8.5,227.5,113,61.5,61,3.213870927,0.372000003,1.277668238,2.072144594,0.204761899,2.382636341,6.277866916,3.129595251,4.115734243,99.62999874,1.860000014,16.77857134,74.4033328,0.614285696,24.34142835,217.3680916,23.88571438,123.5814282,20.04481233,22.69628944,22.57460654,21.19066928,19.62511718,19.41470496,17.43536011,14.16523572,12.41239439,17.74322581,29.20999985,25.57947765,28.1508514,27.23547651,30.32783564,28.27294529,26.6388532,22.50219404,5.299677434,16.33600006,11.90361174,14.70447611,15.74579377,17.52671,16.25511672,15.58650841,10.86825081,6.615827776,14.89908974,11.62365975,13.82943527,13.70908531,16.01583991,14.48649579,13.48265,10.09129455,0.734400922,1,1,1,1,0.999987733,0.99326559,0.936590208,42.41206675,-84.2952625,2016,MIH1
B73/PHZ51,IAH1_2017,Y,16.4,760.4046769,0,5,232.75,116.25,65,64,3.40562493,4.965384584,4.756276119,1.833606587,3.814090996,2.221484887,3.670808328,1.81325484,2.347473118,108.9799978,64.54999959,71.28272616,63.78727258,4.177727374,22.83863677,118.9068186,13.7622725,72.03681816,16.19865167,17.41178014,18.84198651,22.07722619,19.57094626,20.6423577,19.65334879,19.12382584,16.87809105,17.11343735,15.37846162,22.95951679,28.09807267,26.50742381,30.27960591,29.79948923,26.92834941,26.37674051,5.413125027,4.923076978,11.46549016,14.16962528,11.61757578,16.65775237,16.66504091,13.38757222,12.41510662,6.530778339,5.768563812,10.45370215,13.71965113,11.94783378,15.64262598,15.39964617,12.71239892,12.1737806,0.629988832,0.555054952,0.946458762,1,1,1,1,0.998130952,41.19924609,-91.49402296,2017,IAH1
B37/MO17,SCH1_2019,N,15.25,731.1212129,0,2,224.79,92.71,56,60.5,3.522580645,3.026666641,1.832071666,3.15534991,1.497023807,2.439880971,1.838213127,1.715047598,2.162465429,109.2,18.15999985,19.94999987,97.87357193,2.846428582,21.92714303,50.9164284,9.481428444,67.0364283,18.2238054,19.24788825,19.83816148,19.9388592,17.79349522,20.88775084,19.93011295,20.19525604,17.6553152,24.08129043,27.55666669,26.86360264,30.30302253,30.15095266,31.81823454,32.87501498,31.84457125,32.33357145,10.7222581,15.88833332,14.78977791,18.33498627,20.49666657,19.48954379,21.18366564,19.1694286,20.16504603,10.62715993,13.88239503,13.27455789,16.3672742,17.32380961,17.64580353,19.00989067,17.48787314,18.15917061,0.967315668,1,1,1,1,1,1,1,34.62248225,-82.73756775,2019,SCH1
PHB47/PHN82,NYH2_2017,Y,18.3,738.8443243,0,4.5,243,108.5,74.5,74,4.985806354,2.593333337,3.453715005,5.89688957,0.948070192,3.208418109,2.379655727,2.694333021,3.397972982,154.559997,23.34000003,55.2357889,222.9889478,1.763157895,41.81263091,117.7794744,23.637895,104.1910535,18.91896409,18.22902181,21.62310913,19.28169434,21.2024166,18.91678159,16.97406986,13.88043676,9.439494818,16.54903238,19.80111122,22.34881997,25.65461899,27.16105275,25.3148988,23.28803047,24.25146582,18.24460841,5.239677404,10.2422222,10.55939387,15.21770316,15.87359667,14.84504335,11.5614249,11.15398494,7.352427253,6.267898103,8.570747831,9.793885142,12.80097944,13.68904673,12.46138399,10.55155578,10.87663924,7.688896934,0.638917053,1,1,1,1,0.981507475,0.966916282,0.722284214,42.73248125,-76.65275025,2017,NYH2
TX714/PHZ51,WIH1_2015,Y,34.7,791.6189189,0,0,280,163,65,64,4.730000059,9.059999784,2.430610682,6.190059866,3.242812514,1.739310909,2.563222068,2.582604527,2.064862235,151.3600019,54.3599987,32.30062549,198.0887501,6.485625029,21.11437514,113.2525011,35.42937557,62.48000012,19.32367544,22.19104989,23.8972515,19.04105101,21.62804324,20.72553659,16.09255797,13.7227876,9.595561915,19.95718755,28.15000025,26.05326099,28.85932006,29.07385437,26.51056077,24.82739399,20.18089026,14.51549808,8.517187543,15.30499983,11.82802944,17.48783518,16.48010375,14.49615378,12.31509137,8.581945626,2.680440183,8.558350873,13.98301754,11.81015597,15.26183828,14.95581898,12.98753542,11.68123469,8.628108428,5.087550731,0.777276777,1,1,1,1,0.929186389,0.833919484,0.505939954,43.05511725,-89.528525,2015,WIH1
LH195/LH82,IAH3_2017,Y,20.15,753.6469545,0,2,229,110,65,64,4.153750014,4.476666673,3.404720357,2.207347727,0.783636364,2.628276904,1.892687593,2.328876272,1.794257086,132.9200004,67.1500001,54.03954627,78.33863542,1.567272728,28.02681865,71.85545488,19.05045461,54.69545453,16.14493189,17.75127989,18.89303832,22.07985964,20.54923199,20.99384486,19.81852315,17.22919489,15.64326955,15.84312499,15.5066665,21.42652578,27.714982,28.45522753,29.90074383,27.6545798,25.64720852,25.13760955,4.41906251,4.141333344,9.782295063,13.56526933,16.05901469,16.6123348,14.8096002,12.74600627,11.28191352,5.818880471,5.62230391,9.387130072,13.2881535,14.4256186,15.3843105,13.65871261,11.89796048,11.29223634,0.568604913,0.570380948,0.879734313,1,1,1,1,0.979205627,41.9758706,-92.24318881,2017,IAH3
W10004_0216/PHZ51,COH1_2017,N,28.35,641.9836354,8.75,10.5,237,107.25,74,72.75,3.393124943,0,0.001708684,0.360843908,0.891428554,3.560382097,1.42287895,1.565670675,1.770870451,108.5799982,0,0.02904762,12.29476177,1.600476163,43.78523833,56.48285717,21.02523811,53.20285701,22.26802993,25.65694836,25.9931063,24.2875628,21.26982858,19.37652668,19.65631787,15.92591012,11.99136935,20.38624986,26.27857154,29.00990249,30.95750085,32.84396765,29.24597739,27.87075516,24.49812031,17.64004964,4.676250031,9.955714362,11.44166305,13.33492254,15.64190474,14.2894836,11.55992968,8.650869984,2.505724526,7.387813889,11.22152513,12.97827389,14.53136664,16.23032426,14.11586508,12.58015619,10.40568176,6.007000116,0.859799101,1,1,1,1,0.978368119,0.882220332,0.653649732,40.64850025,-104.9997825,2017,COH1
PB80/PHZ51,NYH2_2015,N,17.93333333,731.1212129,0.333333333,3.333333333,253,113.3333333,82.33333333,82.33333333,3.814193487,2.822857129,1.806874641,1.427310218,14.28882354,6.323155046,2.553769654,1.263651931,1.70374005,118.2399981,39.5199998,23.5252947,50.99705838,17.86235295,65.18176435,90.43176518,10.71352917,51.74117684,19.21827184,21.58410556,20.44972798,21.8367517,17.34067749,18.34945618,18.49425604,17.55625849,13.84215422,11.26903224,15.86071418,24.70888252,27.12764594,29.5805878,28.55383422,27.75922879,25.11594081,20.73318661,0.676451599,3.065714287,12.68317757,14.19692254,19.48862723,17.66257776,16.12899413,12.03346763,8.797239788,3.458861152,5.522653893,11.65565145,13.2498794,16.56577659,15.18766176,14.16580901,11.53845799,8.731216192,0.261509218,0.568112238,0.971160735,0.994106254,1,0.999864887,0.980226591,0.898542131,42.7324825,-76.65277775,2015,NYH2
CG60/LH162,NCH1_2017,N,16.25,731.1212129,0,2,141,58.5,65,64,5.929354779,4.097142833,0.297958702,3.860588722,6.673809642,5.437090039,2.513672686,1.67758051,4.140460835,183.8099982,28.67999983,4.023333254,115.8195228,10.90952401,51.84571517,65.15761944,9.68857149,128.3542859,16.84796118,19.66078799,22.20077414,19.20396089,15.77249108,20.54839894,18.7994723,19.26606379,16.40835168,26.07000006,23.57857159,28.17011276,29.72614366,31.01404729,30.48814813,32.54721675,31.95695904,30.43138246,13.64064524,11.25142826,15.69757802,18.87536398,22.57674573,19.84793622,22.28039625,21.2748593,20.81350234,12.56442422,10.48784987,14.26665949,16.36044911,18.79940835,17.21144066,19.38557496,18.57336573,17.65269876,0.998329492,1,1,1,1,1,1,1,35.29663725,-77.5668065,2017,NCH1
B73/DK3IIH6,MIH1_2016,Y,13.6,702.1595451,0,4,236,129.5,61.5,61.5,3.213870927,0.372000003,1.277668238,2.072144594,0.204761899,2.382636341,6.277866916,3.129595251,4.115734243,99.62999874,1.860000014,16.77857134,74.4033328,0.614285696,24.34142835,217.3680916,23.88571438,123.5814282,20.04481233,22.69628944,22.57460654,21.19066928,19.62511718,19.41470496,17.43536011,14.16523572,12.41239439,17.74322581,29.20999985,25.57947765,28.1508514,27.23547651,30.32783564,28.27294529,26.6388532,22.50219404,5.299677434,16.33600006,11.90361174,14.70447611,15.74579377,17.52671,16.25511672,15.58650841,10.86825081,6.615827776,14.89908974,11.62365975,13.82943527,13.70908531,16.01583991,14.48649579,13.48265,10.09129455,0.734400922,1,1,1,1,0.999987733,0.99326559,0.936590208,42.41206675,-84.2952625,2016,MIH1
TX777/LH195,ARH1_2018,N,28.7,812.2138826,0,2,179.5,100.5,69,66.5,6.807499945,4.709999936,2.627776375,4.735912158,3.619166647,6.960178526,4.330437569,0.796285741,3.374677434,217.8399982,32.96999955,35.48928591,145.2942843,5.831428528,62.51428531,109.7978577,4.003571561,104.6150005,17.99706709,21.70226043,20.05949982,19.52680112,21.59397623,17.99264813,18.0574776,19.33215022,18.30424355,21.07062507,24.31857109,24.02168934,29.45279857,31.73095224,30.70692423,32.5717108,33.29521443,31.83741963,10.26718749,12.03571429,12.70205088,18.67412083,19.99154783,20.64677572,22.90335213,23.23585706,21.28834102,9.223277534,11.01036775,11.27832322,16.11267445,17.86206546,17.6775748,19.72770382,20.19469271,18.54368809,0.945725441,1,1,1,1,1,1,1,34.729679,-90.7603455,2018,ARH1
PHW52/PHM49,MOH2_2015,N,15.15,731.1212129,0,1.5,182.5,65,75.5,72,3.914838722,3.534545422,2.891676029,5.446623968,2.505882375,1.1137255,5.068586465,0.980448186,4.011119538,121.3600004,38.87999964,35.23176398,173.6929392,5.011764751,10.0235295,148.9223525,6.487058864,124.3447057,19.08701148,18.12534948,17.16717858,21.59629129,16.88945411,20.34516158,18.32895435,19.90608894,16.95494386,18.756129,18.24727275,23.87322904,29.02836507,30.59176479,31.93248319,30.27285599,28.73220747,28.34062618,6.152580692,8.059091026,15.30129973,17.80114352,21.94705907,21.39261428,20.17023127,17.40519331,17.20941189,7.288196993,7.58478923,12.05891064,15.51775091,18.26941193,18.66254873,17.2518739,15.21359182,14.97078901,0.75554147,0.814935086,1,1,1,1,1,1,38.89807917,-92.2079,2015,MOH2
PHN11_PHG47_0251/PHB47,INH1_2016,N,16.05,712.457027,3,2,249,120.5,62.5,61.5,3.034516148,1.382857186,3.106568823,3.966270256,3.500454469,6.752636371,3.451172643,3.198528118,3.024422797,94.07000059,9.680000305,31.26000059,138.8759105,3.500454469,67.52636371,113.8927274,21.6654544,92.62590972,17.63328649,23.97511796,20.66441577,20.1236558,19.9706746,19.39149484,18.14527656,15.98533716,14.62820237,18.74516109,26.31142807,27.84898846,28.12893417,28.20272714,29.14504538,29.16779001,27.95564941,27.07739093,7.950322636,11.69428553,16.31817922,16.10606538,16.8522731,18.34872752,18.58889605,17.50284626,15.03841012,7.677100472,11.91689015,14.24288378,14.4184555,14.68521604,15.7994256,15.9329094,14.92238151,13.51734692,0.852649763,1,1,1,1,1,1,0.996102814,40.4787595,-86.98982,2016,INH1
B37/OH43,OHH1_2020,Y,23.35,668.0491364,0,0.5,229,110,57.5,55.5,4.175312527,1.24000001,2.003453903,2.609830299,3.238461531,4.458868342,3.000365612,1.621237519,2.44580479,133.6100008,6.200000048,24.41307693,78.60461595,5.612307695,46.13538504,105.0992289,18.40384625,73.98230748,19.06994028,20.34349766,22.26062964,20.30125672,18.94980258,17.72364635,17.47781057,14.69815231,13.31876726,20.75593752,29.31000023,26.9862925,30.26951119,31.92230738,29.63458284,27.3548547,24.45496262,20.91339716,9.301875014,17.61400032,14.18652547,18.22082699,19.47423084,18.74255468,15.66305293,13.07056974,8.164555027,9.098127154,15.53923951,13.05396234,16.29356655,17.69826911,16.21360084,13.84725457,11.75523116,8.713632263,0.810993302,1,1,1,1,0.998602591,0.941606618,0.857376019,39.85643475,-83.67288725,2020,OHH1
F42/OH43,NCH1_2017,N,15.85,731.1212129,0,3.5,230,107.5,65,64,5.929354779,4.097142833,0.297958702,3.860588722,6.673809642,5.437090039,2.513672686,1.67758051,4.140460835,183.8099982,28.67999983,4.023333254,115.8195228,10.90952401,51.84571517,65.15761944,9.68857149,128.3542859,16.84796118,19.66078799,22.20077414,19.20396089,15.77249108,20.54839894,18.7994723,19.26606379,16.40835168,26.07000006,23.57857159,28.17011276,29.72614366,31.01404729,30.48814813,32.54721675,31.95695904,30.43138246,13.64064524,11.25142826,15.69757802,18.87536398,22.57674573,19.84793622,22.28039625,21.2748593,20.81350234,12.56442422,10.48784987,14.26665949,16.36044911,18.79940835,17.21144066,19.38557496,18.57336573,17.65269876,0.998329492,1,1,1,1,1,1,1,35.29663725,-77.5668065,2017,NCH1
CG60/LH162,SDH1_2015,N,6.3,339.1733091,0,2,133,65,66.5,66.5,1.890000034,2.68444448,2.847212523,0.928406021,1.08916667,1.213193166,1.12388612,3.994558873,0.570569385,58.59000105,24.16000032,33.86000057,31.14874977,1.720000006,12.77624983,39.02562428,27.90249949,17.65812508,21.16446504,23.3864585,24.03054242,23.94878495,21.74335716,21.42490048,20.60212775,16.27746828,15.18579983,19.04290341,22.5888888,27.20826416,30.46229654,29.54760476,31.86073879,31.47770382,29.48664523,24.89733582,4.208709664,8.468888919,11.69082143,14.25969647,14.29062517,16.06534098,14.02269822,14.11578116,6.942900096,6.807516906,9.210660666,12.27390437,14.67606113,14.18888263,15.81431879,15.00552731,14.17539039,9.834808296,0.77025346,0.983690483,1,1,1,0.983472358,0.961069402,0.950039755,44.208745,-102.928745,2015,SDH1
F42/H95,IAH2_2017,Y,17.7,731.1212129,0,2,229,110,65,64,2.991935476,4.003749907,5.594154361,1.824159742,2.965909053,1.138616173,3.544395797,5.525860929,3.224964342,92.74999976,32.02999926,86.83999968,64.74363607,5.880909015,11.03545466,133.6850016,39.36636487,98.02272796,18.91811151,22.03083944,18.39067038,21.91300981,21.59707026,21.00058551,18.76246256,16.50136756,14.56336975,16.70258062,25.25375009,21.16444029,28.78792803,31.34295403,31.03890899,27.79230679,26.54138994,25.01808603,3.836129038,9.060000002,9.836484062,14.72352594,17.1804546,18.00485339,15.61890002,13.9478747,12.25710857,5.884356407,10.52058178,9.325556586,14.19611432,16.29393371,16.57150033,14.05801276,12.73803514,11.57992501,0.659274195,1,0.882113053,1,1,1,1,0.976890029,42.06582876,-94.72050129,2017,IAH2
W10001_0022/PHB47,ONH2_2017,N,19.65,816.7190309,0,1.5,224.5,104,53.5,51,3.566774253,5.816000056,0.640467161,2.602850346,0.276190468,0.553043346,1.774150425,1.832219351,2.40528059,110.5700018,58.16000056,8.999047586,96.02571482,0.552380936,6.918571438,78.70857161,24.06619065,72.98142847,18.8542372,16.74867072,24.21291039,19.37094181,21.19715784,20.84705237,17.61151759,14.253685,9.927824707,15.7532257,18.68899984,23.40262829,26.34974997,26.59380949,26.86065013,24.57225317,22.91748616,20.00596815,5.764838726,10.96000004,12.03359118,16.18007827,16.63301581,15.91920336,13.14574071,11.27177775,10.10650586,6.141928302,8.38660306,10.68394655,13.52521671,13.7753985,13.64998718,11.58821465,10.41552723,9.107414304,0.598502303,0.966571423,1,1,1,0.999084662,0.956230826,0.8300025,42.45293025,-81.8827315,2017,ONH2
B14A/H95,WIH1_2020,N,21.75,695.7236189,0,0,256.5,117.5,78.5,77,1.598387111,6.507143004,4.413520471,5.455426438,9.576153682,6.848251811,1.847198819,1.302442385,3.233674973,49.55000043,91.10000205,54.05307698,191.9769218,14.76999958,75.33076992,75.52923148,17.19923096,99.29769339,20.3303612,17.70938441,19.63774696,21.71928057,19.47191414,18.08778093,19.52506722,17.02277317,12.74244368,13.80935484,15.78214281,24.71870171,28.0331271,31.3961547,28.17125902,26.95535567,26.2427393,20.06715065,1.332903252,5.150000061,13.25869882,14.90724568,18.80923077,17.63741262,14.66820073,13.00544381,8.429758508,4.404075426,5.920121855,11.73838603,13.88054584,17.12955683,14.95247276,13.30208011,12.63591888,8.588509069,0.46481566,0.623010193,1,1,1,0.987099279,0.934776512,0.808464704,43.05505505,-89.52853825,2020,WIH1
B73/PHZ51,NEH3_2015,N,21,721.4673236,0,1,229,110,65,63,3.231250057,0.918000031,0.565093977,1.286692195,3.19749999,1.391136354,0.258061221,1.474667183,0.155891338,103.4000018,4.590000153,6.150000095,39.04749978,4.720000029,15.30249989,11.17999983,14.52874985,4.648125023,21.79127574,25.69442635,22.86725485,21.82271665,15.26317632,20.59079,20.06412842,16.27968968,13.53861776,24.28750017,32.64599991,30.58771447,32.67731329,28.91593772,29.87238656,30.80707127,25.39031645,21.32018275,9.278749934,13.0079998,13.8828633,15.7826582,17.05531204,14.62710229,13.18313307,8.87540479,3.334017086,10.46257825,15.28330691,14.45465852,16.22005678,15.0938879,14.496454,14.53020136,10.90039565,7.851747396,0.909587052,1,1,1,1,0.965712824,0.862507779,0.80953931,41.15824525,-101.9872958,2015,NEH3
F42/OH43,WIH1_2018,Y,19.718,780.2144577,0,2,252.2,108.8,66.6,65,1.609999989,7.097692302,4.543300024,5.384655594,12.90857152,6.684415526,1.835393967,1.490247701,3.282350194,49.90999967,92.26999992,56.1414287,188.537143,17.774286,73.52857079,76.14071582,18.50214262,100.642856,20.21844376,17.61529163,19.67186989,21.74517717,19.19342093,18.08513378,19.62003162,16.98075827,12.74863056,13.31193533,16.25923072,24.73561688,28.00164855,31.39095186,28.11097395,26.99453296,26.15077082,19.9357303,1.183225821,5.521538512,13.28283365,14.89542408,18.89249983,17.62870117,14.61713968,12.9208708,8.385953947,4.208379921,6.163069931,11.75441076,13.86262536,17.16453014,14.91796624,13.29691021,12.54059059,8.511099252,0.430714275,0.66777473,1,1,1,0.987929958,0.939058758,0.805939432,43.0544,-89.5317,2018,WIH1
PHW52/PHN82,WIH2_2015,Y,39.65,823.7985497,0,0,244.5,124,65,64,3.126774188,2.655000041,4.103605878,5.336067251,1.868823528,3.142847566,3.066358713,6.463272165,3.426278957,96.92999983,15.93000025,53.58117651,186.0694135,5.435882344,36.03705852,132.4747064,52.80117733,103.4994124,19.63646212,20.57311455,21.5892617,21.07111177,18.36300238,19.20517036,18.54583572,13.68038168,11.37476292,15.6409678,24.97666677,26.11823115,28.09529077,27.51588227,27.91298604,26.4469062,23.95331443,17.63645543,3.355806466,13.62666686,13.88922494,15.17788174,17.2276475,16.92946091,13.73434519,12.63733902,6.343913375,5.370860554,11.93138906,12.65256426,14.04290221,14.43586033,14.57588984,12.76646014,11.49482956,7.023163717,0.588214292,1,1,1,1,0.979783322,0.914260835,0.715230077,43.3264485,-89.33359975,2015,WIH2
PHW52/PHN82,GAH2_2020,N,15.575,728.8686387,1.25,22.75,231,106.5,61.25,60,4.57387094,0.441111114,8.353941854,2.596292498,5.733571683,2.103095203,2.179001438,2.485142878,3.918548365,141.7899991,3.970000029,91.39071568,80.77428585,11.41500051,18.92785683,57.71499962,12.42571439,121.4749993,20.66171874,23.27184486,17.58943298,19.5164109,18.75300796,20.35385684,20.26001561,17.11426864,16.01109332,24.32935487,22.81222216,27.25049476,29.76903398,31.23452386,32.73428517,34.13891635,33.4245718,31.64458511,9.683548431,7.437777784,15.07002369,18.41195949,20.46821458,20.95039675,21.2406723,21.91714281,20.83905522,10.34437265,8.95024402,13.55540875,16.15181668,17.85136922,18.84234096,19.40061188,19.58004094,18.23728962,0.993479262,1,1,1,1,1,1,1,33.72355555,-83.30265185,2020,GAH2
TX714/TX779,NCH1_2019,N,13.575,799.6638266,0,0,205,94.0625,60.25,60,2.191129027,0,0.107342031,4.775073233,0.466011907,4.533660718,6.24100048,2.370892844,2.941295675,67.92499983,0,1.347142833,143.4146411,0.94178571,36.26928575,165.0100003,13.54249993,91.02821354,18.69452832,25.30126673,21.77382428,19.07893176,22.56876209,20.7892765,19.22903807,18.96679552,16.71087377,25.69580629,28.76666609,32.29891346,30.08294473,33.3002377,33.83080339,32.75741781,32.04927549,30.79691829,13.34274195,12.19133326,19.06280588,18.61089734,20.56851188,21.23558053,21.08131414,19.9046464,19.77832645,12.18436683,13.33597385,17.64216348,16.39126772,18.88342746,19.44075481,18.8247811,17.98080212,17.31161093,1,1,1,1,1,1,1,1,35.67010175,-78.510504,2019,NCH1
LH198/PHZ51,INH1_2016,N,17.775,744.6366578,0.75,11.5,286,145.25,62.25,62.5,3.034516148,1.382857186,3.106568823,3.966270256,3.500454469,6.752636371,3.451172643,3.198528118,3.024422797,94.07000059,9.680000305,31.26000059,138.8759105,3.500454469,67.52636371,113.8927274,21.6654544,92.62590972,17.63328649,23.97511796,20.66441577,20.1236558,19.9706746,19.39149484,18.14527656,15.98533716,14.62820237,18.74516109,26.31142807,27.84898846,28.12893417,28.20272714,29.14504538,29.16779001,27.95564941,27.07739093,7.950322636,11.69428553,16.31817922,16.10606538,16.8522731,18.34872752,18.58889605,17.50284626,15.03841012,7.677100472,11.91689015,14.24288378,14.4184555,14.68521604,15.7994256,15.9329094,14.92238151,13.51734692,0.852649763,1,1,1,1,1,1,0.996102814,40.4787595,-86.98982,2016,INH1
B37/MO17,DEH1_2016,Y,22.05,706.6646934,11,3,270,134.5,76,75.5,2.701875035,7.431818214,3.891344367,3.01543569,5.358105985,2.453055546,7.028031294,2.624318106,3.1968602,86.46000111,81.75000036,66.39499953,101.6163622,13.33454524,24.02227264,188.3231781,15.05272682,98.58045408,18.33047433,10.1000462,19.40971708,21.02938559,18.25055452,17.64652011,18.94468483,17.7865103,16.44449792,18.09,16.60090897,19.90208421,27.67646738,27.79681775,28.9030859,31.91379825,31.21812112,30.57169607,5.529687506,9.93090907,10.11289786,16.8589893,18.02106052,19.78800518,21.90881045,21.62957593,20.16127331,6.825577378,7.645605865,8.606637786,14.43603228,14.98401645,16.37610101,18.85541374,18.37748956,17.3477875,0.726328134,0.729318176,0.990929859,1,1,1,1,1,38.6482025,-75.44606,2016,DEH1
CG60/LH162,TXH1_2015,Y,17.7,731.1212129,0,2,188,48,62,61,2.435333351,0.886666695,4.529386736,2.992210444,0,5.407499953,3.236240411,4.528416659,2.205666663,73.06000052,5.320000172,54.16999972,113.7899998,0,59.48249948,89.11249819,24.54499996,66.1699999,13.38128519,15.80308406,13.73749678,19.48289484,22.46598899,19.96463979,19.54848583,19.57031498,18.03135075,19.61999995,26.26833312,25.8489028,26.4780255,30.37177098,28.79539756,31.9014052,33.48070828,34.35516661,6.122333375,12.74499997,15.39155332,13.69439061,15.83385423,15.9580683,20.41172374,21.45270844,23.93220836,7.516768444,12.28221354,13.06030889,12.7550996,15.35592881,14.67426974,18.11040569,19.30603111,20.37775841,0.822428569,1,0.992325397,0.994092815,1,1,1,0.999431249,30.54708625,-96.43393475,2015,TXH1
LH74/PHN82,TXH3_2019,N,11.005,796.748352,0,0,185,62.5,69.5,69.5,1.71448275,0.072857141,3.656594302,9.095434564,0.409285716,1.207678571,5.355850783,1.246142852,1.574419343,49.71999974,0.50999999,52.00785631,328.2121388,0.592857139,9.661428571,146.4478573,6.531428533,47.51499965,15.42805705,20.52131135,18.76898834,18.57032559,21.42349659,18.85281525,20.14881361,21.03072751,19.84089234,18.45000007,25.76428577,24.43254944,27.27586732,31.09000002,32.37866099,32.72435205,34.04471448,34.98200776,6.826206914,10.35000004,10.67963154,14.78766739,18.65857179,21.85071427,21.02442735,21.79614282,22.6049739,7.457816468,11.1589152,10.85119479,13.46630403,16.91193677,19.11412105,18.84765314,19.77807102,20.01419559,0.749667494,1,0.945308164,1,1,1,1,0.999698925,30.546318,-96.4329965,2019,TXH3
CG44/CGR01,TXH3_2020,N,9.5575,2312.106476,0,2,207.01,71.12,50.25,49.75,3.45875001,5.345714297,0.996479651,4.090893152,11.37176514,0.055555557,3.334418123,0.880352915,2.226110039,110.6800003,37.42000008,12.08058808,124.9758839,22.74353027,0.450000013,88.32823513,3.714117541,69.00941121,15.8034201,18.34009743,21.30541133,19.40762275,20.16580067,20.62125497,19.02899565,16.94703156,18.75160362,25.77062485,24.00285694,27.63577502,29.95402965,30.19186265,32.38063702,33.36328143,35.03835301,35.63206825,14.19906271,12.24428552,13.92062761,17.60156859,18.33921522,21.14142164,21.88591696,25.71364726,24.34760913,12.60372436,11.20425028,13.29865333,15.96364287,16.27361839,18.69618421,19.4144726,21.47019646,20.81901077,0.989866069,1,1,1,1,0.99995416,0.999321567,0.998827006,30.53869475,-96.4274175,2020,TXH3
PHB47/PHZ51,OHH1_2017,N,15.975,744.9584541,0,2,229,110,65,64,4.401935447,12.29571451,4.299880116,6.252045262,18.36299991,4.892395558,3.195317293,3.431958172,3.794688752,136.4599988,86.0700016,53.63949916,223.8204996,40.86499989,50.26800107,124.097,30.99400014,115.4320013,19.0647902,19.03427505,21.00226491,20.15032754,19.69555429,18.89580098,18.69837911,16.0400155,13.85510684,20.47903239,25.43142836,25.24002704,27.25803818,28.09541678,28.73270468,26.30456447,24.69395371,24.25720733,8.011935501,13.44999967,12.59882409,15.91673102,16.75358336,18.39824095,14.97688189,13.11535887,11.81284403,8.407228033,12.106522,11.63721293,13.8931373,14.6377479,15.63224373,13.07252875,11.66012039,11.13333271,0.85352535,1,1,1,1,0.996926048,1,0.96495674,39.855785,-83.66477375,2017,OHH1
PHN11_PHW65_0323/LH195,NYH2_2017,Y,19.75,698.941582,0.5,7,251,117,77,76.5,4.985806354,2.593333337,3.453715005,5.89688957,0.948070192,3.208418109,2.379655727,2.694333021,3.397972982,154.559997,23.34000003,55.2357889,222.9889478,1.763157895,41.81263091,117.7794744,23.637895,104.1910535,18.91896409,18.22902181,21.62310913,19.28169434,21.2024166,18.91678159,16.97406986,13.88043676,9.439494818,16.54903238,19.80111122,22.34881997,25.65461899,27.16105275,25.3148988,23.28803047,24.25146582,18.24460841,5.239677404,10.2422222,10.55939387,15.21770316,15.87359667,14.84504335,11.5614249,11.15398494,7.352427253,6.267898103,8.570747831,9.793885142,12.80097944,13.68904673,12.46138399,10.55155578,10.87663924,7.688896934,0.638917053,1,1,1,1,0.981507475,0.966916282,0.722284214,42.73248125,-76.65275025,2017,NYH2
B14A/MO17,NCH1_2018,Y,17.7,731.1212129,0.25,2,166.75,79.5,62.5,58.5,4.157741868,0,6.852651043,4.101575565,0.281428576,2.753968325,7.265916583,9.606714405,8.963617552,128.8899979,0,78.76714403,125.545715,0.410714286,22.4842863,196.6735732,49.18571489,277.8721441,19.15814344,24.86455965,15.13897653,19.38558293,23.18458939,19.6068393,18.38664919,15.55735787,15.52161696,22.42709686,23.6650002,25.05504787,28.99162569,32.21999972,32.77589287,33.41271207,32.57228504,30.53730396,9.272903273,8.262500107,16.63082339,19.21430847,20.43714251,21.48106165,22.41052549,22.8214047,21.52269578,9.383610038,9.710722454,13.07063738,16.1524193,18.32857112,19.12847726,19.83450897,19.67052049,18.05632483,0.990449307,1,1,1,1,1,1,1,35.6667825,-78.492372,2018,NCH1
PHB47/PHZ51,NYH2_2015,N,15.7,731.1212129,1,1.5,240.5,112.5,81.5,81.5,3.814193487,2.822857129,1.806874641,1.427310218,14.28882354,6.323155046,2.553769654,1.263651931,1.70374005,118.2399981,39.5199998,23.5252947,50.99705838,17.86235295,65.18176435,90.43176518,10.71352917,51.74117684,19.21827184,21.58410556,20.44972798,21.8367517,17.34067749,18.34945618,18.49425604,17.55625849,13.84215422,11.26903224,15.86071418,24.70888252,27.12764594,29.5805878,28.55383422,27.75922879,25.11594081,20.73318661,0.676451599,3.065714287,12.68317757,14.19692254,19.48862723,17.66257776,16.12899413,12.03346763,8.797239788,3.458861152,5.522653893,11.65565145,13.2498794,16.56577659,15.18766176,14.16580901,11.53845799,8.731216192,0.261509218,0.568112238,0.971160735,0.994106254,1,0.999864887,0.980226591,0.898542131,42.7324825,-76.65277775,2015,NYH2
PHW52/PHM49,IAH1_2017,Y,17.7,731.1212129,0,2,229,110,65,64,3.40562493,4.965384584,4.756276119,1.833606587,3.814090996,2.221484887,3.670808328,1.81325484,2.347473118,108.9799978,64.54999959,71.28272616,63.78727258,4.177727374,22.83863677,118.9068186,13.7622725,72.03681816,16.19865167,17.41178014,18.84198651,22.07722619,19.57094626,20.6423577,19.65334879,19.12382584,16.87809105,17.11343735,15.37846162,22.95951679,28.09807267,26.50742381,30.27960591,29.79948923,26.92834941,26.37674051,5.413125027,4.923076978,11.46549016,14.16962528,11.61757578,16.65775237,16.66504091,13.38757222,12.41510662,6.530778339,5.768563812,10.45370215,13.71965113,11.94783378,15.64262598,15.39964617,12.71239892,12.1737806,0.629988832,0.555054952,0.946458762,1,1,1,1,0.998130952,41.19924609,-91.49402296,2017,IAH1
PHG29/PHG47,ONH2_2016,Y,17.5,741.4186947,0,2,221,115.5,68,65,1.435483875,1.740833327,1.463802716,3.022687524,0.150999999,1.134659085,3.046446673,1.693503778,2.765116665,44.50000012,20.88999993,18.84600039,117.1590009,0.150999999,12.25349994,101.0444998,13.16149993,84.26899996,19.72563927,22.19747464,21.68954048,21.77365896,18.98664827,19.92678304,16.69906166,15.68152671,12.9072029,14.10741935,17.58083336,26.00758685,26.04894451,27.78099985,28.79287246,28.2480382,25.9224786,23.75348014,4.257419363,7.13166666,15.03828811,14.1477789,17.72699971,17.33924119,18.24672102,15.95494667,14.17526013,5.131346137,6.986841243,12.85116395,12.65171997,14.84296497,15.26027205,15.31782021,13.26534606,11.67621189,0.511244241,0.799851209,1,1,1,1,1,0.975829282,42.4530035,-81.88279875,2016,ONH2
PHN11_PHW65_0323/LH195,ILH1_2016,Y,15.75,718.8929531,1.5,1.5,252.5,121,74,72,2.976905237,4.388409027,2.266536067,5.61207631,2.384848472,3.596551307,3.312350719,4.357499975,4.793790319,93.71999985,46.35499933,33.46068128,180.4177266,4.628863606,41.73386359,104.1413657,28.32431801,148.2020453,18.82488241,16.77241452,21.32061235,20.18653607,20.74234538,18.07981042,18.8666989,17.85818253,16.07680721,18.05081144,19.20204525,23.0422997,29.42292662,27.90308728,26.97317812,29.60218573,29.15938829,28.17592877,4.960040295,8.531272602,10.4507586,17.10049505,15.99717794,16.84881478,19.41054858,18.84383108,17.09740687,6.781235125,7.969267807,10.17119166,15.41614171,14.29579798,14.15384892,16.51995977,16.04951253,14.84458937,0.666766271,0.897956159,0.946860721,1,1,1,1,0.999883117,40.0607245,-88.2338815,2016,ILH1
PHW52/PHN82,MOH1_1_2020,N,15.33333333,731.1212129,0,0.333333333,226.6666667,79.66666667,58,55.66666667,2.765624954,8.119999743,10.49656654,1.909885915,5.802857127,7.415295831,3.691475556,2.293301892,3.400930865,88.49999854,40.59999871,96.7978566,57.0957143,7.737142835,67.39857156,118.848571,17.52928566,104.715714,18.75466287,21.25211372,22.49923535,20.31658939,20.84622072,17.68630925,18.12476098,17.46293798,14.64158327,22.18656257,30.76999931,28.86546125,30.72469998,30.62226157,31.26253243,28.67352632,29.54480095,24.35225034,12.23093753,19.21800041,17.35636515,20.03188031,19.40511944,21.45309498,18.10676495,17.58972003,12.9136675,10.41798935,16.99399986,15.213465,17.3995364,17.01369051,18.36589209,15.51205264,15.80164337,11.56818364,0.936383936,1,1,1,1,1,0.995985623,0.962870504,38.8978375,-92.2070925,2020,MOH1
F42/H95,KSH1_2018,N,16.2,779.0688628,30,2,229,110,65,64,0.123225804,1.309000027,2.835063753,1.245921432,6.190769489,0.847777789,5.121826591,3.691923017,0.576771715,3.819999933,13.09000027,33.35999966,37.39923182,6.190769489,7.630000105,140.8584615,22.1515381,17.82230777,23.1370286,19.20606413,23.76917973,25.01946837,21.72317813,23.99633906,18.76579115,18.12170014,19.24157322,22.75709664,20.771,27.08892973,34.13484851,36.79923102,35.27700868,33.17677556,30.51957897,31.48973893,3.915806478,6.778999925,10.75682887,16.60383588,18.26846137,18.37008543,18.87125761,16.15291204,15.043086,8.255034949,8.267600828,11.90551203,16.73972083,17.84021903,17.73256873,17.54545708,15.43757555,15.43621363,0.847615199,0.789999991,1,1,1,1,1,0.970122947,37.810107,-100.775188,2018,KSH1
LH212HT/LH195,NEH4_2015,N,14.7,793.5496967,0,2,260,130,65,59,2.821875036,0,3.668207424,2.0125769,1.951249957,2.654893884,1.684158262,0.190010425,1.166079967,90.30000114,0,33.89000034,59.04687595,1.951249957,28.04999942,59.1787506,1.401875056,35.09749981,18.84220009,27.31064491,20.41342533,20.52862815,19.03072298,18.81303122,18.33826559,17.15407273,12.68489203,24.01437524,30.79399948,29.66091772,30.90712841,30.81250072,28.65153035,29.50292414,26.73776808,20.93262179,13.35843744,15.59799976,18.4981335,19.26878801,20.26031268,17.34358901,16.24316685,11.04417556,7.09840123,11.80342709,15.44887437,16.14310254,17.09436255,17.53736601,15.18702607,15.25106182,11.88303257,8.618375536,0.931774556,1,1,1,1,0.97284651,0.984144349,0.784438609,41.16732275,-96.41663225,2015,NEH4
F42/OH43,IAH3_2017,Y,17.7,731.1212129,0,2,229,110,65,64,4.153750014,4.476666673,3.404720357,2.207347727,0.783636364,2.628276904,1.892687593,2.328876272,1.794257086,132.9200004,67.1500001,54.03954627,78.33863542,1.567272728,28.02681865,71.85545488,19.05045461,54.69545453,16.14493189,17.75127989,18.89303832,22.07985964,20.54923199,20.99384486,19.81852315,17.22919489,15.64326955,15.84312499,15.5066665,21.42652578,27.714982,28.45522753,29.90074383,27.6545798,25.64720852,25.13760955,4.41906251,4.141333344,9.782295063,13.56526933,16.05901469,16.6123348,14.8096002,12.74600627,11.28191352,5.818880471,5.62230391,9.387130072,13.2881535,14.4256186,15.3843105,13.65871261,11.89796048,11.29223634,0.568604913,0.570380948,0.879734313,1,1,1,1,0.979205627,41.9758706,-92.24318881,2017,IAH3
PHN11_PHG47_0251/PHB47,ONH2_2015,Y,17.7,763.3008437,0,0,275,142,76,76,1.876451608,4.282666683,1.928005431,1.58261263,10.80264742,1.923208582,3.114388399,4.294901914,2.356388962,58.16999984,64.24000025,23.61999965,57.22470651,21.60529484,21.1552944,115.5017658,31.56294079,72.1164696,18.95380112,18.76709785,21.17743809,22.45418875,20.04103015,18.4543581,18.45373918,15.80078253,13.34539525,11.17387095,14.38466663,23.91200153,26.61279381,30.15176526,27.65053462,26.77986929,25.87464046,20.7920557,2.006774224,5.636000033,13.64950245,15.64688346,19.32647026,18.51812829,16.74694623,15.4972221,11.03054456,3.742938436,5.617129505,11.53065914,13.52353119,16.78542678,15.13421866,13.95153495,13.1846932,9.37660249,0.276970043,0.589690475,0.985132406,1,1,1,0.993019959,0.931831119,42.45408625,-81.8816065,2015,ONH2
LH195/PHZ51,MIH1_2020,Y,26.11,683.4953592,0,3.5,253.5,131,62.5,63.5,4.984838709,2.447142908,2.78018427,2.64718347,5.506875038,1.476884461,2.688717092,6.006552647,2.65185957,154.53,17.13000035,30.43499947,89.07562375,6.053750038,16.17374991,112.2143753,49.72375022,79.8756258,20.40588462,19.28742858,24.32683064,21.06964646,18.47526628,19.40802789,18.05267967,13.18055513,11.8632568,17.75483874,24.12857165,28.18736501,29.25734834,30.47187495,29.12451894,27.19720882,23.65947149,18.53645566,5.91032262,13.18571418,13.36449351,15.87753885,17.57625037,17.40439215,14.2199518,12.09430501,6.603961046,6.886871568,11.64218502,13.33305563,14.86544572,16.04104967,15.33737973,13.2580117,11.17810785,7.349100415,0.70564517,0.993469382,1,1,1,0.990981538,0.929873564,0.775463757,42.7085775,-84.4705825,2020,MIH1
PHW52/PHN82,NEH2_2018,Y,15.35,764.5880289,0,2,280,101,65,64,1.223548393,0.707272736,4.763911635,2.422660693,9.359230876,1.187769238,2.22139935,1.060615372,2.655643509,37.93000019,7.780000091,61.58923048,72.52538565,18.71846175,11.03461544,72.02230704,6.795384554,82.07230774,19.8632896,17.86074517,17.24350838,22.63499015,18.62862352,21.21286184,19.62237806,18.45252819,16.56870138,17.6919355,17.47909086,23.04657186,30.81178887,30.82346183,31.15499996,29.41523597,30.138927,26.57117624,3.026129,6.979090886,13.86801705,18.31582591,19.94076905,19.05673485,17.52505525,17.69200753,12.69636803,6.275299993,6.965919572,11.10889174,16.66188215,17.38211544,17.1119836,15.61857368,16.09025205,12.68735507,0.68033411,0.762240243,1,1,1,0.996687975,0.997695055,0.910447978,41.38042275,-96.55988375,2018,NEH2
B73/PHM49,NYH2_2015,N,20.1,731.1212129,0,14.5,227,112.5,83,83,3.814193487,2.822857129,1.806874641,1.427310218,14.28882354,6.323155046,2.553769654,1.263651931,1.70374005,118.2399981,39.5199998,23.5252947,50.99705838,17.86235295,65.18176435,90.43176518,10.71352917,51.74117684,19.21827184,21.58410556,20.44972798,21.8367517,17.34067749,18.34945618,18.49425604,17.55625849,13.84215422,11.26903224,15.86071418,24.70888252,27.12764594,29.5805878,28.55383422,27.75922879,25.11594081,20.73318661,0.676451599,3.065714287,12.68317757,14.19692254,19.48862723,17.66257776,16.12899413,12.03346763,8.797239788,3.458861152,5.522653893,11.65565145,13.2498794,16.56577659,15.18766176,14.16580901,11.53845799,8.731216192,0.261509218,0.568112238,0.971160735,0.994106254,1,0.999864887,0.980226591,0.898542131,42.7324825,-76.65277775,2015,NYH2
PHG39/PHN82,WIH2_2020,N,26.475,691.0575725,3.5,0,265.875,136.75,74.75,73.25,1.142258063,7.375000167,3.772605813,4.528143625,15.91411821,3.015240613,2.848395651,6.559665308,3.073983535,35.40999997,73.75000167,42.96999988,163.850588,31.01764819,33.16764674,117.7699986,59.84176376,94.45823468,20.73953056,16.04352899,21.23354675,21.58093245,19.01370295,17.88573252,19.32013515,13.57540027,12.27254504,13.56999995,18.91099977,26.0938683,28.2322475,29.46647072,27.75422455,27.09322103,24.80509675,19.00189054,0.762580661,9.396999884,13.99892158,14.99589118,17.7452939,17.49807463,14.22893102,13.29211059,7.459399134,4.176897214,8.107987139,12.68677404,14.02444379,15.66411489,14.70790633,13.20588953,12.26960615,7.833960257,0.443168195,0.881928567,1,1,1,0.990384734,0.880973437,0.780679991,43.294786,-89.383968,2020,WIH2
WF9/H95,OHH1_2015,Y,16.7,765.2316216,0,0.5,255.5,114,64.5,63.5,4.820000016,2.056666652,1.801667061,2.430255425,2.070588264,2.75488235,3.664772063,1.623969288,1.874022108,149.4200005,12.33999991,20.27235275,82.00588303,2.23529414,26.29176468,128.0200007,12.16764697,57.18411674,17.71339239,20.831882,20.85048625,20.93566426,20.28419298,19.59839119,17.66236547,17.23782846,14.83481447,16.95064511,28.03666687,26.64173705,29.01382079,31.07970569,30.59522857,27.99762273,26.69097183,23.34659959,5.9283871,15.42166694,14.66308043,16.74801267,19.23764672,18.74322206,16.69895781,13.90980629,10.26308727,6.580773377,14.04730329,13.19467995,15.08203889,17.16864649,16.69143216,14.53513226,12.92347397,10.29932856,0.672569122,1,1,1,1,1,0.994932126,0.947361455,39.855785,-83.66477375,2015,OHH1
B73/MO17,NYH3_2018,N,21.635,708.531112,1,7,212,103,74,70.5,4.152903213,0.855714253,1.333281551,1.973054112,19.58384622,4.14286014,1.827699262,3.76173812,1.90156246,128.7399996,5.989999771,17.49230713,69.9676929,40.09153858,44.76538462,69.41461665,34.65000019,57.30153882,20.64383799,23.73438372,20.91517994,21.34827616,15.57480097,18.28181198,18.59806785,13.9987834,13.21485935,12.82806446,24.72714315,24.74142799,27.59651287,28.68307664,28.50629367,27.06434367,24.34345721,20.06623908,1.452258048,10.48999977,13.10088293,14.82547593,19.13846159,17.45270631,15.13507682,13.07327349,8.10410419,4.113027627,10.74522894,11.82730489,13.73068126,15.93834835,15.05075648,13.50240047,11.64767513,8.352187515,0.351670502,1,0.973040659,0.995029228,1,0.992439429,0.946636381,0.843044516,42.7261605,-76.6556765,2018,NYH3
W10001_0022/PHB47,ARH2_2016,N,14,731.1212129,0,2,194.5,93.5,60.5,58.5,5.780937422,12.26500018,3.712120208,7.0222886,1.105000019,0.295568184,1.931287914,1.454696927,6.280835692,184.9899975,73.59000111,50.67409075,233.2059098,2.210000038,2.364545475,51.29727264,7.656817956,194.7059064,17.76457119,17.22719622,20.14058537,19.80644481,18.88262117,19.79738723,18.69440654,19.88854878,15.60714355,21.02781257,25.69833342,24.88224707,27.55747889,33.1628785,33.38017045,32.40728063,33.71248445,31.37684753,8.517187547,14.13833332,13.26693003,16.75834882,22.79151535,23.21522755,22.56353312,22.95024234,22.3752492,8.626308124,12.37618007,11.75818796,14.46644855,19.89189903,20.24263088,19.43024202,20.23735303,18.81126952,0.958649555,1,1,1,1,1,1,1,35.838614,-90.66530155,2016,ARH2
B14A/OH43,NEH2_2015,N,14.1,767.1623994,0,0,229,110,96,92,1.358750008,3.755999994,3.031264216,1.286090902,0.286666671,1.657187527,3.751759362,0.157499999,0.616713691,43.48000026,37.55999994,66.29000026,43.49999976,0.860000014,16.57187527,117.6431233,0.944999993,18.99062441,19.53783247,19.98656282,18.8528682,23.65152674,23.21232343,22.7312118,19.62767813,21.61948185,18.20728239,15.03874992,23.15200024,18.66927583,30.14561768,32.37510385,32.60862507,30.36489819,32.31320816,28.31448706,-2.426562488,5.230999994,5.264051067,13.5723423,16.5714581,16.13087479,15.9646131,15.56819047,11.19634675,4.192485347,8.478296732,6.894904354,14.37610508,16.560328,16.47008009,15.3434088,16.05261291,12.83173005,0.519497764,0.97653572,0.809891265,1,1,1,1,0.922021698,41.0514495,-100.7471915,2015,NEH2
W10001_0022/PHB47,DEH1_2016,N,18.85,725.9724719,0,4,243.5,122.5,75,74.5,2.701875035,7.431818214,3.891344367,3.01543569,5.358105985,2.453055546,7.028031294,2.624318106,3.1968602,86.46000111,81.75000036,66.39499953,101.6163622,13.33454524,24.02227264,188.3231781,15.05272682,98.58045408,18.33047433,10.1000462,19.40971708,21.02938559,18.25055452,17.64652011,18.94468483,17.7865103,16.44449792,18.09,16.60090897,19.90208421,27.67646738,27.79681775,28.9030859,31.91379825,31.21812112,30.57169607,5.529687506,9.93090907,10.11289786,16.8589893,18.02106052,19.78800518,21.90881045,21.62957593,20.16127331,6.825577378,7.645605865,8.606637786,14.43603228,14.98401645,16.37610101,18.85541374,18.37748956,17.3477875,0.726328134,0.729318176,0.990929859,1,1,1,1,1,38.6482025,-75.44606,2016,DEH1
B73/PHN82,GAH2_2018,Y,13.4,761.3700659,0,2,213.5,98.5,55.5,54.5,4.849677459,0.472857135,6.389842835,2.50728713,2.625000003,3.795198411,2.499668454,2.828785729,3.724124467,150.3400012,3.309999943,84.90856965,76.95785742,5.387857173,33.84785713,66.14142865,15.06428581,115.4478585,20.49558812,21.88511535,20.33298503,19.15998772,23.51626716,19.70790798,20.02489003,19.42019064,16.00793598,23.5748387,25.80428559,25.09824669,29.4338755,32.57678595,32.30446448,33.95531338,34.12885699,31.99587548,8.787742034,10.57714278,11.20780819,18.18961495,18.46904782,20.57888879,21.25284753,21.08492862,21.01629033,9.717543295,11.3392147,11.23425566,15.89113211,17.53376954,18.44167663,19.31882395,19.47290933,18.49284767,0.993778801,1,1,1,1,1,1,1,33.71560925,-83.30894675,2018,GAH2
CG119/CG108,OHH1_2017,Y,16.2,742.0622874,0,2,229,110,65,64,4.401935447,12.29571451,4.299880116,6.252045262,18.36299991,4.892395558,3.195317293,3.431958172,3.794688752,136.4599988,86.0700016,53.63949916,223.8204996,40.86499989,50.26800107,124.097,30.99400014,115.4320013,19.0647902,19.03427505,21.00226491,20.15032754,19.69555429,18.89580098,18.69837911,16.0400155,13.85510684,20.47903239,25.43142836,25.24002704,27.25803818,28.09541678,28.73270468,26.30456447,24.69395371,24.25720733,8.011935501,13.44999967,12.59882409,15.91673102,16.75358336,18.39824095,14.97688189,13.11535887,11.81284403,8.407228033,12.106522,11.63721293,13.8931373,14.6377479,15.63224373,13.07252875,11.66012039,11.13333271,0.85352535,1,1,1,1,0.996926048,1,0.96495674,39.855785,-83.66477375,2017,OHH1
B73/DK3IIH6,IAH1_2017,Y,16.75,724.0416941,0,2.5,223.5,107.5,65,64,3.40562493,4.965384584,4.756276119,1.833606587,3.814090996,2.221484887,3.670808328,1.81325484,2.347473118,108.9799978,64.54999959,71.28272616,63.78727258,4.177727374,22.83863677,118.9068186,13.7622725,72.03681816,16.19865167,17.41178014,18.84198651,22.07722619,19.57094626,20.6423577,19.65334879,19.12382584,16.87809105,17.11343735,15.37846162,22.95951679,28.09807267,26.50742381,30.27960591,29.79948923,26.92834941,26.37674051,5.413125027,4.923076978,11.46549016,14.16962528,11.61757578,16.65775237,16.66504091,13.38757222,12.41510662,6.530778339,5.768563812,10.45370215,13.71965113,11.94783378,15.64262598,15.39964617,12.71239892,12.1737806,0.629988832,0.555054952,0.946458762,1,1,1,1,0.998130952,41.19924609,-91.49402296,2017,IAH1
B73/PHZ51,IAH2_2017,N,15.225,755.255936,0,23.75,242,126.75,65,64,2.991935476,4.003749907,5.594154361,1.824159742,2.965909053,1.138616173,3.544395797,5.525860929,3.224964342,92.74999976,32.02999926,86.83999968,64.74363607,5.880909015,11.03545466,133.6850016,39.36636487,98.02272796,18.91811151,22.03083944,18.39067038,21.91300981,21.59707026,21.00058551,18.76246256,16.50136756,14.56336975,16.70258062,25.25375009,21.16444029,28.78792803,31.34295403,31.03890899,27.79230679,26.54138994,25.01808603,3.836129038,9.060000002,9.836484062,14.72352594,17.1804546,18.00485339,15.61890002,13.9478747,12.25710857,5.884356407,10.52058178,9.325556586,14.19611432,16.29393371,16.57150033,14.05801276,12.73803514,11.57992501,0.659274195,1,0.882113053,1,1,1,1,0.976890029,42.06582876,-94.72050129,2017,IAH2
LH74/PHN82,NCH1_2017,N,16.05,731.1212129,0,2,185.5,85.5,65,64,5.929354779,4.097142833,0.297958702,3.860588722,6.673809642,5.437090039,2.513672686,1.67758051,4.140460835,183.8099982,28.67999983,4.023333254,115.8195228,10.90952401,51.84571517,65.15761944,9.68857149,128.3542859,16.84796118,19.66078799,22.20077414,19.20396089,15.77249108,20.54839894,18.7994723,19.26606379,16.40835168,26.07000006,23.57857159,28.17011276,29.72614366,31.01404729,30.48814813,32.54721675,31.95695904,30.43138246,13.64064524,11.25142826,15.69757802,18.87536398,22.57674573,19.84793622,22.28039625,21.2748593,20.81350234,12.56442422,10.48784987,14.26665949,16.36044911,18.79940835,17.21144066,19.38557496,18.57336573,17.65269876,0.998329492,1,1,1,1,1,1,1,35.29663725,-77.5668065,2017,NCH1
F42/MO17,IAH4_2017,N,23.35,704.090323,5,2,234.5,105,72.5,68.5,3.054193612,4.63857133,5.654282844,2.356146022,0.145000003,0.823262634,3.029939984,2.506485397,3.022032747,94.68000197,32.46999931,92.55000019,79.81000018,0.290000005,7.931363713,110.0431818,17.65818187,91.79227275,19.60434628,22.37855189,18.81628808,21.46940114,22.42332305,21.26952374,19.1513695,15.94205759,15.34138578,17.83935482,25.21428544,21.76755785,28.88340452,30.88984893,30.99338411,28.30609907,26.26622464,25.93438806,4.952580655,10.13999993,10.24708413,15.02150207,17.47128796,18.07608078,15.80662465,13.87026602,12.51354651,6.575243948,10.82301274,9.649960621,14.3656457,16.22810104,16.57398155,14.36597852,12.57546566,12.06214068,0.727396317,1,0.910082199,1,1,1,1,0.987168831,41.99455432,-93.69030947,2017,IAH4
F42/H95,ILH1_2018,Y,15.5,769.0931773,0,2,235.5,115,60.5,58.5,4.93870967,7.677000022,2.588106254,5.605117571,0.281428576,3.456349163,4.202656593,1.004543384,2.183824858,153.0999998,76.77000022,33.4678576,176.7721435,0.281428576,32.73642816,135.7042854,6.586428666,67.2342849,18.91812334,19.3164753,20.10278531,22.12028957,18.91592986,20.16297878,19.11980649,19.09856314,16.2127272,15.99580652,18.50399971,25.32625123,29.19453127,30.85535676,31.83740471,28.20358558,28.86124239,26.43877647,3.618387117,7.573000085,14.94700907,16.75211974,20.46500043,20.0205478,17.14982155,16.71822788,13.95248539,5.629456993,7.587936205,12.64486739,15.17263993,17.66017859,17.94105007,14.82889519,14.97382886,12.85823928,0.640783421,0.72660713,1,1,1,1,1,0.984431123,40.06300125,-88.2291765,2018,ILH1
PHN11_PHW65_0323/LH195,MOH1_2017,N,17.9,731.1212129,0.5,1.5,232,106.5,64.5,64,8.937741737,9.40166688,2.512230721,3.318030003,5.035714369,1.794490762,1.996986524,1.220079397,1.67255761,277.0699939,56.41000128,33.26619119,103.9014299,11.93095259,15.87761924,65.30142803,7.334762096,51.25476209,18.72482054,18.08832916,22.62422694,21.00800173,18.77514496,19.93438148,19.70533138,19.36646121,17.34329115,21.92032254,25.32999992,25.47495036,29.30087203,30.46650729,32.25412016,29.92026774,28.22145964,28.04827898,10.06000005,15.27666648,12.99827088,17.39768618,19.78222205,21.21359122,18.70404881,16.33857143,14.9717184,9.612847321,12.76903024,11.94928206,15.49761919,17.12130987,18.67277384,16.20463701,14.48208578,13.92850008,0.915472353,1,1,1,1,1,1,0.999239796,38.89264,-92.2057525,2017,MOH1
B73/MO17,INH1_2020,N,25.21166667,666.3328894,8.5,4.333333333,234.9666667,124.25,69.5,66.83333333,2.63064515,6.092222161,2.380905542,2.638028789,0.629411796,2.977235278,3.349803369,1.095052516,1.575144189,81.54999965,54.82999945,26.35000017,86.90176377,0.755294155,29.77235278,114.9176474,7.60117643,48.41470517,19.12040675,14.46862051,21.68340347,21.75389977,20.24839053,19.66959435,18.78188958,18.00828299,15.45076636,15.20677414,20.6899999,27.1104927,29.42650107,32.0752936,30.36388222,28.15834081,28.66782236,25.41333794,2.934193564,11.51555562,15.17811918,16.46944194,19.37588254,18.23752946,16.66734055,16.5683672,12.52337519,5.193705795,9.337664252,13.54219901,15.16026165,17.73146127,16.3694037,14.61167179,14.83949529,11.90095499,0.576025338,0.994801587,1,1,1,1,1,0.975702381,40.4787965,-86.9895995,2020,INH1
B73/PHM49,GAH1_2017,N,14.1,750.4289914,0,2,175,75,60,59,1.929687474,5.730000019,0.343252103,3.449286585,2.107618968,4.586772466,5.884115127,3.462793619,5.790337869,61.74999917,45.84000015,4.185237975,115.4628578,3.161428452,44.24761888,164.3961923,18.00285697,179.500474,16.80249013,20.13732326,20.17342047,19.27076224,21.20480144,16.6798163,18.15858085,19.37517402,17.73704587,23.5584375,24.76124978,28.73884546,29.02932191,29.79031757,30.11825943,30.88468736,33.04158726,32.39466959,8.654999979,9.073749959,13.81601286,15.94569083,16.85142871,20.07059283,21.0580027,22.24365102,22.03411694,9.935165979,10.3201674,13.6844889,14.81363998,15.5596332,17.10789698,17.95959829,19.61349988,19.1980032,0.8834375,1,1,1,1,1,1,1,31.50794425,-83.55854475,2017,GAH1
B73/PHM49,TXH1-Dry_2018,N,10,726.6160645,0,2,236.5,96.5,73,73,2.442333295,0.87833333,4.91741256,2.91095925,1.112321411,5.987347663,3.094033648,2.445309502,2.573656677,73.26999886,5.269999981,55.2178573,113.3721426,4.449285643,64.36357035,86.72785865,13.67714274,77.357857,13.4988633,14.49154552,13.92485348,19.6618496,19.390827,19.64184359,19.38410293,21.21373351,18.01258323,19.68933331,26.95833333,25.66614373,26.56996845,30.24238085,29.14372996,31.91805433,33.2644762,34.51160554,6.357666679,15.03999996,15.13755815,13.69055459,18.24071415,16.44843436,20.63070323,20.50154739,23.97494014,7.613570572,13.40715604,12.87528071,12.79536137,16.34410207,15.0664779,18.21233438,18.75919739,20.40606275,0.821476194,1,0.991620595,0.99408643,1,1,1,0.999013392,30.546318,-96.4329965,2018,TXH1-Dry
F42/MO17,ARH2_2016,N,12.7,731.1212129,0,2,213,123,65.5,62.5,5.780937422,12.26500018,3.712120208,7.0222886,1.105000019,0.295568184,1.931287914,1.454696927,6.280835692,184.9899975,73.59000111,50.67409075,233.2059098,2.210000038,2.364545475,51.29727264,7.656817956,194.7059064,17.76457119,17.22719622,20.14058537,19.80644481,18.88262117,19.79738723,18.69440654,19.88854878,15.60714355,21.02781257,25.69833342,24.88224707,27.55747889,33.1628785,33.38017045,32.40728063,33.71248445,31.37684753,8.517187547,14.13833332,13.26693003,16.75834882,22.79151535,23.21522755,22.56353312,22.95024234,22.3752492,8.626308124,12.37618007,11.75818796,14.46644855,19.89189903,20.24263088,19.43024202,20.23735303,18.81126952,0.958649555,1,1,1,1,1,1,1,35.838614,-90.66530155,2016,ARH2
B14A/MO17,NYH3_2019,N,25.15,702.8031377,0.5,7.5,195.5,100,65,79,3.722580618,3.873333404,3.769554008,3.757958966,6.56821411,3.88506864,3.604603585,1.929858492,3.709694332,115.3999992,34.86000064,61.04857108,135.2235714,13.13642822,47.6607138,172.5314276,35.27499978,112.0914282,17.9818517,20.79040337,20.53458356,20.20586531,15.56107187,20.47665645,15.7702462,13.42945136,8.802352299,16.21290321,21.91111098,21.5613082,26.8770008,26.27928579,27.19863099,23.33754175,19.77308355,13.39834902,5.322258069,10.30000003,10.31609792,15.50927174,17.62488075,14.92700095,12.00041282,8.027538821,3.378330702,6.134411308,9.414033746,9.318517767,13.52970479,14.11503311,13.40897889,10.69134109,8.327220554,5.109082433,0.665391704,1,0.983452189,1,1,0.970435943,0.837841689,0.510564168,42.7321756,-76.65345463,2019,NYH3
B14A/H95,DEH1_2019,Y,20.5,701.5159525,0,3.75,224.25,105,60.25,58.25,4.885483834,0.129999995,2.22754366,2.838879743,7.092619056,13.09007943,2.376059147,7.246095167,5.291338731,151.4499989,1.169999957,29.41999924,87.75142762,13.32785715,117.8107149,70.17642808,38.82285679,163.7607149,18.09422633,22.52754413,19.09832956,21.10549391,16.87992425,18.38683534,17.43790908,14.47643482,15.18822094,17.49129031,20.55777783,23.08374535,28.61102885,30.70333358,31.53571423,31.96636291,30.10673826,28.44137569,7.04516129,9.184444467,14.30050877,18.34149326,20.74333359,21.70119062,22.68293302,22.03347627,19.57253904,6.992168387,8.735510177,11.41430501,15.6056687,17.71122979,18.59296506,19.259015,18.07354239,16.13042035,0.769815656,0.948412699,0.988507504,1,1,1,1,1,38.670675,-75.433225,2019,DEH1
B73/PHZ51,TXH3_2020,N,11.7,736.2699538,0,2,184.15,60.96,65,64,3.45875001,5.345714297,0.996479651,4.090893152,11.37176514,0.055555557,3.334418123,0.880352915,2.226110039,110.6800003,37.42000008,12.08058808,124.9758839,22.74353027,0.450000013,88.32823513,3.714117541,69.00941121,15.8034201,18.34009743,21.30541133,19.40762275,20.16580067,20.62125497,19.02899565,16.94703156,18.75160362,25.77062485,24.00285694,27.63577502,29.95402965,30.19186265,32.38063702,33.36328143,35.03835301,35.63206825,14.19906271,12.24428552,13.92062761,17.60156859,18.33921522,21.14142164,21.88591696,25.71364726,24.34760913,12.60372436,11.20425028,13.29865333,15.96364287,16.27361839,18.69618421,19.4144726,21.47019646,20.81901077,0.989866069,1,1,1,1,0.99995416,0.999321567,0.998827006,30.53869475,-96.4274175,2020,TXH3
PHN11_PHG47_0251/PHB47,ONH2_2017,N,20.9,870.1372181,0,4.5,232,89.5,37,36,3.566774253,5.816000056,0.640467161,2.602850346,0.276190468,0.553043346,1.774150425,1.832219351,2.40528059,110.5700018,58.16000056,8.999047586,96.02571482,0.552380936,6.918571438,78.70857161,24.06619065,72.98142847,18.8542372,16.74867072,24.21291039,19.37094181,21.19715784,20.84705237,17.61151759,14.253685,9.927824707,15.7532257,18.68899984,23.40262829,26.34974997,26.59380949,26.86065013,24.57225317,22.91748616,20.00596815,5.764838726,10.96000004,12.03359118,16.18007827,16.63301581,15.91920336,13.14574071,11.27177775,10.10650586,6.141928302,8.38660306,10.68394655,13.52521671,13.7753985,13.64998718,11.58821465,10.41552723,9.107414304,0.598502303,0.966571423,1,1,1,0.999084662,0.956230826,0.8300025,42.45293025,-81.8827315,2017,ONH2
TX714/PHZ51,NYS1_2020,Y,16.3,747.8546209,0,0.5,295.5,155,69,69,4.422257993,0,1.465106888,3.112730419,5.226388772,3.791500035,2.252145842,1.205606062,2.258500008,137.0899978,0,18.69000064,111.7083327,11.12166643,40.23500037,81.04333365,12.37166667,67.75500025,20.93932216,21.78258165,21.50902141,20.73125831,19.36904918,18.75308368,18.06102422,15.18229782,12.07034185,14.51129027,27.91833337,23.80048522,27.65661692,28.12555557,28.75518193,26.95460769,22.41267031,19.20822226,2.574516131,15.64333328,11.50500006,15.28648379,16.42583349,17.59142435,15.02631586,10.71009203,7.777611178,4.955392842,14.00347271,10.82536169,13.9247866,14.40689442,15.2259098,13.37336426,9.961154016,7.871549184,0.467914747,1,0.970676975,0.994134504,1,0.998779762,0.945742115,0.836474207,42.7322645,-76.651743,2020,NYS1
TX714/PHZ51,ONH2_2017,Y,17.7,731.1212129,0,2,229,110,65,64,3.566774253,5.816000056,0.640467161,2.602850346,0.276190468,0.553043346,1.774150425,1.832219351,2.40528059,110.5700018,58.16000056,8.999047586,96.02571482,0.552380936,6.918571438,78.70857161,24.06619065,72.98142847,18.8542372,16.74867072,24.21291039,19.37094181,21.19715784,20.84705237,17.61151759,14.253685,9.927824707,15.7532257,18.68899984,23.40262829,26.34974997,26.59380949,26.86065013,24.57225317,22.91748616,20.00596815,5.764838726,10.96000004,12.03359118,16.18007827,16.63301581,15.91920336,13.14574071,11.27177775,10.10650586,6.141928302,8.38660306,10.68394655,13.52521671,13.7753985,13.64998718,11.58821465,10.41552723,9.107414304,0.598502303,0.966571423,1,1,1,0.999084662,0.956230826,0.8300025,42.45293025,-81.8827315,2017,ONH2
F42/MO17,ONH1_2017,Y,33,648.7413579,0,3.5,267.5,125,78,78,4.42290319,4.904999876,1.545173221,3.420435244,1.695375006,2.594700004,1.855534774,1.54565171,2.383111348,137.1099989,49.04999876,23.52600009,140.8034994,5.378000009,36.46150006,95.23350107,29.85300009,72.44250006,18.65662235,17.08545341,23.10813164,20.12586768,18.11232318,19.44819915,16.33652997,11.62209215,7.957733996,13.94322577,18.20700026,22.35689536,24.80045755,25.17183321,25.2296929,22.79396283,22.13957367,13.29532023,3.578387066,9.706999969,10.10387851,14.12185296,14.82349991,13.63261195,10.3904862,9.847475595,3.166289439,4.958212412,8.025894563,9.659097931,11.97096233,12.35740613,11.98311106,9.953455995,10.0654016,5.273375752,0.439723498,0.877642858,1,1,1,0.972410901,0.840292505,0.515578473,43.49546,-80.42596875,2017,ONH1
PHW52/PHN82,DEH1_2018,N,20.525,726.6160645,0,2,182.25,83.75,66,64.75,3.413225795,4.724545566,2.007753279,2.760624154,0.287142856,8.862777665,3.915865231,4.933581623,5.971971652,105.8099996,51.97000122,28.2621423,90.35856978,0.861428567,79.76499898,101.102142,26.37928568,184.7400021,18.24738333,20.30334785,18.96061465,21.19242313,20.3949075,18.85770366,17.73482038,14.47844699,15.08372737,17.38161278,18.28454564,22.01469092,28.14795471,32.28714262,31.68230149,32.09286912,30.42106803,28.79790015,6.703871004,7.41363637,12.85857977,17.97497576,22.0019049,21.31992057,22.76420594,22.26141136,20.21526036,6.825711165,7.366383816,10.38385741,15.21158117,19.10753111,18.47850441,19.35879976,18.34204267,16.58274325,0.781601378,0.839058448,0.989425295,1,1,1,1,1,38.65164475,-75.44913625,2018,DEH1
PHN11_OH43_0001/PHB47,ONH2_2015,Y,21.3,719.5365458,0,0,239,100,76,70.5,1.876451608,4.282666683,1.928005431,1.58261263,10.80264742,1.923208582,3.114388399,4.294901914,2.356388962,58.16999984,64.24000025,23.61999965,57.22470651,21.60529484,21.1552944,115.5017658,31.56294079,72.1164696,18.95380112,18.76709785,21.17743809,22.45418875,20.04103015,18.4543581,18.45373918,15.80078253,13.34539525,11.17387095,14.38466663,23.91200153,26.61279381,30.15176526,27.65053462,26.77986929,25.87464046,20.7920557,2.006774224,5.636000033,13.64950245,15.64688346,19.32647026,18.51812829,16.74694623,15.4972221,11.03054456,3.742938436,5.617129505,11.53065914,13.52353119,16.78542678,15.13421866,13.95153495,13.1846932,9.37660249,0.276970043,0.589690475,0.985132406,1,1,1,0.993019959,0.931831119,42.45408625,-81.8816065,2015,ONH2
PHN11_PHW65_0323/LH195,OHH1_2018,Y,20.4,734.5537068,0,1.666666667,249,105.6666667,61.66666667,62.66666667,3.056774178,9.537500136,1.922452157,2.385565957,3.342142727,1.8544286,3.625787622,3.100846839,2.007798001,94.75999951,76.30000108,21.73714328,80.43785755,3.342142727,18.544286,121.7649994,22.15357072,61.29071423,19.31095449,14.64635724,20.72885596,20.94366931,19.27592959,20.95649317,17.99811894,17.37176276,15.4204415,15.33419351,20.99500024,26.65036435,28.81994394,32.41071347,30.66092864,28.53085842,26.94730604,24.73435724,3.376129027,12.14624989,14.55931522,16.57316253,19.49428545,18.47499986,17.24720124,15.03980618,12.05347394,5.35712311,9.832246518,13.13485159,14.9051591,17.95401161,16.59941793,15.03822312,13.39555861,11.48513665,0.534285712,0.926785712,1,1,1,1,0.999125,0.970735544,39.85688825,-83.671225,2018,OHH1
B37/H95,OHH1_2017,Y,17.7,731.1212129,0,2,229,110,65,64,4.401935447,12.29571451,4.299880116,6.252045262,18.36299991,4.892395558,3.195317293,3.431958172,3.794688752,136.4599988,86.0700016,53.63949916,223.8204996,40.86499989,50.26800107,124.097,30.99400014,115.4320013,19.0647902,19.03427505,21.00226491,20.15032754,19.69555429,18.89580098,18.69837911,16.0400155,13.85510684,20.47903239,25.43142836,25.24002704,27.25803818,28.09541678,28.73270468,26.30456447,24.69395371,24.25720733,8.011935501,13.44999967,12.59882409,15.91673102,16.75358336,18.39824095,14.97688189,13.11535887,11.81284403,8.407228033,12.106522,11.63721293,13.8931373,14.6377479,15.63224373,13.07252875,11.66012039,11.13333271,0.85352535,1,1,1,1,0.996926048,1,0.96495674,39.855785,-83.66477375,2017,OHH1
PHN11_PHW65_0323/LH195,MNH1_2016,Y,24.4,731.1212129,0,2,229,110,71.5,70.5,2.893225764,0.170000008,5.030425272,6.121705224,6.438583227,6.210954471,8.179238718,7.617170889,9.394742846,89.68999869,1.190000057,67.79499967,212.8530004,13.67999972,65.11499918,295.599999,62.20750045,287.315495,17.89673604,26.28611401,18.122652,20.29948324,15.80941307,17.87578139,16.93568638,15.29315111,12.15008877,17.5148386,25.45428576,24.53269911,27.63337014,28.14450006,28.70269129,27.15887183,24.8505404,22.53032632,6.338387108,9.824285678,13.68155402,15.81410535,17.82425013,18.42635015,16.92976579,13.57123889,11.50456607,6.871134867,10.90204251,11.6566452,13.98369248,15.05511886,15.68076391,14.22086787,11.86153057,10.26982602,0.734527645,1,1,1,1,0.999952477,0.98729881,0.936092645,44.06646925,-93.533648,2016,MNH1
F42/OH43,TXH1-Early_2018,N,10.25,746.5674357,0,2,249,80,72.5,69,2.442333295,0.87833333,4.91741256,2.91095925,1.112321411,5.987347663,3.094033648,2.445309502,2.573656677,73.26999886,5.269999981,55.2178573,113.3721426,4.449285643,64.36357035,86.72785865,13.67714274,77.357857,13.4988633,14.49154552,13.92485348,19.6618496,19.390827,19.64184359,19.38410293,21.21373351,18.01258323,19.68933331,26.95833333,25.66614373,26.56996845,30.24238085,29.14372996,31.91805433,33.2644762,34.51160554,6.357666679,15.03999996,15.13755815,13.69055459,18.24071415,16.44843436,20.63070323,20.50154739,23.97494014,7.613570572,13.40715604,12.87528071,12.79536137,16.34410207,15.0664779,18.21233438,18.75919739,20.40606275,0.821476194,1,0.991620595,0.99408643,1,1,1,0.999013392,30.546318,-96.4329965,2018,TXH1-Early
PHG29/PHG47,NYH1_2017,Y,15.1,731.1212129,0,6.5,214,91.5,71.5,71.5,4.758709581,4.139999986,2.953024942,5.715506232,4.320872878,2.701732063,2.616328443,1.022630585,3.614268439,147.519997,37.25999987,45.12618999,219.9223815,11.26857107,35.6957141,128.4247627,13.30476207,110.8900009,18.97444351,17.81005277,22.0763727,19.38397475,18.56141379,19.22534974,16.71382568,13.43506643,9.037548332,17.06967752,20.23333359,22.7745171,25.66488699,26.70396817,25.32691524,23.26007272,23.96840526,17.61119819,5.964193534,10.19,10.93717632,15.20362294,16.36293638,14.60656728,11.31793404,11.56685323,6.669544781,6.641127344,8.727253675,10.15270493,12.79474615,13.71935226,12.37567782,10.45035179,10.9124923,7.239151369,0.685760371,1,1,1,1,0.982493678,0.953634339,0.701363064,42.72880835,-76.6515625,2017,NYH1
LH82/PHB47,GAH1_2015,N,13.6,805.1343638,0,9.5,155,60,54,54,4.231249915,0,5.95843649,3.852603143,2.594000032,2.429925956,4.217759372,2.225466652,2.667397826,135.3999973,0,82.56599903,137.5619979,4.851333332,21.8693336,117.5779999,11.12733326,82.68933261,16.59936112,21.58269278,19.11661296,20.61616366,14.5260024,17.86473659,19.792993,19.1551459,18.46432438,25.43281227,26.81500022,26.00854227,27.82657943,29.9603331,30.57562955,31.8228303,33.58693334,33.75221527,12.50374998,10.5999999,12.24448314,13.90452364,20.76811106,20.25348139,20.64254904,22.17719986,22.29090342,11.85447967,11.72664631,11.94062668,13.41492991,17.36422208,17.41455547,18.23714923,19.83066815,19.89653894,0.988973219,1,1,1,1,1,1,1,31.505771,-83.555095,2015,GAH1
WF9/H95,KSH1_2016,Y,13.4,781.321437,0,48,125,50,85,85,0.381562503,5.593749881,9.031136959,3.981909994,0,0.897724769,5.011421387,3.322424253,5.670073263,12.2100001,44.74999905,140.9509078,148.5090918,0,8.374091108,139.438637,19.93454552,175.7722711,18.43315426,14.04582843,18.34613738,20.88446512,22.70328743,20.59441801,18.34986672,18.15379387,17.32510191,19.15124996,21.70124984,22.33901244,27.19377063,36.31272689,35.17540036,32.01078432,33.85633352,30.76895891,2.130625044,11.46499991,9.568238579,14.2621368,21.58727247,22.04353923,20.78061301,22.71134866,19.49139311,6.3158573,9.667291017,9.626890379,13.35418843,19.56599107,19.14397536,18.06824645,19.12054732,17.03744615,0.741573662,1,0.921279778,0.986042268,0.991287871,0.998977631,0.993550002,1,39.14480675,-96.62898225,2016,KSH1
CG60/LH162,NEH2_2015,N,12.9,776.1726961,0,0,229,110,88,88,1.358750008,3.755999994,3.031264216,1.286090902,0.286666671,1.657187527,3.751759362,0.157499999,0.616713691,43.48000026,37.55999994,66.29000026,43.49999976,0.860000014,16.57187527,117.6431233,0.944999993,18.99062441,19.53783247,19.98656282,18.8528682,23.65152674,23.21232343,22.7312118,19.62767813,21.61948185,18.20728239,15.03874992,23.15200024,18.66927583,30.14561768,32.37510385,32.60862507,30.36489819,32.31320816,28.31448706,-2.426562488,5.230999994,5.264051067,13.5723423,16.5714581,16.13087479,15.9646131,15.56819047,11.19634675,4.192485347,8.478296732,6.894904354,14.37610508,16.560328,16.47008009,15.3434088,16.05261291,12.83173005,0.519497764,0.97653572,0.809891265,1,1,1,1,0.922021698,41.0514495,-100.7471915,2015,NEH2
F42/OH43,IAH1_2020,Y,15.41666667,731.1212129,3,0.833333333,229,110,65,64,1.688064506,6.196000195,3.0793737,6.533057926,1.271428551,2.673269776,1.85421064,0.708456624,3.755616013,52.32999969,61.96000195,37.23499918,213.6221428,2.198571375,25.9085708,60.11785651,6.012142782,115.3728583,19.46953177,15.04660187,20.64247086,20.31598349,21.99207742,21.09552252,19.7297914,19.80455556,15.11692591,15.87290319,18.70700045,25.72176895,28.50674309,31.92999949,30.87921407,28.61147391,29.37327705,24.63079501,3.348387095,9.753000152,14.65929334,17.38633346,19.85714286,19.28849194,17.27261165,15.46819038,11.83183106,5.5584858,8.125456457,12.65757338,15.09801966,17.89357117,17.09078834,15.12121856,14.7539709,11.47694483,0.621440085,0.927035726,1,1,1,0.998514142,0.992713009,0.918334154,41.19774214,-91.48767072,2020,IAH1
B14A/OH43,INH1_2015,N,15.1,702.1595451,0,8.5,230,115.5,67.5,67,2.968064535,5.608750075,2.401797478,2.620596579,1.049062505,3.048312443,3.454130844,1.332533481,1.484370975,92.01000059,44.8700006,26.44312483,85.12437463,1.715625018,30.48312443,116.5724995,9.316249996,45.68062523,19.44608656,13.59046638,21.88315593,21.65689439,20.60130358,19.73326552,18.77560381,17.99738388,15.64927463,15.67580632,21.0562501,27.44396829,29.52449332,32.66781175,30.16981242,28.17317586,28.46934151,25.5406298,3.004516139,13.05249977,15.22068343,16.62214482,19.56843758,18.02818774,16.71489706,16.46563638,12.56847521,5.360930658,9.9438759,13.725819,15.26696414,18.11812466,16.1828721,14.63810214,14.67667849,11.95902497,0.609504607,1,1,1,1,1,1,0.986081101,40.477075,-87.000205,2015,INH1
B37/H95,ONH1_2017,Y,17.7,731.1212129,0,2,229,110,65,64,4.42290319,4.904999876,1.545173221,3.420435244,1.695375006,2.594700004,1.855534774,1.54565171,2.383111348,137.1099989,49.04999876,23.52600009,140.8034994,5.378000009,36.46150006,95.23350107,29.85300009,72.44250006,18.65662235,17.08545341,23.10813164,20.12586768,18.11232318,19.44819915,16.33652997,11.62209215,7.957733996,13.94322577,18.20700026,22.35689536,24.80045755,25.17183321,25.2296929,22.79396283,22.13957367,13.29532023,3.578387066,9.706999969,10.10387851,14.12185296,14.82349991,13.63261195,10.3904862,9.847475595,3.166289439,4.958212412,8.025894563,9.659097931,11.97096233,12.35740613,11.98311106,9.953455995,10.0654016,5.273375752,0.439723498,0.877642858,1,1,1,0.972410901,0.840292505,0.515578473,43.49546,-80.42596875,2017,ONH1
PHG39/PHN82,MOH1_1_2020,N,14.46666667,731.1212129,0,0,224.3333333,102.6666667,58,57,2.765624954,8.119999743,10.49656654,1.909885915,5.802857127,7.415295831,3.691475556,2.293301892,3.400930865,88.49999854,40.59999871,96.7978566,57.0957143,7.737142835,67.39857156,118.848571,17.52928566,104.715714,18.75466287,21.25211372,22.49923535,20.31658939,20.84622072,17.68630925,18.12476098,17.46293798,14.64158327,22.18656257,30.76999931,28.86546125,30.72469998,30.62226157,31.26253243,28.67352632,29.54480095,24.35225034,12.23093753,19.21800041,17.35636515,20.03188031,19.40511944,21.45309498,18.10676495,17.58972003,12.9136675,10.41798935,16.99399986,15.213465,17.3995364,17.01369051,18.36589209,15.51205264,15.80164337,11.56818364,0.936383936,1,1,1,1,1,0.995985623,0.962870504,38.8978375,-92.2070925,2020,MOH1
B73/MO17,MIH1_2020,N,17.2325,657.4298582,0,21,247.625,147.5,64.25,62.75,4.984838709,2.447142908,2.78018427,2.64718347,5.506875038,1.476884461,2.688717092,6.006552647,2.65185957,154.53,17.13000035,30.43499947,89.07562375,6.053750038,16.17374991,112.2143753,49.72375022,79.8756258,20.40588462,19.28742858,24.32683064,21.06964646,18.47526628,19.40802789,18.05267967,13.18055513,11.8632568,17.75483874,24.12857165,28.18736501,29.25734834,30.47187495,29.12451894,27.19720882,23.65947149,18.53645566,5.91032262,13.18571418,13.36449351,15.87753885,17.57625037,17.40439215,14.2199518,12.09430501,6.603961046,6.886871568,11.64218502,13.33305563,14.86544572,16.04104967,15.33737973,13.2580117,11.17810785,7.349100415,0.70564517,0.993469382,1,1,1,0.990981538,0.929873564,0.775463757,42.7085775,-84.4705825,2020,MIH1
PB80/PHZ51,ILH1_2015,N,11.13333333,734.1246451,0,1.333333333,255,121.6666667,72,68.66666667,4.343437491,1.296153843,7.654899739,5.34311295,3.674999952,2.467291633,4.647268051,0.712819956,1.951907909,138.9899997,16.84999996,99.86750055,177.342501,7.349999905,22.2056247,144.0256246,5.039375113,60.06187434,19.4076893,20.21820178,17.58012378,22.59231729,17.35775694,20.12242863,18.79551315,20.37165926,16.80998738,15.69375022,16.27615364,23.81483975,28.77428317,30.28249967,31.91701372,28.65899596,28.4854072,27.09877011,2.916875011,4.602307732,13.93389792,16.26044709,20.47749984,20.41381959,17.79543547,15.77196732,14.62672175,5.339800043,5.921635642,11.53105666,14.7484369,17.37999976,18.17178164,15.31569586,14.44648847,13.36421336,0.599162964,0.636840646,1,1,1,1,1,0.99828125,40.05982425,-88.23397575,2015,ILH1
LH82/PHB47,IAH4_2017,Y,19.075,723.0763052,0.25,5.25,204.25,88,66.25,65.75,3.054193612,4.63857133,5.654282844,2.356146022,0.145000003,0.823262634,3.029939984,2.506485397,3.022032747,94.68000197,32.46999931,92.55000019,79.81000018,0.290000005,7.931363713,110.0431818,17.65818187,91.79227275,19.60434628,22.37855189,18.81628808,21.46940114,22.42332305,21.26952374,19.1513695,15.94205759,15.34138578,17.83935482,25.21428544,21.76755785,28.88340452,30.88984893,30.99338411,28.30609907,26.26622464,25.93438806,4.952580655,10.13999993,10.24708413,15.02150207,17.47128796,18.07608078,15.80662465,13.87026602,12.51354651,6.575243948,10.82301274,9.649960621,14.3656457,16.22810104,16.57398155,14.36597852,12.57546566,12.06214068,0.727396317,1,0.910082199,1,1,1,1,0.987168831,41.99455432,-93.69030947,2017,IAH4
PHW52/PHN82,IAH4_2019,Y,33.075,659.6824324,3,10.25,276,134.5,63,61.75,7.44874995,0,6.508814674,5.652572602,2.433809479,0.731547632,2.455795253,7.856419535,5.758725846,238.3599984,0,89.12928634,169.456428,4.779285618,8.60571444,106.5300014,62.81714391,173.1250012,18.61457558,24.25652275,18.80062453,19.64217675,17.01762246,21.29967345,16.82875041,12.82062273,10.73648339,20.72718754,29.98400002,24.57226332,29.58102216,28.11761892,27.58625519,26.21902431,25.70162766,18.66579105,8.655312385,16.39199963,13.30590142,18.52555793,18.42333308,15.4118289,14.78252205,14.57801647,7.354403302,8.719182336,15.28713381,11.55896644,16.12377034,15.4195504,13.79277779,12.9189296,12.78184671,8.051480754,0.866629464,1,1,1,1,0.996735112,0.969646609,0.721601517,42.03193798,-93.79333213,2019,IAH4
B37/MO17,TXH1_2016,N,9.9,691.2184706,0,2,203,72.5,72,69.5,1.633666698,16.13999993,0.99702422,4.719865603,0.129393939,3.277272727,13.06232457,0.703636358,1.017125621,49.01000094,112.9799995,14.5313639,177.3549991,0.33090909,36.05,378.0672674,3.179999969,30.53454577,13.9726292,10.72874144,17.88940951,17.80076093,20.55685321,19.77792414,17.90480363,20.8338604,20.14326093,22.32500016,23.95000022,24.48309256,26.40498513,28.5388636,28.63545455,30.12870319,34.35404525,35.58838723,6.034666632,13.33571414,9.675379644,13.12758779,15.78530267,16.33764454,20.13902853,23.08186362,24.00118421,8.473379033,11.29783551,10.5045992,12.46111665,14.43681279,14.72204148,17.12368238,20.53225114,20.87599038,0.915869048,1,0.972225207,1,1,1,1,1,30.54708625,-96.43393475,2016,TXH1
PHN11_PHW65_0323/LH195,TXH1_2015,N,13.25,751.7161766,0,2,168,87.5,71,71,2.435333351,0.886666695,4.529386736,2.992210444,0,5.407499953,3.236240411,4.528416659,2.205666663,73.06000052,5.320000172,54.16999972,113.7899998,0,59.48249948,89.11249819,24.54499996,66.1699999,13.38128519,15.80308406,13.73749678,19.48289484,22.46598899,19.96463979,19.54848583,19.57031498,18.03135075,19.61999995,26.26833312,25.8489028,26.4780255,30.37177098,28.79539756,31.9014052,33.48070828,34.35516661,6.122333375,12.74499997,15.39155332,13.69439061,15.83385423,15.9580683,20.41172374,21.45270844,23.93220836,7.516768444,12.28221354,13.06030889,12.7550996,15.35592881,14.67426974,18.11040569,19.30603111,20.37775841,0.822428569,1,0.992325397,0.994092815,1,1,1,0.999431249,30.54708625,-96.43393475,2015,TXH1
F42/OH43,MIH1_2016,N,19.9,695.7236189,0,3,230,120.5,61.5,63.5,3.213870927,0.372000003,1.277668238,2.072144594,0.204761899,2.382636341,6.277866916,3.129595251,4.115734243,99.62999874,1.860000014,16.77857134,74.4033328,0.614285696,24.34142835,217.3680916,23.88571438,123.5814282,20.04481233,22.69628944,22.57460654,21.19066928,19.62511718,19.41470496,17.43536011,14.16523572,12.41239439,17.74322581,29.20999985,25.57947765,28.1508514,27.23547651,30.32783564,28.27294529,26.6388532,22.50219404,5.299677434,16.33600006,11.90361174,14.70447611,15.74579377,17.52671,16.25511672,15.58650841,10.86825081,6.615827776,14.89908974,11.62365975,13.82943527,13.70908531,16.01583991,14.48649579,13.48265,10.09129455,0.734400922,1,1,1,1,0.999987733,0.99326559,0.936590208,42.41206675,-84.2952625,2016,MIH1
B14A/OH43,MOH1_1_2020,Y,18.83333333,731.1212129,0.333333333,1.666666667,244.3333333,113,56.33333333,55.66666667,2.765624954,8.119999743,10.49656654,1.909885915,5.802857127,7.415295831,3.691475556,2.293301892,3.400930865,88.49999854,40.59999871,96.7978566,57.0957143,7.737142835,67.39857156,118.848571,17.52928566,104.715714,18.75466287,21.25211372,22.49923535,20.31658939,20.84622072,17.68630925,18.12476098,17.46293798,14.64158327,22.18656257,30.76999931,28.86546125,30.72469998,30.62226157,31.26253243,28.67352632,29.54480095,24.35225034,12.23093753,19.21800041,17.35636515,20.03188031,19.40511944,21.45309498,18.10676495,17.58972003,12.9136675,10.41798935,16.99399986,15.213465,17.3995364,17.01369051,18.36589209,15.51205264,15.80164337,11.56818364,0.936383936,1,1,1,1,1,0.995985623,0.962870504,38.8978375,-92.2070925,2020,MOH1
PHN11_OH43_0001/PHB47,COH1_2017,Y,17.7,731.1212129,0,2,229,110,65,64,3.393124943,0,0.001708684,0.360843908,0.891428554,3.560382097,1.42287895,1.565670675,1.770870451,108.5799982,0,0.02904762,12.29476177,1.600476163,43.78523833,56.48285717,21.02523811,53.20285701,22.26802993,25.65694836,25.9931063,24.2875628,21.26982858,19.37652668,19.65631787,15.92591012,11.99136935,20.38624986,26.27857154,29.00990249,30.95750085,32.84396765,29.24597739,27.87075516,24.49812031,17.64004964,4.676250031,9.955714362,11.44166305,13.33492254,15.64190474,14.2894836,11.55992968,8.650869984,2.505724526,7.387813889,11.22152513,12.97827389,14.53136664,16.23032426,14.11586508,12.58015619,10.40568176,6.007000116,0.859799101,1,1,1,1,0.978368119,0.882220332,0.653649732,40.64850025,-104.9997825,2017,COH1
CG44/CGR01,NYH1_2018,Y,19.7,731.1212129,9.5,3.5,263.5,129.5,68,68,4.394516057,1.637142931,0.546464292,3.461265884,6.062261837,4.338061718,2.067540981,1.177456758,2.359527655,136.2299978,11.46000051,7.340000123,113.5449994,14.95785693,45.27285745,83.63714323,15.50214277,71.28500016,21.14905797,19.51909583,22.50012197,20.49014312,17.37909559,18.62357236,17.54437735,14.42309006,11.11333684,16.43838702,24.34714304,24.48084385,28.4079325,28.47095262,28.85558784,26.25577716,21.21730113,17.53723965,4.181612903,13.18428578,11.78804566,16.02970596,18.15166677,17.53428468,14.37510127,9.649634667,6.532510054,6.046172102,11.82070517,11.18993529,14.50776692,15.35223703,15.26441478,12.8637381,9.179788733,7.084201569,0.564688941,0.946581643,0.98880424,0.99833546,1,0.984010821,0.898581807,0.740508559,42.72940418,-76.65161667,2018,NYH1
B73/TX779,ARH2_2018,N,20.615,731.1212129,0,2,174,84,73,73,4.523124937,5.877777735,3.202210455,3.225384198,0.461428574,5.0703967,1.707251537,1.546976178,1.915506911,144.739998,52.89999962,46.32285666,103.4992844,0.461428574,45.6335703,42.68714207,7.346428526,59.38071425,17.7541087,19.6455271,19.52097147,20.05684428,23.80737271,19.97823453,19.1297214,18.25489796,18.05597286,19.61875001,21.92000008,22.77345622,28.90718296,31.9800005,30.98396799,32.84130907,33.56595603,31.90391706,8.73406262,10.34777779,11.28771296,17.85430307,18.706429,19.75547635,22.48266054,23.2605133,21.25223495,8.305601359,9.423215554,10.22107903,15.52009327,17.35232514,17.37984482,19.61861005,20.2782542,18.53689778,0.857433028,1,0.994106717,0.995975764,1,1,1,1,35.674241,-90.0749725,2018,ARH2
2369/LH123HT,SCH1_2019,N,14.88,731.1212129,0,2,213.36,74.93,61.5,64,3.522580645,3.026666641,1.832071666,3.15534991,1.497023807,2.439880971,1.838213127,1.715047598,2.162465429,109.2,18.15999985,19.94999987,97.87357193,2.846428582,21.92714303,50.9164284,9.481428444,67.0364283,18.2238054,19.24788825,19.83816148,19.9388592,17.79349522,20.88775084,19.93011295,20.19525604,17.6553152,24.08129043,27.55666669,26.86360264,30.30302253,30.15095266,31.81823454,32.87501498,31.84457125,32.33357145,10.7222581,15.88833332,14.78977791,18.33498627,20.49666657,19.48954379,21.18366564,19.1694286,20.16504603,10.62715993,13.88239503,13.27455789,16.3672742,17.32380961,17.64580353,19.00989067,17.48787314,18.15917061,0.967315668,1,1,1,1,1,1,1,34.62248225,-82.73756775,2019,SCH1
B73/PHN82,WIH2_2016,N,19.95,768.4495847,0,3,257.5,136,63.5,63,2.185483832,6.563333432,3.447094458,4.124693788,6.707159024,6.158880111,5.945293137,1.654273513,4.758742445,67.74999878,39.38000059,44.45545418,149.2718189,18.91272705,63.86318129,228.7613642,17.11772738,143.1609097,20.07161814,17.64681498,20.48120554,20.03716075,21.00097141,18.73971629,16.31911952,14.94670844,10.3303759,18.34677419,27.65666644,25.59626749,27.3504729,29.44640147,29.15349181,26.70938079,24.21329019,20.37268081,4.840000014,15.2516667,12.43660419,15.21846351,16.18390156,17.81047537,15.29826924,12.0891497,9.537770322,6.76617685,13.67923016,11.77429452,13.6256578,15.0809804,15.56950508,13.35737665,11.10536848,8.849967039,0.729688939,1,1,1,1,0.998061418,0.979766622,0.886131912,43.32649075,-89.33882925,2016,WIH2
B37/MO17,COH1_2017,Y,17.7,731.1212129,0,2,229,110,65,64,3.393124943,0,0.001708684,0.360843908,0.891428554,3.560382097,1.42287895,1.565670675,1.770870451,108.5799982,0,0.02904762,12.29476177,1.600476163,43.78523833,56.48285717,21.02523811,53.20285701,22.26802993,25.65694836,25.9931063,24.2875628,21.26982858,19.37652668,19.65631787,15.92591012,11.99136935,20.38624986,26.27857154,29.00990249,30.95750085,32.84396765,29.24597739,27.87075516,24.49812031,17.64004964,4.676250031,9.955714362,11.44166305,13.33492254,15.64190474,14.2894836,11.55992968,8.650869984,2.505724526,7.387813889,11.22152513,12.97827389,14.53136664,16.23032426,14.11586508,12.58015619,10.40568176,6.007000116,0.859799101,1,1,1,1,0.978368119,0.882220332,0.653649732,40.64850025,-104.9997825,2017,COH1
LH212HT/LH195,ONH1_2015,N,27.85,730.4776202,0,0,235,142.5,90.5,90.5,1.605625002,2.296315821,1.411426091,1.973297954,0.512941169,3.436769168,2.641035405,1.799953816,2.360571209,51.38000005,43.63000059,20.30117703,73.50294104,0.81882352,40.73352947,103.9364728,19.58470627,71.14882509,18.02169462,20.4737019,23.34007091,22.64543997,20.24065375,18.07254412,18.60447299,14.22755231,12.21920895,9.771562532,12.63473691,23.7578119,26.83441686,29.90941261,27.46928249,26.11972075,22.82201755,18.35250846,-0.327500018,2.045263152,11.01347606,13.31919887,17.43313718,16.50329302,14.06775752,11.69572195,7.013714688,2.851211725,4.201400589,10.67713105,12.77399982,15.76589753,14.15032606,12.63577386,10.48249806,7.379159901,0.167098218,0.403345874,0.957007131,0.991950294,1,0.994472794,0.939113043,0.772366561,43.49741975,-80.44806025,2015,ONH1
TX714/PHZ51,TXH1_2016,N,9.85,706.0211008,0,2,235,97.5,72,72,1.633666698,16.13999993,0.99702422,4.719865603,0.129393939,3.277272727,13.06232457,0.703636358,1.017125621,49.01000094,112.9799995,14.5313639,177.3549991,0.33090909,36.05,378.0672674,3.179999969,30.53454577,13.9726292,10.72874144,17.88940951,17.80076093,20.55685321,19.77792414,17.90480363,20.8338604,20.14326093,22.32500016,23.95000022,24.48309256,26.40498513,28.5388636,28.63545455,30.12870319,34.35404525,35.58838723,6.034666632,13.33571414,9.675379644,13.12758779,15.78530267,16.33764454,20.13902853,23.08186362,24.00118421,8.473379033,11.29783551,10.5045992,12.46111665,14.43681279,14.72204148,17.12368238,20.53225114,20.87599038,0.915869048,1,0.972225207,1,1,1,1,1,30.54708625,-96.43393475,2016,TXH1
B73/PHM49,NCH1_2016,N,14.3,731.1212129,0,1.5,236.5,131,65,64,2.901562452,3.125714166,7.137907935,4.683034439,4.3177271,0.863030289,5.226283407,5.104181825,4.507668668,92.84999847,21.87999916,91.86318315,160.7736342,8.497726928,8.495454409,139.9318182,26.12772732,139.7377287,16.36857818,22.27138465,15.49498623,18.72849078,21.8793198,21.8664799,18.529992,18.05675722,17.32656161,20.86125001,25.58571407,25.68946269,27.1054564,30.20318166,31.0559697,32.42423852,33.59766701,33.26035177,7.692187494,8.212857212,14.27003911,16.07300028,18.02681784,18.80169681,21.2796372,22.62190931,22.7218182,8.383421821,10.43985322,12.46468669,13.95599298,16.17160042,16.99727481,18.83160592,19.980567,19.86697781,0.913761163,1,1,1,1,1,1,1,35.30015175,-77.57127825,2016,NCH1
TX714/TX779,TXH1_2020,N,12.1,771.6675477,0,2,218.44,86.995,69.5,72,2.284333333,0,4.613530444,2.949806388,1.362941181,6.741056464,2.844869093,3.829088224,2.301094231,68.53,0,55.97058804,110.7988238,1.362941181,71.52235312,82.32059028,18.97352936,69.29117607,13.91343843,13.3863348,15.08816438,19.79337859,19.48130546,19.24170726,19.77113757,20.7945973,17.91495332,20.02266652,27.17999992,26.60815942,26.52479293,29.39617636,29.12989124,32.2266946,33.03076485,34.59511331,6.794333295,17.20400028,15.2455437,13.65359797,17.29686298,16.61337131,20.73348334,20.06167624,24.24037069,7.901247141,14.27292515,13.38037585,12.76738989,15.58009007,15.11126374,18.39892159,18.53701373,20.50202011,0.821357143,1,0.99243504,0.993791594,1,1,1,0.999042533,30.53781575,-96.4283715,2020,TXH1
PHW52/PHM49,ILH1_2019,Y,17.5,783.8958075,0,0,239.5,113,64,63,3.922903261,5.481666605,1.00366755,4.244691953,0.864761892,1.289377346,1.227411081,2.864647074,2.116070648,121.6100011,32.88999963,10.01785682,147.0385723,1.34571428,11.77428573,45.42428628,20.70571404,64.49999962,18.80145381,19.65322081,22.67392072,19.84274881,20.61125065,20.0231267,19.28032854,15.59344345,14.97056188,19.78774188,27.49499989,27.66771062,28.39175175,31.90428638,30.86753304,28.53869606,27.75133519,26.64299619,8.822580737,16.11666648,15.73801632,17.44140675,20.6435711,19.81749468,16.71837596,16.74759351,14.38373492,8.392897398,14.01107102,13.933587,15.08804109,18.28423173,17.40393302,14.78980986,14.45116262,13.1086535,0.871382484,1,1,1,1,1,1,0.979387755,40.0587105,-88.2298385,2019,ILH1
CG60/LH162,ARH1_2016,N,15.15,806.4215491,0,4.5,162,93,61,62,12.62656226,6.052222146,7.859593922,4.411032368,3.769999921,0.095833332,1.834913509,2.950363528,2.931715563,404.0499923,54.46999931,101.1431819,160.496816,7.539999843,0.824999988,46.86636396,14.75181764,90.88318244,16.40757677,14.40289243,17.41332625,19.31399891,17.48165414,22.15918181,19.7781726,18.25208951,17.22596404,20.37124979,20.08666674,25.25253507,26.30445415,29.50681779,32.27019592,33.22074717,33.17606868,32.75999986,8.53968759,10.04999993,14.84655054,15.67568893,20.10318184,20.90335237,23.01320039,23.46584116,23.35664232,8.376579132,8.623890092,12.4075181,13.38568101,16.80499981,18.57005087,20.09384313,20.24603027,19.89808151,0.932198657,0.999841266,1,1,1,1,1,1,34.72952,-90.7603555,2016,ARH1
W10004_0216/PHZ51,ONH2_2015,Y,19.6,767.1623994,0,1,300,158,80,80,1.876451608,4.282666683,1.928005431,1.58261263,10.80264742,1.923208582,3.114388399,4.294901914,2.356388962,58.16999984,64.24000025,23.61999965,57.22470651,21.60529484,21.1552944,115.5017658,31.56294079,72.1164696,18.95380112,18.76709785,21.17743809,22.45418875,20.04103015,18.4543581,18.45373918,15.80078253,13.34539525,11.17387095,14.38466663,23.91200153,26.61279381,30.15176526,27.65053462,26.77986929,25.87464046,20.7920557,2.006774224,5.636000033,13.64950245,15.64688346,19.32647026,18.51812829,16.74694623,15.4972221,11.03054456,3.742938436,5.617129505,11.53065914,13.52353119,16.78542678,15.13421866,13.95153495,13.1846932,9.37660249,0.276970043,0.589690475,0.985132406,1,1,1,0.993019959,0.931831119,42.45408625,-81.8816065,2015,ONH2
W10001_0022/PHB47,INH1_2016,N,16.55,706.6646934,1,5.5,260.5,118.5,61.5,58.5,3.034516148,1.382857186,3.106568823,3.966270256,3.500454469,6.752636371,3.451172643,3.198528118,3.024422797,94.07000059,9.680000305,31.26000059,138.8759105,3.500454469,67.52636371,113.8927274,21.6654544,92.62590972,17.63328649,23.97511796,20.66441577,20.1236558,19.9706746,19.39149484,18.14527656,15.98533716,14.62820237,18.74516109,26.31142807,27.84898846,28.12893417,28.20272714,29.14504538,29.16779001,27.95564941,27.07739093,7.950322636,11.69428553,16.31817922,16.10606538,16.8522731,18.34872752,18.58889605,17.50284626,15.03841012,7.677100472,11.91689015,14.24288378,14.4184555,14.68521604,15.7994256,15.9329094,14.92238151,13.51734692,0.852649763,1,1,1,1,1,1,0.996102814,40.4787595,-86.98982,2016,INH1
PHW52/PHN82,OHH1_2020,Y,23.85,694.4364337,0,0.5,229,110,57.5,55.5,4.175312527,1.24000001,2.003453903,2.609830299,3.238461531,4.458868342,3.000365612,1.621237519,2.44580479,133.6100008,6.200000048,24.41307693,78.60461595,5.612307695,46.13538504,105.0992289,18.40384625,73.98230748,19.06994028,20.34349766,22.26062964,20.30125672,18.94980258,17.72364635,17.47781057,14.69815231,13.31876726,20.75593752,29.31000023,26.9862925,30.26951119,31.92230738,29.63458284,27.3548547,24.45496262,20.91339716,9.301875014,17.61400032,14.18652547,18.22082699,19.47423084,18.74255468,15.66305293,13.07056974,8.164555027,9.098127154,15.53923951,13.05396234,16.29356655,17.69826911,16.21360084,13.84725457,11.75523116,8.713632263,0.810993302,1,1,1,1,0.998602591,0.941606618,0.857376019,39.85643475,-83.67288725,2020,OHH1
PHN11_OH43_0001/PHB47,MOH1_2017,N,15.55,731.1212129,0,11,243.5,101.5,61,60,8.937741737,9.40166688,2.512230721,3.318030003,5.035714369,1.794490762,1.996986524,1.220079397,1.67255761,277.0699939,56.41000128,33.26619119,103.9014299,11.93095259,15.87761924,65.30142803,7.334762096,51.25476209,18.72482054,18.08832916,22.62422694,21.00800173,18.77514496,19.93438148,19.70533138,19.36646121,17.34329115,21.92032254,25.32999992,25.47495036,29.30087203,30.46650729,32.25412016,29.92026774,28.22145964,28.04827898,10.06000005,15.27666648,12.99827088,17.39768618,19.78222205,21.21359122,18.70404881,16.33857143,14.9717184,9.612847321,12.76903024,11.94928206,15.49761919,17.12130987,18.67277384,16.20463701,14.48208578,13.92850008,0.915472353,1,1,1,1,1,1,0.999239796,38.89264,-92.2057525,2017,MOH1
CG108/CGR03,ARH1_2017,N,16.6,736.2699538,0,2,161.9,102.85,64.5,61.5,3.058125025,3.532857077,9.871688678,6.405160528,0.516363615,5.988171668,5.119232493,3.102318153,5.34158356,97.86000079,24.72999954,132.0327285,211.6218184,0.569545432,54.36818138,136.8913653,16.08272713,165.5890903,17.13974981,16.55343887,20.38424011,18.76225527,22.81364793,19.06964508,19.53553475,19.77193111,17.12972935,24.60906261,23.96000045,24.77057006,28.06605652,30.35469691,31.5146664,31.30577636,32.78459133,30.91587993,11.9175,14.17857156,11.8445801,17.60850246,18.97249995,21.30615642,21.39979275,22.50533316,21.62237538,11.1639709,11.77578055,11.22655186,14.97537354,16.74359516,18.41041141,18.33049426,19.54768126,18.22457608,1,1,1,1,1,1,1,1,34.7272515,-90.76032575,2017,ARH1
B73/MO17,MNH1_2015,N,17.25,737.557139,5.5,15.5,232.5,114.5,74,73.5,2.676451665,6.10285713,1.587216104,4.707726326,2.093823531,4.685775359,5.935015669,2.223261507,2.198788145,82.97000162,42.71999991,19.59000013,155.007059,3.965294123,52.23235247,227.0947085,20.90117698,67.40117758,19.81693462,15.87546921,21.62818458,20.65236193,17.21434565,21.12123323,17.7408483,14.5374504,12.06297535,17.43387093,22.63000025,27.28921799,28.46423671,28.36529418,28.07899716,26.14089523,24.73259507,17.90095705,4.567419307,13.73428563,14.30007362,16.89716897,18.65411764,16.19745995,14.75643511,13.57280729,6.634647692,6.2838161,10.87437977,13.26905608,14.87023808,15.64114514,14.35392043,12.99006372,12.46836687,7.55733068,0.722983866,1,1,1,1,0.977703003,0.878626049,0.721229646,44.07038575,-93.53519625,2015,MNH1
W10001_0022/PHB47,NYH2_2017,Y,17.7,731.1212129,0,2,229,110,65,64,4.985806354,2.593333337,3.453715005,5.89688957,0.948070192,3.208418109,2.379655727,2.694333021,3.397972982,154.559997,23.34000003,55.2357889,222.9889478,1.763157895,41.81263091,117.7794744,23.637895,104.1910535,18.91896409,18.22902181,21.62310913,19.28169434,21.2024166,18.91678159,16.97406986,13.88043676,9.439494818,16.54903238,19.80111122,22.34881997,25.65461899,27.16105275,25.3148988,23.28803047,24.25146582,18.24460841,5.239677404,10.2422222,10.55939387,15.21770316,15.87359667,14.84504335,11.5614249,11.15398494,7.352427253,6.267898103,8.570747831,9.793885142,12.80097944,13.68904673,12.46138399,10.55155578,10.87663924,7.688896934,0.638917053,1,1,1,1,0.981507475,0.966916282,0.722284214,42.73248125,-76.65275025,2017,NYH2
B73/PHN82,NEH2_2015,N,14.45,760.0828806,0,0.5,229,110,92,92,1.358750008,3.755999994,3.031264216,1.286090902,0.286666671,1.657187527,3.751759362,0.157499999,0.616713691,43.48000026,37.55999994,66.29000026,43.49999976,0.860000014,16.57187527,117.6431233,0.944999993,18.99062441,19.53783247,19.98656282,18.8528682,23.65152674,23.21232343,22.7312118,19.62767813,21.61948185,18.20728239,15.03874992,23.15200024,18.66927583,30.14561768,32.37510385,32.60862507,30.36489819,32.31320816,28.31448706,-2.426562488,5.230999994,5.264051067,13.5723423,16.5714581,16.13087479,15.9646131,15.56819047,11.19634675,4.192485347,8.478296732,6.894904354,14.37610508,16.560328,16.47008009,15.3434088,16.05261291,12.83173005,0.519497764,0.97653572,0.809891265,1,1,1,1,0.922021698,41.0514495,-100.7471915,2015,NEH2
LH212HT/LH195,IAH1_2015,Y,21.75,707.9518787,1,6,290.5,145.5,65,64,1.566451638,2.213076954,8.402418557,1.323463692,0.084411761,2.297359398,2.93999255,2.37101191,2.732793763,48.56000078,28.7700004,122.1399999,43.52999979,0.168823523,22.82352863,100.1182349,16.67000003,83.81294001,20.43214903,18.85811498,14.63317728,22.31276759,19.14227258,22.20806523,19.83862588,18.33763158,15.0581957,16.08774191,16.64538457,21.84697853,28.7334183,30.26852911,31.30747052,29.05105531,29.39636272,24.66946357,1.839032284,4.865384661,13.12892854,16.86768962,20.05941139,18.05705196,16.3929614,15.43749916,11.17229855,5.447129731,6.098188577,10.48240964,14.99632473,17.16639266,16.72884186,14.96924927,14.77137221,11.30644361,0.593087559,0.682994502,0.988452545,1,1,0.997626801,1,0.896934674,41.9980952,-93.69336973,2015,IAH1
TX951/LH195,WIH2_2015,N,49.6,860.4833289,0,0,279,179,65,64,3.126774188,2.655000041,4.103605878,5.336067251,1.868823528,3.142847566,3.066358713,6.463272165,3.426278957,96.92999983,15.93000025,53.58117651,186.0694135,5.435882344,36.03705852,132.4747064,52.80117733,103.4994124,19.63646212,20.57311455,21.5892617,21.07111177,18.36300238,19.20517036,18.54583572,13.68038168,11.37476292,15.6409678,24.97666677,26.11823115,28.09529077,27.51588227,27.91298604,26.4469062,23.95331443,17.63645543,3.355806466,13.62666686,13.88922494,15.17788174,17.2276475,16.92946091,13.73434519,12.63733902,6.343913375,5.370860554,11.93138906,12.65256426,14.04290221,14.43586033,14.57588984,12.76646014,11.49482956,7.023163717,0.588214292,1,1,1,1,0.979783322,0.914260835,0.715230077,43.3264485,-89.33359975,2015,WIH2
B14A/OH43,MOH1_2015,N,14.4,731.1212129,0,2,220,90,76,74,3.914838722,3.002727248,2.7038834,5.646226268,2.268750012,1.183333344,4.736744086,1.740401796,3.666491943,121.3600004,33.02999973,34.41999933,178.8712478,5.868750036,10.6500001,140.2618746,11.88312507,113.6612502,18.81846694,18.88703156,16.92919735,21.70591481,15.72154266,19.94530069,18.47422179,20.12873028,17.02653892,18.28451609,18.00181831,23.77805456,28.93028285,29.85593748,31.76118019,30.42140763,28.58050013,28.43143147,5.857096827,7.500000065,15.21487777,17.6487962,21.67281234,21.45979159,20.28182538,17.09899995,17.28669369,7.068544315,7.302193139,11.97142579,15.39796361,17.76437491,18.61048589,17.380694,14.99182695,15.05317439,0.723283405,0.814935086,1,1,1,1,1,1,38.8965375,-92.20800417,2015,MOH1
B73/PHM49,WIH1_2018,Y,19.528,776.9192635,0,2,266.8,130.2,69.2,69,1.609999989,7.097692302,4.543300024,5.384655594,12.90857152,6.684415526,1.835393967,1.490247701,3.282350194,49.90999967,92.26999992,56.1414287,188.537143,17.774286,73.52857079,76.14071582,18.50214262,100.642856,20.21844376,17.61529163,19.67186989,21.74517717,19.19342093,18.08513378,19.62003162,16.98075827,12.74863056,13.31193533,16.25923072,24.73561688,28.00164855,31.39095186,28.11097395,26.99453296,26.15077082,19.9357303,1.183225821,5.521538512,13.28283365,14.89542408,18.89249983,17.62870117,14.61713968,12.9208708,8.385953947,4.208379921,6.163069931,11.75441076,13.86262536,17.16453014,14.91796624,13.29691021,12.54059059,8.511099252,0.430714275,0.66777473,1,1,1,0.987929958,0.939058758,0.805939432,43.0544,-89.5317,2018,WIH1
CG44/CGR01,GAH2_2016,N,10.95,731.1212129,0,2,238,187.5,45,44,1.486129045,0,7.316392826,2.079782856,1.718421064,1.264671045,2.43256314,4.61773679,3.235456168,46.07000041,0,60.50999928,55.97210474,3.436842128,10.11736836,67.31736801,23.15894711,100.2847377,20.21189387,22.87583466,19.10112302,21.34036575,17.85876091,19.83818451,18.50479945,15.9975398,17.29687983,27.80677426,30.50400009,32.06010812,34.2138269,34.93842035,34.86282896,34.62455114,33.33373696,32.80003392,13.8351613,16.55600014,19.35906305,20.32019684,22.9621054,21.76434208,22.04984942,22.29670187,20.14649938,13.32566871,15.60302283,17.72531793,18.78372546,20.36638125,19.89190838,19.9091667,19.70080105,18.42340329,1,1,1,1,1,1,1,1,33.717295,-83.3110275,2016,GAH2
B14A/OH43,WIH2_2016,N,24.6,749.1418061,0,30,286.5,153,62.5,62,2.185483832,6.563333432,3.447094458,4.124693788,6.707159024,6.158880111,5.945293137,1.654273513,4.758742445,67.74999878,39.38000059,44.45545418,149.2718189,18.91272705,63.86318129,228.7613642,17.11772738,143.1609097,20.07161814,17.64681498,20.48120554,20.03716075,21.00097141,18.73971629,16.31911952,14.94670844,10.3303759,18.34677419,27.65666644,25.59626749,27.3504729,29.44640147,29.15349181,26.70938079,24.21329019,20.37268081,4.840000014,15.2516667,12.43660419,15.21846351,16.18390156,17.81047537,15.29826924,12.0891497,9.537770322,6.76617685,13.67923016,11.77429452,13.6256578,15.0809804,15.56950508,13.35737665,11.10536848,8.849967039,0.729688939,1,1,1,1,0.998061418,0.979766622,0.886131912,43.32649075,-89.33882925,2016,WIH2
PHN11_PHG47_0251/PHB47,IAH4_2015,Y,15.9,702.1595451,12.5,2.5,244.5,113.5,65,64,1.42451612,4.854615514,2.513668144,6.351127419,5.46999979,2.154687441,1.85099418,0.335758934,4.064770202,44.15999973,63.11000168,35.58999979,218.2399999,10.93999958,20.30812445,58.48687407,2.377500039,125.1143763,19.83997888,19.28772805,16.02270398,20.69822917,17.27718186,21.35831173,20.17303565,19.59360772,15.6142427,15.83032262,16.78769229,22.26164163,27.88725423,29.37999988,31.52784708,28.69895342,30.18404469,25.46833276,2.473548389,5.024615425,13.48280789,16.59868734,20.37374985,19.78628468,17.37298211,16.89515858,12.68514048,5.318693913,6.228847238,10.78291245,14.47529064,16.87687486,17.66054739,15.18141656,15.71210426,12.05907357,0.585391697,0.659230777,0.98994413,1,1,1,1,0.952600636,41.19970961,-91.49362406,2015,IAH4
B97/PHB47,KSH1_2016,N,14.7,794.1932893,0,2,170,75,91,91,0.381562503,5.593749881,9.031136959,3.981909994,0,0.897724769,5.011421387,3.322424253,5.670073263,12.2100001,44.74999905,140.9509078,148.5090918,0,8.374091108,139.438637,19.93454552,175.7722711,18.43315426,14.04582843,18.34613738,20.88446512,22.70328743,20.59441801,18.34986672,18.15379387,17.32510191,19.15124996,21.70124984,22.33901244,27.19377063,36.31272689,35.17540036,32.01078432,33.85633352,30.76895891,2.130625044,11.46499991,9.568238579,14.2621368,21.58727247,22.04353923,20.78061301,22.71134866,19.49139311,6.3158573,9.667291017,9.626890379,13.35418843,19.56599107,19.14397536,18.06824645,19.12054732,17.03744615,0.741573662,1,0.921279778,0.986042268,0.991287871,0.998977631,0.993550002,1,39.14480675,-96.62898225,2016,KSH1
B73/PHM49,INH1_2018,Y,22.99,850.8937989,0,2,247.5,122,65,64,2.767096756,4.68454543,2.7337539,2.608245307,0.180000007,3.094468228,3.412660528,0.546071422,1.653962344,85.77999943,51.52999973,31.28214284,86.61642764,0.256428582,29.52071404,116.6621433,3.926428522,50.80214219,18.97651723,17.84080185,18.4751702,21.91502565,21.1577316,19.53552192,18.82147066,19.16946561,15.73843824,16.02451609,18.1199998,25.33039297,28.95851984,31.36964308,31.15694425,28.16765345,28.4284546,26.00206774,3.260645186,6.861818249,15.08608447,16.0398559,19.18499974,18.88806934,16.73005964,15.8360335,13.18834038,5.572938243,7.259226835,12.75390782,14.76719288,17.27732141,17.05840253,14.63863294,14.40004061,12.39915253,0.613732714,0.707012975,1,1,1,1,1,0.979968538,40.4787825,-86.9898145,2018,INH1
B73/PHM49,ONH2_2019,N,17.7,731.1212129,2,1,245,116.5,59.5,58.5,3.148749955,1.707142813,2.884788786,4.447732757,0.559615387,2.381315681,1.591062148,2.963873616,2.693056068,100.7599986,11.94999969,28.24076917,155.5976948,1.398461539,27.51692318,83.67846091,41.8892306,82.50307587,19.66548085,22.32332843,21.1459014,19.53903082,19.21471346,16.24443645,13.80926932,11.15414419,7.415876262,21.25437486,24.3300002,28.12065395,27.65940311,26.58807711,26.0777262,22.19925608,19.8977064,9.549499144,11.33624993,14.43999985,17.94791472,17.45486711,16.31807709,16.95925516,13.13253797,10.95349597,1.834706344,9.515816833,11.92539607,15.12217856,14.69848405,13.62366511,13.69445237,10.64536319,9.344594814,3.453371008,0.985803572,1,1,1,1,0.93986372,0.838029257,0.289255913,42.45221275,-81.881844,2019,ONH2
CG44/CGR01,TXH1-Late_2018,N,11.25,707.9518787,0,2,236,82.5,56,56,3.579375003,7.22999986,0.880950212,3.393996506,5.74642872,3.619146949,3.455600496,0.428285708,2.278709721,114.5400001,43.37999916,11.7107143,109.309285,11.49285744,35.41714406,87.15857094,2.141428539,70.64000136,15.18905504,16.98149872,20.4111462,19.99876216,15.81608334,20.1152116,19.58230121,16.39417859,18.61523184,25.42156261,25.48166672,24.9240565,29.86096768,30.55928573,31.11103384,33.47173554,33.67857067,35.62923946,13.73406251,14.7233332,12.14174484,16.97683375,21.17380969,19.92907914,21.60030195,24.8844286,24.53525352,12.24876106,12.9546326,11.47321097,15.6369769,17.86869493,17.49319399,19.34856645,20.63058471,20.90474588,0.995234379,0.961607144,1,1,1,0.999944236,0.999152383,0.999033412,30.546318,-96.4329965,2018,TXH1-Late
B14A/H95,SDH1_2015,N,22.7,676.4158404,0,1.5,143.5,83.5,80.5,75,1.890000034,2.68444448,2.847212523,0.928406021,1.08916667,1.213193166,1.12388612,3.994558873,0.570569385,58.59000105,24.16000032,33.86000057,31.14874977,1.720000006,12.77624983,39.02562428,27.90249949,17.65812508,21.16446504,23.3864585,24.03054242,23.94878495,21.74335716,21.42490048,20.60212775,16.27746828,15.18579983,19.04290341,22.5888888,27.20826416,30.46229654,29.54760476,31.86073879,31.47770382,29.48664523,24.89733582,4.208709664,8.468888919,11.69082143,14.25969647,14.29062517,16.06534098,14.02269822,14.11578116,6.942900096,6.807516906,9.210660666,12.27390437,14.67606113,14.18888263,15.81431879,15.00552731,14.17539039,9.834808296,0.77025346,0.983690483,1,1,1,0.983472358,0.961069402,0.950039755,44.208745,-102.928745,2015,SDH1
W10004_0216/PHZ51,NYH2_2015,N,16.7,731.1212129,0,7,248,134,87,87,3.814193487,2.822857129,1.806874641,1.427310218,14.28882354,6.323155046,2.553769654,1.263651931,1.70374005,118.2399981,39.5199998,23.5252947,50.99705838,17.86235295,65.18176435,90.43176518,10.71352917,51.74117684,19.21827184,21.58410556,20.44972798,21.8367517,17.34067749,18.34945618,18.49425604,17.55625849,13.84215422,11.26903224,15.86071418,24.70888252,27.12764594,29.5805878,28.55383422,27.75922879,25.11594081,20.73318661,0.676451599,3.065714287,12.68317757,14.19692254,19.48862723,17.66257776,16.12899413,12.03346763,8.797239788,3.458861152,5.522653893,11.65565145,13.2498794,16.56577659,15.18766176,14.16580901,11.53845799,8.731216192,0.261509218,0.568112238,0.971160735,0.994106254,1,0.999864887,0.980226591,0.898542131,42.7324825,-76.65277775,2015,NYH2
LH195/LH82,IAH1_2017,Y,17.625,756.2213249,0.25,8.5,170,72.25,65,64,3.40562493,4.965384584,4.756276119,1.833606587,3.814090996,2.221484887,3.670808328,1.81325484,2.347473118,108.9799978,64.54999959,71.28272616,63.78727258,4.177727374,22.83863677,118.9068186,13.7622725,72.03681816,16.19865167,17.41178014,18.84198651,22.07722619,19.57094626,20.6423577,19.65334879,19.12382584,16.87809105,17.11343735,15.37846162,22.95951679,28.09807267,26.50742381,30.27960591,29.79948923,26.92834941,26.37674051,5.413125027,4.923076978,11.46549016,14.16962528,11.61757578,16.65775237,16.66504091,13.38757222,12.41510662,6.530778339,5.768563812,10.45370215,13.71965113,11.94783378,15.64262598,15.39964617,12.71239892,12.1737806,0.629988832,0.555054952,0.946458762,1,1,1,1,0.998130952,41.19924609,-91.49402296,2017,IAH1
B73/TX779,WIH3_2020,N,25.35,678.3466183,0,0.25,290.75,170.25,77.5,74.75,2.733870995,5.446666638,6.112394342,4.74655674,3.655208389,1.04360979,2.527373572,3.69928986,2.61452892,84.75000083,32.67999983,82.9068754,167.6149986,8.003125131,12.58312517,113.8450009,40.74312496,78.93437568,20.41919384,18.2775027,21.33639865,20.40337995,19.49413761,18.99324058,17.80850823,14.15156863,10.1168501,15.48354838,26.52499994,25.39100386,27.30541678,28.00124967,27.24401428,25.77617537,21.78088819,14.67245705,3.106129019,15.18500026,12.31273591,15.12317531,16.14624966,16.31340126,13.17330579,9.92591724,4.431311843,5.287102842,13.2823578,11.70416503,13.61992535,14.28505882,13.97808988,12.29059579,9.657643491,5.630137727,0.571854837,1,1,1,1,0.965668942,0.879609054,0.560799012,44.115703,-89.54491325,2020,WIH3
TX951/LH195,NEH3_2015,N,23.35,691.8620632,0,3.5,229,110,63.5,63.5,3.231250057,0.918000031,0.565093977,1.286692195,3.19749999,1.391136354,0.258061221,1.474667183,0.155891338,103.4000018,4.590000153,6.150000095,39.04749978,4.720000029,15.30249989,11.17999983,14.52874985,4.648125023,21.79127574,25.69442635,22.86725485,21.82271665,15.26317632,20.59079,20.06412842,16.27968968,13.53861776,24.28750017,32.64599991,30.58771447,32.67731329,28.91593772,29.87238656,30.80707127,25.39031645,21.32018275,9.278749934,13.0079998,13.8828633,15.7826582,17.05531204,14.62710229,13.18313307,8.87540479,3.334017086,10.46257825,15.28330691,14.45465852,16.22005678,15.0938879,14.496454,14.53020136,10.90039565,7.851747396,0.909587052,1,1,1,1,0.965712824,0.862507779,0.80953931,41.15824525,-101.9872958,2015,NEH3
B14A/H95,NYH1_2018,N,22.85,731.1212129,4.5,4.5,250.5,126.5,68,68,4.394516057,1.637142931,0.546464292,3.461265884,6.062261837,4.338061718,2.067540981,1.177456758,2.359527655,136.2299978,11.46000051,7.340000123,113.5449994,14.95785693,45.27285745,83.63714323,15.50214277,71.28500016,21.14905797,19.51909583,22.50012197,20.49014312,17.37909559,18.62357236,17.54437735,14.42309006,11.11333684,16.43838702,24.34714304,24.48084385,28.4079325,28.47095262,28.85558784,26.25577716,21.21730113,17.53723965,4.181612903,13.18428578,11.78804566,16.02970596,18.15166677,17.53428468,14.37510127,9.649634667,6.532510054,6.046172102,11.82070517,11.18993529,14.50776692,15.35223703,15.26441478,12.8637381,9.179788733,7.084201569,0.564688941,0.946581643,0.98880424,0.99833546,1,0.984010821,0.898581807,0.740508559,42.72940418,-76.65161667,2018,NYH1
B37/H95,TXH1_2020,N,12.525,782.9304185,0,2,193.04,71.755,70.25,69.25,2.284333333,0,4.613530444,2.949806388,1.362941181,6.741056464,2.844869093,3.829088224,2.301094231,68.53,0,55.97058804,110.7988238,1.362941181,71.52235312,82.32059028,18.97352936,69.29117607,13.91343843,13.3863348,15.08816438,19.79337859,19.48130546,19.24170726,19.77113757,20.7945973,17.91495332,20.02266652,27.17999992,26.60815942,26.52479293,29.39617636,29.12989124,32.2266946,33.03076485,34.59511331,6.794333295,17.20400028,15.2455437,13.65359797,17.29686298,16.61337131,20.73348334,20.06167624,24.24037069,7.901247141,14.27292515,13.38037585,12.76738989,15.58009007,15.11126374,18.39892159,18.53701373,20.50202011,0.821357143,1,0.99243504,0.993791594,1,1,1,0.999042533,30.53781575,-96.4283715,2020,TXH1
B73/MO17,TXH1_2019,N,9.705,834.0960316,0,0,204.5,72.5,69.5,69.5,1.71448275,0.072857141,3.656594302,9.095434564,0.409285716,1.207678571,5.355850783,1.246142852,1.574419343,49.71999974,0.50999999,52.00785631,328.2121388,0.592857139,9.661428571,146.4478573,6.531428533,47.51499965,15.42805705,20.52131135,18.76898834,18.57032559,21.42349659,18.85281525,20.14881361,21.03072751,19.84089234,18.45000007,25.76428577,24.43254944,27.27586732,31.09000002,32.37866099,32.72435205,34.04471448,34.98200776,6.826206914,10.35000004,10.67963154,14.78766739,18.65857179,21.85071427,21.02442735,21.79614282,22.6049739,7.457816468,11.1589152,10.85119479,13.46630403,16.91193677,19.11412105,18.84765314,19.77807102,20.01419559,0.749667494,1,0.945308164,1,1,1,1,0.999698925,30.546318,-96.4329965,2019,TXH1
B73/MO17,IAH1_2017,Y,18.1,720.823731,2,3.5,221,113.5,65,64,3.40562493,4.965384584,4.756276119,1.833606587,3.814090996,2.221484887,3.670808328,1.81325484,2.347473118,108.9799978,64.54999959,71.28272616,63.78727258,4.177727374,22.83863677,118.9068186,13.7622725,72.03681816,16.19865167,17.41178014,18.84198651,22.07722619,19.57094626,20.6423577,19.65334879,19.12382584,16.87809105,17.11343735,15.37846162,22.95951679,28.09807267,26.50742381,30.27960591,29.79948923,26.92834941,26.37674051,5.413125027,4.923076978,11.46549016,14.16962528,11.61757578,16.65775237,16.66504091,13.38757222,12.41510662,6.530778339,5.768563812,10.45370215,13.71965113,11.94783378,15.64262598,15.39964617,12.71239892,12.1737806,0.629988832,0.555054952,0.946458762,1,1,1,1,0.998130952,41.19924609,-91.49402296,2017,IAH1
B73/PHN82,MIH1_2016,N,19.6,695.7236189,0,8.5,236.5,126,64.5,63,3.213870927,0.372000003,1.277668238,2.072144594,0.204761899,2.382636341,6.277866916,3.129595251,4.115734243,99.62999874,1.860000014,16.77857134,74.4033328,0.614285696,24.34142835,217.3680916,23.88571438,123.5814282,20.04481233,22.69628944,22.57460654,21.19066928,19.62511718,19.41470496,17.43536011,14.16523572,12.41239439,17.74322581,29.20999985,25.57947765,28.1508514,27.23547651,30.32783564,28.27294529,26.6388532,22.50219404,5.299677434,16.33600006,11.90361174,14.70447611,15.74579377,17.52671,16.25511672,15.58650841,10.86825081,6.615827776,14.89908974,11.62365975,13.82943527,13.70908531,16.01583991,14.48649579,13.48265,10.09129455,0.734400922,1,1,1,1,0.999987733,0.99326559,0.936590208,42.41206675,-84.2952625,2016,MIH1
W10005_0107/PHB47,WIH1_2017,Y,18.05,716.9621753,0,2,245,108,75,75,3.894838602,1.694000003,3.49156578,6.251914317,26.29780264,12.3515148,1.782621048,1.031219451,2.019413967,120.7399967,16.94000003,60.77000046,238.2086357,55.48409002,148.2181776,77.27181808,11.13545426,60.74545419,17.96009764,21.56986256,18.71582301,20.73316127,19.69440102,19.58726141,19.1692292,15.69151392,12.21998586,16.03451621,20.2119998,20.22998088,26.71060266,27.00553033,27.16428033,24.80808837,24.03641879,21.845045,3.37838715,6.260000002,9.268565708,14.6662765,15.35575767,16.21109857,13.17589581,11.52521119,9.509429623,5.507434962,7.720411242,8.664602637,13.14891279,13.46068042,13.9043846,11.67856357,10.90146065,9.608265423,0.606900932,0.8735357,0.867893568,1,1,0.998220242,0.971647403,0.89569217,43.05668125,-89.5308135,2017,WIH1
B14A/MO17,GAH1_2016,N,13.6,708.5954713,9,11.5,200,100,60,58,6.466250051,4.395000041,0.566421492,2.549627568,3.17469698,5.859943136,4.096967014,2.330999996,2.476261007,206.9200016,35.16000032,6.21000006,86.0200003,9.52409094,52.42727233,105.6731797,11.65499998,76.76409122,15.95696127,18.25385642,20.33100053,20.74024209,20.01064868,19.54302735,19.38198769,19.26953352,18.21451922,23.62687498,22.98249984,28.56134937,29.4983659,33.37075638,32.62719045,33.25026907,34.51499955,33.94928126,11.29749997,10.47000009,15.64744728,16.2846205,20.78287862,20.61269551,21.56927107,22.51809092,22.40467728,10.53971422,9.962440438,14.36481163,15.11313475,19.02952924,18.56859265,19.26668195,20.34390963,19.99415841,0.993928569,1,1,1,1,1,1,1,31.5079175,-83.55854775,2016,GAH1
PHG29/PHG47,GAH2_2017,N,14.7,780.6778444,7,4,182,117,48.5,50.5,5.215806507,2.59000005,0.877047008,6.976424555,36.66571527,11.68990473,2.766634194,6.717714339,5.237281131,161.6900017,18.13000035,10.98809533,219.4985743,69.630002,116.6428568,77.55666748,33.5885717,162.3557151,18.59375843,20.97986943,21.98193589,18.54567619,14.33990901,17.7663424,19.78523868,18.86354985,17.57616326,25.93516134,24.17571449,30.47339418,29.31252372,29.52904774,29.72980419,32.72601502,32.10511542,30.76784952,12.17225799,9.938571385,16.15324828,18.06353156,20.43476164,19.51114297,21.20992787,20.86352373,19.95543778,11.90954616,10.38538115,15.45655397,15.75249851,16.98190469,16.63412837,18.90169131,18.47155665,17.41241638,0.999631335,0.985714285,1,1,1,1,1,1,33.727145,-83.29821525,2017,GAH2
LH74/PHN82,TXH2_2020,N,14.125,760.0828806,0,2,207.645,55.245,68,67.25,2.284333333,0,4.621906019,2.982124861,1.655000005,6.689114015,2.894056698,2.615892851,2.528400138,68.53,0,55.88714266,111.3664289,1.655000005,70.91857161,82.98143064,12.87071426,76.16571382,13.91343843,13.3863348,15.08661116,19.80328892,19.03358821,19.2160028,19.61198116,21.5690046,17.9190584,20.02266652,27.17999992,26.59088772,26.49063582,29.80749984,29.13094588,32.17534358,33.00407163,34.57616138,6.794333295,17.20400028,15.22554111,13.60666406,17.96904786,16.63267817,20.78659354,19.79317827,24.13923583,7.901247141,14.27292515,13.36557264,12.73068931,16.08957262,15.12192719,18.39831967,18.39239984,20.46927813,0.821357143,1,0.992404768,0.99375244,1,1,1,0.999043315,30.53825625,-96.42790225,2020,TXH2
LH212HT/LH195,NYH2_2017,Y,17.2,736.9135464,0.5,13.5,261.5,124,76.5,76.5,4.985806354,2.593333337,3.453715005,5.89688957,0.948070192,3.208418109,2.379655727,2.694333021,3.397972982,154.559997,23.34000003,55.2357889,222.9889478,1.763157895,41.81263091,117.7794744,23.637895,104.1910535,18.91896409,18.22902181,21.62310913,19.28169434,21.2024166,18.91678159,16.97406986,13.88043676,9.439494818,16.54903238,19.80111122,22.34881997,25.65461899,27.16105275,25.3148988,23.28803047,24.25146582,18.24460841,5.239677404,10.2422222,10.55939387,15.21770316,15.87359667,14.84504335,11.5614249,11.15398494,7.352427253,6.267898103,8.570747831,9.793885142,12.80097944,13.68904673,12.46138399,10.55155578,10.87663924,7.688896934,0.638917053,1,1,1,1,0.981507475,0.966916282,0.722284214,42.73248125,-76.65275025,2017,NYH2
PHG39/TX205,GAH1_2017,N,13.15,724.6852867,0,1,180,100,63,64,1.929687474,5.730000019,0.343252103,3.449286585,2.107618968,4.586772466,5.884115127,3.462793619,5.790337869,61.74999917,45.84000015,4.185237975,115.4628578,3.161428452,44.24761888,164.3961923,18.00285697,179.500474,16.80249013,20.13732326,20.17342047,19.27076224,21.20480144,16.6798163,18.15858085,19.37517402,17.73704587,23.5584375,24.76124978,28.73884546,29.02932191,29.79031757,30.11825943,30.88468736,33.04158726,32.39466959,8.654999979,9.073749959,13.81601286,15.94569083,16.85142871,20.07059283,21.0580027,22.24365102,22.03411694,9.935165979,10.3201674,13.6844889,14.81363998,15.5596332,17.10789698,17.95959829,19.61349988,19.1980032,0.8834375,1,1,1,1,1,1,1,31.50794425,-83.55854475,2017,GAH1
TX714/PHZ51,OHH1_2016,N,16.9,730.4776202,0,47,297.5,148.5,65,64,4.328064465,1.776000023,3.915145208,2.580740659,3.890757626,4.17049496,5.079069289,3.957741935,3.614594814,134.1699984,8.880000114,44.70363614,85.9177286,9.330454675,39.94818193,160.1854537,27.69772666,110.1186362,18.3437644,22.24283047,20.73146956,20.35982518,19.15233416,18.82824642,16.72048491,17.98730955,14.71797893,19.63580645,29.63200035,26.56953589,28.59263588,29.59106055,30.69283836,29.21689182,28.27188687,26.30588322,8.120967747,16.89599972,14.9739129,16.70528562,18.30318191,19.74443426,18.9160149,15.44500838,13.40262461,8.117657052,15.32722009,13.17028057,14.81678154,15.96857054,17.23303236,16.11713161,14.21502474,12.5845871,0.859331788,1,1,1,1,1,0.999172078,0.989049277,39.860924,-83.6755995,2016,OHH1
W10001_0022/PHB47,OHH1_2017,Y,17.7,731.1212129,0,2,229,110,65,64,4.401935447,12.29571451,4.299880116,6.252045262,18.36299991,4.892395558,3.195317293,3.431958172,3.794688752,136.4599988,86.0700016,53.63949916,223.8204996,40.86499989,50.26800107,124.097,30.99400014,115.4320013,19.0647902,19.03427505,21.00226491,20.15032754,19.69555429,18.89580098,18.69837911,16.0400155,13.85510684,20.47903239,25.43142836,25.24002704,27.25803818,28.09541678,28.73270468,26.30456447,24.69395371,24.25720733,8.011935501,13.44999967,12.59882409,15.91673102,16.75358336,18.39824095,14.97688189,13.11535887,11.81284403,8.407228033,12.106522,11.63721293,13.8931373,14.6377479,15.63224373,13.07252875,11.66012039,11.13333271,0.85352535,1,1,1,1,0.996926048,1,0.96495674,39.855785,-83.66477375,2017,OHH1
PHP02/PHB47,MOH2_2015,N,14.65,731.1212129,0,1,197.5,82.5,69.5,67.5,3.914838722,3.534545422,2.891676029,5.446623968,2.505882375,1.1137255,5.068586465,0.980448186,4.011119538,121.3600004,38.87999964,35.23176398,173.6929392,5.011764751,10.0235295,148.9223525,6.487058864,124.3447057,19.08701148,18.12534948,17.16717858,21.59629129,16.88945411,20.34516158,18.32895435,19.90608894,16.95494386,18.756129,18.24727275,23.87322904,29.02836507,30.59176479,31.93248319,30.27285599,28.73220747,28.34062618,6.152580692,8.059091026,15.30129973,17.80114352,21.94705907,21.39261428,20.17023127,17.40519331,17.20941189,7.288196993,7.58478923,12.05891064,15.51775091,18.26941193,18.66254873,17.2518739,15.21359182,14.97078901,0.75554147,0.814935086,1,1,1,1,1,1,38.89807917,-92.2079,2015,MOH2
2369/LH123HT,OHH1_2016,N,18.7,722.7545088,0,36,292,141,65,64,4.328064465,1.776000023,3.915145208,2.580740659,3.890757626,4.17049496,5.079069289,3.957741935,3.614594814,134.1699984,8.880000114,44.70363614,85.9177286,9.330454675,39.94818193,160.1854537,27.69772666,110.1186362,18.3437644,22.24283047,20.73146956,20.35982518,19.15233416,18.82824642,16.72048491,17.98730955,14.71797893,19.63580645,29.63200035,26.56953589,28.59263588,29.59106055,30.69283836,29.21689182,28.27188687,26.30588322,8.120967747,16.89599972,14.9739129,16.70528562,18.30318191,19.74443426,18.9160149,15.44500838,13.40262461,8.117657052,15.32722009,13.17028057,14.81678154,15.96857054,17.23303236,16.11713161,14.21502474,12.5845871,0.859331788,1,1,1,1,1,0.999172078,0.989049277,39.860924,-83.6755995,2016,OHH1
B37/OH43,OHH1_2015,Y,18.2,729.8340276,0,3,262,119,64,61,4.820000016,2.056666652,1.801667061,2.430255425,2.070588264,2.75488235,3.664772063,1.623969288,1.874022108,149.4200005,12.33999991,20.27235275,82.00588303,2.23529414,26.29176468,128.0200007,12.16764697,57.18411674,17.71339239,20.831882,20.85048625,20.93566426,20.28419298,19.59839119,17.66236547,17.23782846,14.83481447,16.95064511,28.03666687,26.64173705,29.01382079,31.07970569,30.59522857,27.99762273,26.69097183,23.34659959,5.9283871,15.42166694,14.66308043,16.74801267,19.23764672,18.74322206,16.69895781,13.90980629,10.26308727,6.580773377,14.04730329,13.19467995,15.08203889,17.16864649,16.69143216,14.53513226,12.92347397,10.29932856,0.672569122,1,1,1,1,1,0.994932126,0.947361455,39.855785,-83.66477375,2015,OHH1
F42/MO17,MOH1_2016,N,17.5,731.1212129,0.5,1.5,265,120,57.5,55.5,2.465483877,8.058000231,0.264259377,6.282521268,1.94553035,9.25680559,4.358907121,3.354664451,5.453130527,76.43000019,40.29000115,2.879999995,172.8372758,4.262727369,83.20363667,125.2090916,21.13363606,168.2240918,20.2309363,16.93509369,22.49829557,20.20959989,18.68177986,19.21408964,18.0090922,17.17714413,15.87534947,21.83193548,27.56600037,27.88644765,31.21215235,30.25795442,31.2505745,30.57423065,29.80077912,28.25339236,10.073871,16.74400005,16.26474463,19.86215984,19.98371223,20.49117413,20.76153791,19.91431794,17.56318368,9.497798547,14.24343349,14.21296425,17.47336946,17.12232598,17.8699151,17.65104862,16.90998551,15.09561117,0.937315665,1,1,1,1,1,1,0.999442641,38.8955475,-92.2072025,2016,MOH1
WF9/H95,DEH1_2017,Y,20.1,693.7928411,0,27,245,120,71,70,2.917187458,6.201428686,3.00780289,3.517983876,1.211428521,1.632751291,5.214259368,11.31934688,4.882730708,93.34999865,43.4100008,45.34571489,126.7790489,1.268571377,15.48333303,157.8533328,69.24809492,151.3147631,17.05647962,17.73228645,20.71096481,19.57386043,19.15556694,20.88592809,18.21237176,18.15756056,16.58607394,20.26624998,24.66142872,21.72245043,26.82298965,30.35071437,30.31148162,30.69555299,28.43090921,27.29702356,9.32593758,14.19571427,10.68752201,16.75855213,19.906349,19.88150788,21.21690322,18.72144455,17.91444491,8.690479953,12.08402314,9.787934269,14.12431868,17.15482568,17.14050735,17.94790556,15.63546309,14.74613823,0.907287956,1,0.959736116,1,1,1,1,1,38.67025825,-75.4333645,2017,DEH1
B14A/OH43,KSH1_2015,N,14.55,744.6366578,0,2,229,110,85,82,0.688124985,3.518749885,2.537239536,4.634326915,6.340784251,4.013516285,5.753010874,3.95559662,1.81791271,22.01999953,28.14999908,47.40176476,147.1705882,9.165882307,38.18235242,161.646473,23.74705871,56.35529401,19.48910828,20.34062409,19.21958791,21.30664108,18.00351726,18.80818483,18.60066932,17.86718078,18.78253622,17.69406253,22.96750021,19.85221485,29.31892792,29.11705877,31.41670577,31.16760655,30.50505886,29.96204923,3.297187492,8.938749969,8.792561365,16.998743,18.09705929,19.84989561,20.1377744,20.03282345,17.06836811,6.184738542,9.476230158,8.381520189,15.38816616,15.61697663,17.65547515,17.65556265,17.32458654,15.75670183,0.6778125,1,0.850138809,1,1,1,1,0.98304554,39.21641775,-96.60482225,2015,KSH1
CG60/LH162,NEH4_2015,N,14.55,792.2625115,0,2,190,105,65,49.5,2.821875036,0,3.668207424,2.0125769,1.951249957,2.654893884,1.684158262,0.190010425,1.166079967,90.30000114,0,33.89000034,59.04687595,1.951249957,28.04999942,59.1787506,1.401875056,35.09749981,18.84220009,27.31064491,20.41342533,20.52862815,19.03072298,18.81303122,18.33826559,17.15407273,12.68489203,24.01437524,30.79399948,29.66091772,30.90712841,30.81250072,28.65153035,29.50292414,26.73776808,20.93262179,13.35843744,15.59799976,18.4981335,19.26878801,20.26031268,17.34358901,16.24316685,11.04417556,7.09840123,11.80342709,15.44887437,16.14310254,17.09436255,17.53736601,15.18702607,15.25106182,11.88303257,8.618375536,0.931774556,1,1,1,1,0.97284651,0.984144349,0.784438609,41.16732275,-96.41663225,2015,NEH4
B37/MO17,MNH1_2018,N,22.495,682.208174,0,2,254,123.6666667,65.33333333,64,2.793871032,5.664285694,1.881383508,4.66962568,0.280777779,5.314848416,5.503097756,4.902593174,1.744490341,86.61000198,39.64999986,19.66333312,156.0266671,0.653333338,61.18466587,207.3246693,42.5680015,52.61600056,18.68617175,18.6483766,23.22190313,20.23498137,21.88409551,21.20453879,17.43849101,14.02805899,11.47763682,18.24580648,23.51142883,30.49568208,28.40295697,27.67288871,27.88288382,26.24424925,23.489937,17.2954947,6.62290317,13.35285704,16.1020056,17.07111629,16.25377796,15.7901465,14.83515609,12.42970144,6.347470975,7.12789267,11.15082684,15.42136783,14.91719499,14.1582049,14.10491894,13.08066536,11.20324133,7.126560519,0.79756912,1,1,1,1,0.978734696,0.910102722,0.699884152,44.07044721,-93.53494127,2018,MNH1
CG119/CG108,GAH2_2019,N,12.3,633.9387277,5.75,2.5,211.75,102.5,56.75,57.75,1.545000002,4.557500124,0.250380961,1.26115813,2.257142884,9.485350662,1.336144097,0.813952387,3.350460841,49.44000006,36.46000099,3.755714417,38.36428595,2.257142884,98.62571442,36.52428579,4.78428575,103.8642861,18.18435833,18.19265985,22.8847832,21.24247432,23.3434718,16.19739035,20.40643492,19.78647718,19.94823177,21.36937484,23.13125002,27.34691779,30.77499698,32.53285762,28.60028574,32.70957317,33.58714258,33.18838734,7.029687526,9.771250069,11.28150206,17.20030934,17.5714283,19.08651926,20.35438482,22.40104739,20.7990781,8.377064876,9.945548605,12.20340126,16.01551644,17.09277291,15.89283108,18.47046504,19.81563867,18.90725155,0.94271205,0.94334821,1,1,1,1,1,1,33.7204165,-83.308125,2019,GAH2
B14A/MO17,ONH2_2017,N,23.95,825.7293276,0,4.5,255,133,41,39.5,3.566774253,5.816000056,0.640467161,2.602850346,0.276190468,0.553043346,1.774150425,1.832219351,2.40528059,110.5700018,58.16000056,8.999047586,96.02571482,0.552380936,6.918571438,78.70857161,24.06619065,72.98142847,18.8542372,16.74867072,24.21291039,19.37094181,21.19715784,20.84705237,17.61151759,14.253685,9.927824707,15.7532257,18.68899984,23.40262829,26.34974997,26.59380949,26.86065013,24.57225317,22.91748616,20.00596815,5.764838726,10.96000004,12.03359118,16.18007827,16.63301581,15.91920336,13.14574071,11.27177775,10.10650586,6.141928302,8.38660306,10.68394655,13.52521671,13.7753985,13.64998718,11.58821465,10.41552723,9.107414304,0.598502303,0.966571423,1,1,1,0.999084662,0.956230826,0.8300025,42.45293025,-81.8827315,2017,ONH2
LH195/LH82,GAH1_2017,Y,13.6,739.4879169,0,2,150,65,62,61.5,1.929687474,5.730000019,0.343252103,3.449286585,2.107618968,4.586772466,5.884115127,3.462793619,5.790337869,61.74999917,45.84000015,4.185237975,115.4628578,3.161428452,44.24761888,164.3961923,18.00285697,179.500474,16.80249013,20.13732326,20.17342047,19.27076224,21.20480144,16.6798163,18.15858085,19.37517402,17.73704587,23.5584375,24.76124978,28.73884546,29.02932191,29.79031757,30.11825943,30.88468736,33.04158726,32.39466959,8.654999979,9.073749959,13.81601286,15.94569083,16.85142871,20.07059283,21.0580027,22.24365102,22.03411694,9.935165979,10.3201674,13.6844889,14.81363998,15.5596332,17.10789698,17.95959829,19.61349988,19.1980032,0.8834375,1,1,1,1,1,1,1,31.50794425,-83.55854475,2017,GAH1
B14A/OH43,OHH1_2020,Y,22.75,641.0182465,0,4,229,110,56.5,54.5,4.175312527,1.24000001,2.003453903,2.609830299,3.238461531,4.458868342,3.000365612,1.621237519,2.44580479,133.6100008,6.200000048,24.41307693,78.60461595,5.612307695,46.13538504,105.0992289,18.40384625,73.98230748,19.06994028,20.34349766,22.26062964,20.30125672,18.94980258,17.72364635,17.47781057,14.69815231,13.31876726,20.75593752,29.31000023,26.9862925,30.26951119,31.92230738,29.63458284,27.3548547,24.45496262,20.91339716,9.301875014,17.61400032,14.18652547,18.22082699,19.47423084,18.74255468,15.66305293,13.07056974,8.164555027,9.098127154,15.53923951,13.05396234,16.29356655,17.69826911,16.21360084,13.84725457,11.75523116,8.713632263,0.810993302,1,1,1,1,0.998602591,0.941606618,0.857376019,39.85643475,-83.67288725,2020,OHH1
B14A/H95,MOH1_2015,N,13.9,731.1212129,0,1,205,100,80,77,3.914838722,3.002727248,2.7038834,5.646226268,2.268750012,1.183333344,4.736744086,1.740401796,3.666491943,121.3600004,33.02999973,34.41999933,178.8712478,5.868750036,10.6500001,140.2618746,11.88312507,113.6612502,18.81846694,18.88703156,16.92919735,21.70591481,15.72154266,19.94530069,18.47422179,20.12873028,17.02653892,18.28451609,18.00181831,23.77805456,28.93028285,29.85593748,31.76118019,30.42140763,28.58050013,28.43143147,5.857096827,7.500000065,15.21487777,17.6487962,21.67281234,21.45979159,20.28182538,17.09899995,17.28669369,7.068544315,7.302193139,11.97142579,15.39796361,17.76437491,18.61048589,17.380694,14.99182695,15.05317439,0.723283405,0.814935086,1,1,1,1,1,1,38.8965375,-92.20800417,2015,MOH1
PHN11_PHG47_0251/PHB47,DEH1_2017,Y,16.45,704.090323,0,1.5,219,96,63.5,63,2.917187458,6.201428686,3.00780289,3.517983876,1.211428521,1.632751291,5.214259368,11.31934688,4.882730708,93.34999865,43.4100008,45.34571489,126.7790489,1.268571377,15.48333303,157.8533328,69.24809492,151.3147631,17.05647962,17.73228645,20.71096481,19.57386043,19.15556694,20.88592809,18.21237176,18.15756056,16.58607394,20.26624998,24.66142872,21.72245043,26.82298965,30.35071437,30.31148162,30.69555299,28.43090921,27.29702356,9.32593758,14.19571427,10.68752201,16.75855213,19.906349,19.88150788,21.21690322,18.72144455,17.91444491,8.690479953,12.08402314,9.787934269,14.12431868,17.15482568,17.14050735,17.94790556,15.63546309,14.74613823,0.907287956,1,0.959736116,1,1,1,1,1,38.67025825,-75.4333645,2017,DEH1
PHB47/PHZ51,WIH3_2020,N,18.95,713.7442122,0,1.5,260,127,64,62.5,2.733870995,5.446666638,6.112394342,4.74655674,3.655208389,1.04360979,2.527373572,3.69928986,2.61452892,84.75000083,32.67999983,82.9068754,167.6149986,8.003125131,12.58312517,113.8450009,40.74312496,78.93437568,20.41919384,18.2775027,21.33639865,20.40337995,19.49413761,18.99324058,17.80850823,14.15156863,10.1168501,15.48354838,26.52499994,25.39100386,27.30541678,28.00124967,27.24401428,25.77617537,21.78088819,14.67245705,3.106129019,15.18500026,12.31273591,15.12317531,16.14624966,16.31340126,13.17330579,9.92591724,4.431311843,5.287102842,13.2823578,11.70416503,13.61992535,14.28505882,13.97808988,12.29059579,9.657643491,5.630137727,0.571854837,1,1,1,1,0.965668942,0.879609054,0.560799012,44.115703,-89.54491325,2020,WIH3
B73/PHZ51,WIH3_2020,N,19.75,713.7442122,0,1.5,271,140.5,69,67,2.733870995,5.446666638,6.112394342,4.74655674,3.655208389,1.04360979,2.527373572,3.69928986,2.61452892,84.75000083,32.67999983,82.9068754,167.6149986,8.003125131,12.58312517,113.8450009,40.74312496,78.93437568,20.41919384,18.2775027,21.33639865,20.40337995,19.49413761,18.99324058,17.80850823,14.15156863,10.1168501,15.48354838,26.52499994,25.39100386,27.30541678,28.00124967,27.24401428,25.77617537,21.78088819,14.67245705,3.106129019,15.18500026,12.31273591,15.12317531,16.14624966,16.31340126,13.17330579,9.92591724,4.431311843,5.287102842,13.2823578,11.70416503,13.61992535,14.28505882,13.97808988,12.29059579,9.657643491,5.630137727,0.571854837,1,1,1,1,0.965668942,0.879609054,0.560799012,44.115703,-89.54491325,2020,WIH3
CG108/CGR03,TXH1_2016,Y,17.7,731.1212129,0,2,149,48.5,64,64.5,1.633666698,16.13999993,0.99702422,4.719865603,0.129393939,3.277272727,13.06232457,0.703636358,1.017125621,49.01000094,112.9799995,14.5313639,177.3549991,0.33090909,36.05,378.0672674,3.179999969,30.53454577,13.9726292,10.72874144,17.88940951,17.80076093,20.55685321,19.77792414,17.90480363,20.8338604,20.14326093,22.32500016,23.95000022,24.48309256,26.40498513,28.5388636,28.63545455,30.12870319,34.35404525,35.58838723,6.034666632,13.33571414,9.675379644,13.12758779,15.78530267,16.33764454,20.13902853,23.08186362,24.00118421,8.473379033,11.29783551,10.5045992,12.46111665,14.43681279,14.72204148,17.12368238,20.53225114,20.87599038,0.915869048,1,0.972225207,1,1,1,1,1,30.54708625,-96.43393475,2016,TXH1
B73/PHZ51,ONH2_2016,N,19.7,732.4083981,1.5,3,259.5,132.5,75.5,72,1.435483875,1.740833327,1.463802716,3.022687524,0.150999999,1.134659085,3.046446673,1.693503778,2.765116665,44.50000012,20.88999993,18.84600039,117.1590009,0.150999999,12.25349994,101.0444998,13.16149993,84.26899996,19.72563927,22.19747464,21.68954048,21.77365896,18.98664827,19.92678304,16.69906166,15.68152671,12.9072029,14.10741935,17.58083336,26.00758685,26.04894451,27.78099985,28.79287246,28.2480382,25.9224786,23.75348014,4.257419363,7.13166666,15.03828811,14.1477789,17.72699971,17.33924119,18.24672102,15.95494667,14.17526013,5.131346137,6.986841243,12.85116395,12.65171997,14.84296497,15.26027205,15.31782021,13.26534606,11.67621189,0.511244241,0.799851209,1,1,1,1,1,0.975829282,42.4530035,-81.88279875,2016,ONH2
B97/PHB47,WIH1_2015,Y,21.05,705.3775082,0,0,262.5,141.5,65,64,4.730000059,9.059999784,2.430610682,6.190059866,3.242812514,1.739310909,2.563222068,2.582604527,2.064862235,151.3600019,54.3599987,32.30062549,198.0887501,6.485625029,21.11437514,113.2525011,35.42937557,62.48000012,19.32367544,22.19104989,23.8972515,19.04105101,21.62804324,20.72553659,16.09255797,13.7227876,9.595561915,19.95718755,28.15000025,26.05326099,28.85932006,29.07385437,26.51056077,24.82739399,20.18089026,14.51549808,8.517187543,15.30499983,11.82802944,17.48783518,16.48010375,14.49615378,12.31509137,8.581945626,2.680440183,8.558350873,13.98301754,11.81015597,15.26183828,14.95581898,12.98753542,11.68123469,8.628108428,5.087550731,0.777276777,1,1,1,1,0.929186389,0.833919484,0.505939954,43.05511725,-89.528525,2015,WIH1
LH195/PHZ51,MOH1_2015,N,13.675,731.1212129,0,0.75,205,98.75,77,76,3.914838722,3.002727248,2.7038834,5.646226268,2.268750012,1.183333344,4.736744086,1.740401796,3.666491943,121.3600004,33.02999973,34.41999933,178.8712478,5.868750036,10.6500001,140.2618746,11.88312507,113.6612502,18.81846694,18.88703156,16.92919735,21.70591481,15.72154266,19.94530069,18.47422179,20.12873028,17.02653892,18.28451609,18.00181831,23.77805456,28.93028285,29.85593748,31.76118019,30.42140763,28.58050013,28.43143147,5.857096827,7.500000065,15.21487777,17.6487962,21.67281234,21.45979159,20.28182538,17.09899995,17.28669369,7.068544315,7.302193139,11.97142579,15.39796361,17.76437491,18.61048589,17.380694,14.99182695,15.05317439,0.723283405,0.814935086,1,1,1,1,1,1,38.8965375,-92.20800417,2015,MOH1
B73/PHM49,IAH3_2019,Y,22.4,698.2979894,0,0.5,253.5,123.5,65,64,2.879677419,8.325833271,8.514982687,3.930253796,0.537380945,2.3054841,2.306432914,9.350841805,5.38576807,89.26999998,99.90999925,122.1842849,140.4857139,1.612142835,22.50785688,97.56999955,77.30999979,164.0414292,18.1142604,18.14433392,18.34133211,20.20102762,20.30083813,21.10542726,19.14151731,15.03963484,12.83068274,16.60032246,18.1858333,22.24543073,27.09611601,28.60416662,30.1634999,27.59661349,25.62734982,23.13272506,3.497096781,6.015833348,10.94521806,15.70806976,18.18130992,18.44873807,15.55405048,14.14793364,12.04513443,5.803122395,7.048807354,9.977529243,13.7421048,15.43701566,16.36698878,13.8976006,12.43400485,10.94701098,0.634539169,0.718095232,0.926337681,1,1,1,0.9932483,0.897879883,41.97593131,-92.24310603,2019,IAH3
W10001_0022/PHB47,NYH2_2016,N,20.8,731.1212129,5,7,169.5,75,71.5,69,2.034516133,1.030000001,1.88805842,0.867300396,1.140952366,2.326450204,3.376451109,4.287746575,3.208572451,63.07000011,12.36000001,22.4085716,34.4438095,2.622857094,25.59095225,116.65619,31.75809508,97.82571426,19.21240982,23.35584625,23.40556822,22.17883586,23.94456446,21.25361649,17.18897092,16.17245816,13.35906413,14.04935483,18.68749992,27.50851283,26.23633728,28.78071431,29.31692664,28.41638555,26.44500865,23.15297547,1.686774175,4.439999988,12.92699036,12.85534504,13.89476193,15.65588736,16.863818,13.58818034,10.55762265,4.511298309,6.607155497,12.88765676,12.33330427,13.7996272,14.74166699,14.82295673,12.66050813,10.26842414,0.447315667,0.804761906,0.999400038,0.994542932,1,0.999880088,0.994843294,0.949842165,42.726117,-76.655339,2016,NYH2
B97/PHB47,COH1_2017,Y,17.7,731.1212129,0,2,229,110,65,64,3.393124943,0,0.001708684,0.360843908,0.891428554,3.560382097,1.42287895,1.565670675,1.770870451,108.5799982,0,0.02904762,12.29476177,1.600476163,43.78523833,56.48285717,21.02523811,53.20285701,22.26802993,25.65694836,25.9931063,24.2875628,21.26982858,19.37652668,19.65631787,15.92591012,11.99136935,20.38624986,26.27857154,29.00990249,30.95750085,32.84396765,29.24597739,27.87075516,24.49812031,17.64004964,4.676250031,9.955714362,11.44166305,13.33492254,15.64190474,14.2894836,11.55992968,8.650869984,2.505724526,7.387813889,11.22152513,12.97827389,14.53136664,16.23032426,14.11586508,12.58015619,10.40568176,6.007000116,0.859799101,1,1,1,1,0.978368119,0.882220332,0.653649732,40.64850025,-104.9997825,2017,COH1
B73/MO17,MOH1_2_2018,N,17.73333333,731.1212129,0,2,232.6666667,117,61.66666667,60.33333333,4.419032262,0.120000001,6.56660792,4.995913726,0,0.865952386,4.867908623,7.318145406,3.629241153,136.9900001,0.840000004,71.60142667,150.6285707,0,7.793571472,145.6157139,39.85928573,112.0157138,18.39395777,18.46565301,20.1607481,20.70593221,19.87326009,21.97749135,18.06982858,17.46468943,16.31914076,19.5254839,22.76714298,27.16554273,29.60936822,31.6271427,32.32420578,29.51628185,29.85375934,27.04843165,7.99741943,14.14714282,16.43732974,18.81172612,21.79964249,20.71007941,19.44316189,19.21155699,15.91814144,7.992986492,11.1555316,14.00535673,16.26359619,18.7133926,18.51714259,16.54699664,16.60044059,13.86670431,0.872361758,1,1,1,1,1,1,0.995607144,38.89555425,-92.20964575,2018,MOH1
CG60/LH162,ONH2_2015,Y,14.75,779.3906591,0,25.5,237.5,126,69,68.5,1.876451608,4.282666683,1.928005431,1.58261263,10.80264742,1.923208582,3.114388399,4.294901914,2.356388962,58.16999984,64.24000025,23.61999965,57.22470651,21.60529484,21.1552944,115.5017658,31.56294079,72.1164696,18.95380112,18.76709785,21.17743809,22.45418875,20.04103015,18.4543581,18.45373918,15.80078253,13.34539525,11.17387095,14.38466663,23.91200153,26.61279381,30.15176526,27.65053462,26.77986929,25.87464046,20.7920557,2.006774224,5.636000033,13.64950245,15.64688346,19.32647026,18.51812829,16.74694623,15.4972221,11.03054456,3.742938436,5.617129505,11.53065914,13.52353119,16.78542678,15.13421866,13.95153495,13.1846932,9.37660249,0.276970043,0.589690475,0.985132406,1,1,1,0.993019959,0.931831119,42.45408625,-81.8816065,2015,ONH2
PHW52/PHN82,NYH3_2015,Y,21,731.1212129,0,2.5,246.5,112,75,75,4.268387075,0,1.234803629,3.315485905,3.744705864,3.708743319,2.034738589,2.091907533,2.160160663,132.3199993,0,17.66999944,111.4647067,9.843529393,38.42352946,75.35117763,21.49235322,65.37235311,20.95885717,21.76160183,22.01003167,20.47654391,19.37507164,18.84800849,18.09954582,14.25866518,12.17165493,15.21516129,28.41399994,23.9726608,27.94852153,28.22411762,29.00645443,26.88612691,22.65429039,19.02039094,3.206451565,16.00799999,11.62235867,15.61032629,16.7502941,17.72633694,14.88804443,11.60832066,7.356588233,5.349626667,14.38734971,10.95773449,14.17183136,14.61937489,15.41213998,13.31670354,10.34569698,7.707711279,0.504331792,1,0.97267375,0.996219796,1,0.995345527,0.95775528,0.812032548,42.7233625,-76.6555945,2015,NYH3
2369/LH123HT,WIH2_2016,N,20.05,821.8677719,0,18,304.5,167,64.5,64.5,2.185483832,6.563333432,3.447094458,4.124693788,6.707159024,6.158880111,5.945293137,1.654273513,4.758742445,67.74999878,39.38000059,44.45545418,149.2718189,18.91272705,63.86318129,228.7613642,17.11772738,143.1609097,20.07161814,17.64681498,20.48120554,20.03716075,21.00097141,18.73971629,16.31911952,14.94670844,10.3303759,18.34677419,27.65666644,25.59626749,27.3504729,29.44640147,29.15349181,26.70938079,24.21329019,20.37268081,4.840000014,15.2516667,12.43660419,15.21846351,16.18390156,17.81047537,15.29826924,12.0891497,9.537770322,6.76617685,13.67923016,11.77429452,13.6256578,15.0809804,15.56950508,13.35737665,11.10536848,8.849967039,0.729688939,1,1,1,1,0.998061418,0.979766622,0.886131912,43.32649075,-89.33882925,2016,WIH2
B14A/MO17,GAH2_2016,N,11.5,731.1212129,0,2,269,222.5,52,52,1.486129045,0,7.316392826,2.079782856,1.718421064,1.264671045,2.43256314,4.61773679,3.235456168,46.07000041,0,60.50999928,55.97210474,3.436842128,10.11736836,67.31736801,23.15894711,100.2847377,20.21189387,22.87583466,19.10112302,21.34036575,17.85876091,19.83818451,18.50479945,15.9975398,17.29687983,27.80677426,30.50400009,32.06010812,34.2138269,34.93842035,34.86282896,34.62455114,33.33373696,32.80003392,13.8351613,16.55600014,19.35906305,20.32019684,22.9621054,21.76434208,22.04984942,22.29670187,20.14649938,13.32566871,15.60302283,17.72531793,18.78372546,20.36638125,19.89190838,19.9091667,19.70080105,18.42340329,1,1,1,1,1,1,1,1,33.717295,-83.3110275,2016,GAH2
B37/MO17,NYH3_2019,Y,22.3,749.7853988,2.5,2.5,231,118,71.5,70.5,3.722580618,3.873333404,3.769554008,3.757958966,6.56821411,3.88506864,3.604603585,1.929858492,3.709694332,115.3999992,34.86000064,61.04857108,135.2235714,13.13642822,47.6607138,172.5314276,35.27499978,112.0914282,17.9818517,20.79040337,20.53458356,20.20586531,15.56107187,20.47665645,15.7702462,13.42945136,8.802352299,16.21290321,21.91111098,21.5613082,26.8770008,26.27928579,27.19863099,23.33754175,19.77308355,13.39834902,5.322258069,10.30000003,10.31609792,15.50927174,17.62488075,14.92700095,12.00041282,8.027538821,3.378330702,6.134411308,9.414033746,9.318517767,13.52970479,14.11503311,13.40897889,10.69134109,8.327220554,5.109082433,0.665391704,1,0.983452189,1,1,0.970435943,0.837841689,0.510564168,42.7321756,-76.65345463,2019,NYH3
TX777/LH195,SDH1_2015,N,24.15,641.6618391,0,0,185.5,89,76,76,1.890000034,2.68444448,2.847212523,0.928406021,1.08916667,1.213193166,1.12388612,3.994558873,0.570569385,58.59000105,24.16000032,33.86000057,31.14874977,1.720000006,12.77624983,39.02562428,27.90249949,17.65812508,21.16446504,23.3864585,24.03054242,23.94878495,21.74335716,21.42490048,20.60212775,16.27746828,15.18579983,19.04290341,22.5888888,27.20826416,30.46229654,29.54760476,31.86073879,31.47770382,29.48664523,24.89733582,4.208709664,8.468888919,11.69082143,14.25969647,14.29062517,16.06534098,14.02269822,14.11578116,6.942900096,6.807516906,9.210660666,12.27390437,14.67606113,14.18888263,15.81431879,15.00552731,14.17539039,9.834808296,0.77025346,0.983690483,1,1,1,0.983472358,0.961069402,0.950039755,44.208745,-102.928745,2015,SDH1
PHW52/PHM49,NYH2_2015,N,19.1,731.1212129,0,0.5,228.5,99.5,84,84,3.814193487,2.822857129,1.806874641,1.427310218,14.28882354,6.323155046,2.553769654,1.263651931,1.70374005,118.2399981,39.5199998,23.5252947,50.99705838,17.86235295,65.18176435,90.43176518,10.71352917,51.74117684,19.21827184,21.58410556,20.44972798,21.8367517,17.34067749,18.34945618,18.49425604,17.55625849,13.84215422,11.26903224,15.86071418,24.70888252,27.12764594,29.5805878,28.55383422,27.75922879,25.11594081,20.73318661,0.676451599,3.065714287,12.68317757,14.19692254,19.48862723,17.66257776,16.12899413,12.03346763,8.797239788,3.458861152,5.522653893,11.65565145,13.2498794,16.56577659,15.18766176,14.16580901,11.53845799,8.731216192,0.261509218,0.568112238,0.971160735,0.994106254,1,0.999864887,0.980226591,0.898542131,42.7324825,-76.65277775,2015,NYH2
PHN11_PHW65_0323/LH195,MIH1_2017,Y,28.45,663.5439881,0,2,99.5,48.5,70.5,70.5,2.651290334,1.642500043,0.365195355,3.685889798,0.022982455,0.462972321,1.745768067,1.924198947,6.215848807,82.19000036,13.14000034,4.417894763,131.6678931,0.068947365,5.871578781,77.40789432,25.15789459,187.919471,20.75480046,19.52619267,24.47429891,19.89055103,21.94334328,22.12060477,17.47908742,14.76431364,9.641321864,18.99677434,22.1187501,26.44652255,27.49693157,27.7329823,27.82492569,25.37386911,24.10071042,20.63989867,5.961290348,11.91874993,11.36318641,16.0503933,16.08877179,14.96255052,12.27657104,9.93890341,8.936309075,7.303217139,10.01258026,11.86785018,14.06113521,14.11607898,13.75096176,11.67659513,10.59348898,9.148775778,0.770126733,1,1,1,1,0.999072621,0.949278334,0.816440377,42.68116575,-84.49434125,2017,MIH1
PHN11_PHG47_0251/PHB47,OHH1_2016,N,13.85,731.7648055,0,9,256.5,114.5,65,64,4.328064465,1.776000023,3.915145208,2.580740659,3.890757626,4.17049496,5.079069289,3.957741935,3.614594814,134.1699984,8.880000114,44.70363614,85.9177286,9.330454675,39.94818193,160.1854537,27.69772666,110.1186362,18.3437644,22.24283047,20.73146956,20.35982518,19.15233416,18.82824642,16.72048491,17.98730955,14.71797893,19.63580645,29.63200035,26.56953589,28.59263588,29.59106055,30.69283836,29.21689182,28.27188687,26.30588322,8.120967747,16.89599972,14.9739129,16.70528562,18.30318191,19.74443426,18.9160149,15.44500838,13.40262461,8.117657052,15.32722009,13.17028057,14.81678154,15.96857054,17.23303236,16.11713161,14.21502474,12.5845871,0.859331788,1,1,1,1,1,0.999172078,0.989049277,39.860924,-83.6755995,2016,OHH1
F42/OH43,NEH1_2015,N,13.5,794.8368819,0,2,240,120,65,53.5,2.959062506,0.753999996,4.745632833,2.187040691,0.179999996,3.601448917,1.548000793,0.057812502,1.589214364,94.69000018,3.769999981,46.84999943,63.50812512,0.239999995,39.12187557,55.49499987,0.586250016,47.85812447,19.07194562,25.84699936,20.00593662,19.96245842,20.96463704,17.86296284,18.31175333,17.30405645,12.3794141,23.74906254,30.51399994,29.13009987,30.74148671,30.73750019,28.43858622,29.13031746,26.88374984,20.12342532,13.19218739,15.46999989,18.04036499,19.18092822,19.11281252,17.33248289,15.92131484,11.1533021,6.525200269,11.64481375,15.25955733,15.68336601,16.96891106,16.93845514,15.07345461,14.95183393,12.01070089,8.15887847,0.924598212,1,1,1,1,0.96969665,0.982957588,0.758540943,41.290979,-96.41664325,2015,NEH1
PHG80/PHZ51,DEH1_2017,N,17.7,731.1212129,0,2,229,110,65,64,2.917187458,6.201428686,3.00780289,3.517983876,1.211428521,1.632751291,5.214259368,11.31934688,4.882730708,93.34999865,43.4100008,45.34571489,126.7790489,1.268571377,15.48333303,157.8533328,69.24809492,151.3147631,17.05647962,17.73228645,20.71096481,19.57386043,19.15556694,20.88592809,18.21237176,18.15756056,16.58607394,20.26624998,24.66142872,21.72245043,26.82298965,30.35071437,30.31148162,30.69555299,28.43090921,27.29702356,9.32593758,14.19571427,10.68752201,16.75855213,19.906349,19.88150788,21.21690322,18.72144455,17.91444491,8.690479953,12.08402314,9.787934269,14.12431868,17.15482568,17.14050735,17.94790556,15.63546309,14.74613823,0.907287956,1,0.959736116,1,1,1,1,1,38.67025825,-75.4333645,2017,DEH1
B37/OH43,TXH3_2020,N,10.9625,1775.993827,0,2,237.49,81.915,59.25,58.25,3.45875001,5.345714297,0.996479651,4.090893152,11.37176514,0.055555557,3.334418123,0.880352915,2.226110039,110.6800003,37.42000008,12.08058808,124.9758839,22.74353027,0.450000013,88.32823513,3.714117541,69.00941121,15.8034201,18.34009743,21.30541133,19.40762275,20.16580067,20.62125497,19.02899565,16.94703156,18.75160362,25.77062485,24.00285694,27.63577502,29.95402965,30.19186265,32.38063702,33.36328143,35.03835301,35.63206825,14.19906271,12.24428552,13.92062761,17.60156859,18.33921522,21.14142164,21.88591696,25.71364726,24.34760913,12.60372436,11.20425028,13.29865333,15.96364287,16.27361839,18.69618421,19.4144726,21.47019646,20.81901077,0.989866069,1,1,1,1,0.99995416,0.999321567,0.998827006,30.53869475,-96.4274175,2020,TXH3
LH74/PHN82,GAH1_2018,Y,14.4,777.9103961,0,4.5,205,97.5,59.5,58.5,4.231249915,1.934999943,5.575464231,3.801027214,1.067857163,3.256190501,3.932246866,3.816857059,2.685023025,135.3999973,11.60999966,76.79571342,135.0185695,1.516428607,29.30571451,107.1921429,19.08428529,83.23571379,16.89130574,18.83037901,19.9789379,20.32622599,17.16636637,17.47509449,19.98058203,18.77657547,18.35496912,25.6268748,28.56500022,25.46428012,27.96417186,30.5753573,30.54857133,31.9994497,33.07128549,33.68336431,12.70062498,14.46999963,11.35988473,14.27301998,20.47928579,20.42444427,20.68398901,21.82542842,22.30905548,11.99291119,13.91639365,11.33534042,13.63652225,17.52732154,17.4865078,18.33967815,19.36985553,19.8838857,0.988973219,1,1,1,1,1,1,1,31.50582525,-83.55515025,2018,GAH1
PHG29/PHG47,WIH2_2016,N,16.95,781.321437,0,2,253.5,136,59,59,2.185483832,6.563333432,3.447094458,4.124693788,6.707159024,6.158880111,5.945293137,1.654273513,4.758742445,67.74999878,39.38000059,44.45545418,149.2718189,18.91272705,63.86318129,228.7613642,17.11772738,143.1609097,20.07161814,17.64681498,20.48120554,20.03716075,21.00097141,18.73971629,16.31911952,14.94670844,10.3303759,18.34677419,27.65666644,25.59626749,27.3504729,29.44640147,29.15349181,26.70938079,24.21329019,20.37268081,4.840000014,15.2516667,12.43660419,15.21846351,16.18390156,17.81047537,15.29826924,12.0891497,9.537770322,6.76617685,13.67923016,11.77429452,13.6256578,15.0809804,15.56950508,13.35737665,11.10536848,8.849967039,0.729688939,1,1,1,1,0.998061418,0.979766622,0.886131912,43.32649075,-89.33882925,2016,WIH2
PHN11_PHW65_0323/LH195,NYH2_2016,N,20.75,731.1212129,0,2,170.5,86.5,79.5,77,2.034516133,1.030000001,1.88805842,0.867300396,1.140952366,2.326450204,3.376451109,4.287746575,3.208572451,63.07000011,12.36000001,22.4085716,34.4438095,2.622857094,25.59095225,116.65619,31.75809508,97.82571426,19.21240982,23.35584625,23.40556822,22.17883586,23.94456446,21.25361649,17.18897092,16.17245816,13.35906413,14.04935483,18.68749992,27.50851283,26.23633728,28.78071431,29.31692664,28.41638555,26.44500865,23.15297547,1.686774175,4.439999988,12.92699036,12.85534504,13.89476193,15.65588736,16.863818,13.58818034,10.55762265,4.511298309,6.607155497,12.88765676,12.33330427,13.7996272,14.74166699,14.82295673,12.66050813,10.26842414,0.447315667,0.804761906,0.999400038,0.994542932,1,0.999880088,0.994843294,0.949842165,42.726117,-76.655339,2016,NYH2
B73/TX779,OHH1_2020,Y,26.2,677.059433,0,0,229,110,64,63,4.175312527,1.24000001,2.003453903,2.609830299,3.238461531,4.458868342,3.000365612,1.621237519,2.44580479,133.6100008,6.200000048,24.41307693,78.60461595,5.612307695,46.13538504,105.0992289,18.40384625,73.98230748,19.06994028,20.34349766,22.26062964,20.30125672,18.94980258,17.72364635,17.47781057,14.69815231,13.31876726,20.75593752,29.31000023,26.9862925,30.26951119,31.92230738,29.63458284,27.3548547,24.45496262,20.91339716,9.301875014,17.61400032,14.18652547,18.22082699,19.47423084,18.74255468,15.66305293,13.07056974,8.164555027,9.098127154,15.53923951,13.05396234,16.29356655,17.69826911,16.21360084,13.84725457,11.75523116,8.713632263,0.810993302,1,1,1,1,0.998602591,0.941606618,0.857376019,39.85643475,-83.67288725,2020,OHH1
B73/PHN82,IAH4_2015,Y,18.9,727.9032498,2.5,2,241.5,143.5,65,64,1.42451612,4.854615514,2.513668144,6.351127419,5.46999979,2.154687441,1.85099418,0.335758934,4.064770202,44.15999973,63.11000168,35.58999979,218.2399999,10.93999958,20.30812445,58.48687407,2.377500039,125.1143763,19.83997888,19.28772805,16.02270398,20.69822917,17.27718186,21.35831173,20.17303565,19.59360772,15.6142427,15.83032262,16.78769229,22.26164163,27.88725423,29.37999988,31.52784708,28.69895342,30.18404469,25.46833276,2.473548389,5.024615425,13.48280789,16.59868734,20.37374985,19.78628468,17.37298211,16.89515858,12.68514048,5.318693913,6.228847238,10.78291245,14.47529064,16.87687486,17.66054739,15.18141656,15.71210426,12.05907357,0.585391697,0.659230777,0.98994413,1,1,1,1,0.952600636,41.19970961,-91.49362406,2015,IAH4
PHN11_PHW65_0323/LH195,WIH2_2016,Y,22.5,783.8958075,0,12,267.5,132.5,66,66,2.185483832,6.563333432,3.447094458,4.124693788,6.707159024,6.158880111,5.945293137,1.654273513,4.758742445,67.74999878,39.38000059,44.45545418,149.2718189,18.91272705,63.86318129,228.7613642,17.11772738,143.1609097,20.07161814,17.64681498,20.48120554,20.03716075,21.00097141,18.73971629,16.31911952,14.94670844,10.3303759,18.34677419,27.65666644,25.59626749,27.3504729,29.44640147,29.15349181,26.70938079,24.21329019,20.37268081,4.840000014,15.2516667,12.43660419,15.21846351,16.18390156,17.81047537,15.29826924,12.0891497,9.537770322,6.76617685,13.67923016,11.77429452,13.6256578,15.0809804,15.56950508,13.35737665,11.10536848,8.849967039,0.729688939,1,1,1,1,0.998061418,0.979766622,0.886131912,43.32649075,-89.33882925,2016,WIH2
PHG39/TX205,GAH2_2016,N,11.75,731.1212129,0,2,245.5,200.5,58.5,55.5,1.486129045,0,7.316392826,2.079782856,1.718421064,1.264671045,2.43256314,4.61773679,3.235456168,46.07000041,0,60.50999928,55.97210474,3.436842128,10.11736836,67.31736801,23.15894711,100.2847377,20.21189387,22.87583466,19.10112302,21.34036575,17.85876091,19.83818451,18.50479945,15.9975398,17.29687983,27.80677426,30.50400009,32.06010812,34.2138269,34.93842035,34.86282896,34.62455114,33.33373696,32.80003392,13.8351613,16.55600014,19.35906305,20.32019684,22.9621054,21.76434208,22.04984942,22.29670187,20.14649938,13.32566871,15.60302283,17.72531793,18.78372546,20.36638125,19.89190838,19.9091667,19.70080105,18.42340329,1,1,1,1,1,1,1,1,33.717295,-83.3110275,2016,GAH2
PHW52/PHN82,MOH1_2016,N,16.875,731.1212129,0,2,233.75,108.75,58,56.75,2.465483877,8.058000231,0.264259377,6.282521268,1.94553035,9.25680559,4.358907121,3.354664451,5.453130527,76.43000019,40.29000115,2.879999995,172.8372758,4.262727369,83.20363667,125.2090916,21.13363606,168.2240918,20.2309363,16.93509369,22.49829557,20.20959989,18.68177986,19.21408964,18.0090922,17.17714413,15.87534947,21.83193548,27.56600037,27.88644765,31.21215235,30.25795442,31.2505745,30.57423065,29.80077912,28.25339236,10.073871,16.74400005,16.26474463,19.86215984,19.98371223,20.49117413,20.76153791,19.91431794,17.56318368,9.497798547,14.24343349,14.21296425,17.47336946,17.12232598,17.8699151,17.65104862,16.90998551,15.09561117,0.937315665,1,1,1,1,1,1,0.999442641,38.8955475,-92.2072025,2016,MOH1
B73/TX779,NCH1_2020,Y,20.1,732.7301944,4.25,0.5,227.8125,115,65,64,3.811250031,6.583749771,1.870150701,7.593384547,0.8842857,2.636686467,3.330713381,6.121142871,7.323433169,121.960001,52.66999817,29.28357046,255.9407139,2.652857099,23.48571392,94.03142862,30.32857149,227.0264283,17.79310012,18.2030313,21.90311614,16.62410426,22.73441878,20.97653859,20.54309533,18.15988809,15.65141399,21.6678125,23.21999979,23.34870433,27.04964214,28.2173808,30.95634976,33.07043217,33.2972859,31.24656685,8.082812505,11.53125006,9.51933213,18.09668861,18.19142909,20.58560522,22.1124513,22.85800005,21.91055295,8.88590596,10.34544598,9.896418393,14.69404398,15.249625,17.76881847,19.50312724,19.99035698,18.5620876,0.935200903,1,0.995619773,1,1,1,1,1,35.30009892,-77.57131746,2020,NCH1
CG44/CGR01,WIH1_2018,Y,20.586,809.5365373,0,2,288.6,140,70,68.4,1.609999989,7.097692302,4.543300024,5.384655594,12.90857152,6.684415526,1.835393967,1.490247701,3.282350194,49.90999967,92.26999992,56.1414287,188.537143,17.774286,73.52857079,76.14071582,18.50214262,100.642856,20.21844376,17.61529163,19.67186989,21.74517717,19.19342093,18.08513378,19.62003162,16.98075827,12.74863056,13.31193533,16.25923072,24.73561688,28.00164855,31.39095186,28.11097395,26.99453296,26.15077082,19.9357303,1.183225821,5.521538512,13.28283365,14.89542408,18.89249983,17.62870117,14.61713968,12.9208708,8.385953947,4.208379921,6.163069931,11.75441076,13.86262536,17.16453014,14.91796624,13.29691021,12.54059059,8.511099252,0.430714275,0.66777473,1,1,1,0.987929958,0.939058758,0.805939432,43.0544,-89.5317,2018,WIH1
LH82/PHB47,NCH1_2015,N,16.3,731.1212129,0,0,177,92,65,64,3.0140625,9.692856925,3.043308324,7.00027835,0,3.411347986,2.886716411,10.31533332,6.56176467,96.44999999,67.84999847,47.46470581,233.8535261,0,30.12176424,80.44058821,53.94764695,203.4147048,18.56641886,18.5514961,20.38733283,17.18369043,24.39251002,21.03629604,20.30189304,17.27178406,15.58503138,22.38312501,24.94999995,23.18034629,27.40244989,31.82117664,31.76743482,33.30845927,33.22968591,31.16039845,8.592187501,12.50999982,10.48535005,18.40286831,19.92058833,21.46261411,22.34001137,22.61282364,21.92468694,9.285127697,11.46773529,10.15801447,14.99239002,17.87088248,18.60652477,19.71826945,19.84422869,18.53531879,0.955334819,1,0.995809598,1,1,1,1,1,35.29657708,-77.5664625,2015,NCH1
PHG39/TX205,ARH2_2016,N,12.8,731.1212129,0,2,196,110,68.5,66,5.780937422,12.26500018,3.712120208,7.0222886,1.105000019,0.295568184,1.931287914,1.454696927,6.280835692,184.9899975,73.59000111,50.67409075,233.2059098,2.210000038,2.364545475,51.29727264,7.656817956,194.7059064,17.76457119,17.22719622,20.14058537,19.80644481,18.88262117,19.79738723,18.69440654,19.88854878,15.60714355,21.02781257,25.69833342,24.88224707,27.55747889,33.1628785,33.38017045,32.40728063,33.71248445,31.37684753,8.517187547,14.13833332,13.26693003,16.75834882,22.79151535,23.21522755,22.56353312,22.95024234,22.3752492,8.626308124,12.37618007,11.75818796,14.46644855,19.89189903,20.24263088,19.43024202,20.23735303,18.81126952,0.958649555,1,1,1,1,1,1,1,35.838614,-90.66530155,2016,ARH2
2369/LH123HT,INH1_2019,Y,25.935,863.5725734,0,2,253.25,138.75,64,63,4.638124973,1.291666667,4.254883356,1.873002707,7.542143106,0.579848493,2.745608418,1.194209184,2.037834084,148.4199991,7.75,53.11714339,53.83785783,14.64785763,6.669285808,98.22214476,12.45785718,61.58714233,19.82387961,19.183822,19.33565513,20.5079362,16.64856858,22.30931036,17.46113557,15.79330395,12.43542766,23.34687504,26.15000025,24.44131608,31.06458042,27.9682139,28.43625549,27.60941131,25.59340811,22.91422815,11.29093746,15.88166634,14.27159151,19.40569109,18.2715475,15.1189393,15.69895629,13.38685715,10.33005226,10.62626718,13.2428989,11.86638398,17.27971266,15.26406297,14.09359416,13.93027737,12.23653025,10.46761426,0.918526784,1,1,1,1,0.999060374,0.966691327,0.86252861,40.477063,-87.00020175,2019,INH1
W10004_0216/PHZ51,ONH1_2015,Y,32.4,732.4083981,0,0,245,120,88,89,1.605625002,2.296315821,1.411426091,1.973297954,0.512941169,3.436769168,2.641035405,1.799953816,2.360571209,51.38000005,43.63000059,20.30117703,73.50294104,0.81882352,40.73352947,103.9364728,19.58470627,71.14882509,18.02169462,20.4737019,23.34007091,22.64543997,20.24065375,18.07254412,18.60447299,14.22755231,12.21920895,9.771562532,12.63473691,23.7578119,26.83441686,29.90941261,27.46928249,26.11972075,22.82201755,18.35250846,-0.327500018,2.045263152,11.01347606,13.31919887,17.43313718,16.50329302,14.06775752,11.69572195,7.013714688,2.851211725,4.201400589,10.67713105,12.77399982,15.76589753,14.15032606,12.63577386,10.48249806,7.379159901,0.167098218,0.403345874,0.957007131,0.991950294,1,0.994472794,0.939113043,0.772366561,43.49741975,-80.44806025,2015,ONH1
PB80/PHZ51,MOH1_2017,Y,16.9,731.1212129,0,2,264.5,134,63.5,62.5,8.937741737,9.40166688,2.512230721,3.318030003,5.035714369,1.794490762,1.996986524,1.220079397,1.67255761,277.0699939,56.41000128,33.26619119,103.9014299,11.93095259,15.87761924,65.30142803,7.334762096,51.25476209,18.72482054,18.08832916,22.62422694,21.00800173,18.77514496,19.93438148,19.70533138,19.36646121,17.34329115,21.92032254,25.32999992,25.47495036,29.30087203,30.46650729,32.25412016,29.92026774,28.22145964,28.04827898,10.06000005,15.27666648,12.99827088,17.39768618,19.78222205,21.21359122,18.70404881,16.33857143,14.9717184,9.612847321,12.76903024,11.94928206,15.49761919,17.12130987,18.67277384,16.20463701,14.48208578,13.92850008,0.915472353,1,1,1,1,1,1,0.999239796,38.89264,-92.2057525,2017,MOH1
PHN11_PHG47_0251/PHB47,ILH1_2016,Y,15.35,751.072584,0,2,247.5,144.5,74.5,72.5,2.976905237,4.388409027,2.266536067,5.61207631,2.384848472,3.596551307,3.312350719,4.357499975,4.793790319,93.71999985,46.35499933,33.46068128,180.4177266,4.628863606,41.73386359,104.1413657,28.32431801,148.2020453,18.82488241,16.77241452,21.32061235,20.18653607,20.74234538,18.07981042,18.8666989,17.85818253,16.07680721,18.05081144,19.20204525,23.0422997,29.42292662,27.90308728,26.97317812,29.60218573,29.15938829,28.17592877,4.960040295,8.531272602,10.4507586,17.10049505,15.99717794,16.84881478,19.41054858,18.84383108,17.09740687,6.781235125,7.969267807,10.17119166,15.41614171,14.29579798,14.15384892,16.51995977,16.04951253,14.84458937,0.666766271,0.897956159,0.946860721,1,1,1,1,0.999883117,40.0607245,-88.2338815,2016,ILH1
B73/PHN82,TXH3_2020,N,11.97166667,730.906682,0,2,220.98,81.70333333,62.33333333,61.33333333,3.45875001,5.345714297,0.996479651,4.090893152,11.37176514,0.055555557,3.334418123,0.880352915,2.226110039,110.6800003,37.42000008,12.08058808,124.9758839,22.74353027,0.450000013,88.32823513,3.714117541,69.00941121,15.8034201,18.34009743,21.30541133,19.40762275,20.16580067,20.62125497,19.02899565,16.94703156,18.75160362,25.77062485,24.00285694,27.63577502,29.95402965,30.19186265,32.38063702,33.36328143,35.03835301,35.63206825,14.19906271,12.24428552,13.92062761,17.60156859,18.33921522,21.14142164,21.88591696,25.71364726,24.34760913,12.60372436,11.20425028,13.29865333,15.96364287,16.27361839,18.69618421,19.4144726,21.47019646,20.81901077,0.989866069,1,1,1,1,0.99995416,0.999321567,0.998827006,30.53869475,-96.4274175,2020,TXH3
B73/PHZ51,WIH2_2020,Y,23.25,731.1212129,18.5,2.5,298,175.5,73,71.5,1.142258063,7.375000167,3.772605813,4.528143625,15.91411821,3.015240613,2.848395651,6.559665308,3.073983535,35.40999997,73.75000167,42.96999988,163.850588,31.01764819,33.16764674,117.7699986,59.84176376,94.45823468,20.73953056,16.04352899,21.23354675,21.58093245,19.01370295,17.88573252,19.32013515,13.57540027,12.27254504,13.56999995,18.91099977,26.0938683,28.2322475,29.46647072,27.75422455,27.09322103,24.80509675,19.00189054,0.762580661,9.396999884,13.99892158,14.99589118,17.7452939,17.49807463,14.22893102,13.29211059,7.459399134,4.176897214,8.107987139,12.68677404,14.02444379,15.66411489,14.70790633,13.20588953,12.26960615,7.833960257,0.443168195,0.881928567,1,1,1,0.990384734,0.880973437,0.780679991,43.294786,-89.383968,2020,WIH2
B37/MO17,ONH2_2017,Y,17.7,731.1212129,0,2,229,110,65,64,3.566774253,5.816000056,0.640467161,2.602850346,0.276190468,0.553043346,1.774150425,1.832219351,2.40528059,110.5700018,58.16000056,8.999047586,96.02571482,0.552380936,6.918571438,78.70857161,24.06619065,72.98142847,18.8542372,16.74867072,24.21291039,19.37094181,21.19715784,20.84705237,17.61151759,14.253685,9.927824707,15.7532257,18.68899984,23.40262829,26.34974997,26.59380949,26.86065013,24.57225317,22.91748616,20.00596815,5.764838726,10.96000004,12.03359118,16.18007827,16.63301581,15.91920336,13.14574071,11.27177775,10.10650586,6.141928302,8.38660306,10.68394655,13.52521671,13.7753985,13.64998718,11.58821465,10.41552723,9.107414304,0.598502303,0.966571423,1,1,1,0.999084662,0.956230826,0.8300025,42.45293025,-81.8827315,2017,ONH2
B14A/MO17,DEH1_2020,N,19.5,664.9920715,0,19.625,239.75,126.5,62.875,62.625,3.884838689,2.918749928,0.484801506,3.712682555,3.963928495,10.54878945,3.680508849,4.08975176,5.319973187,120.4299994,23.34999943,5.74999997,113.1935704,6.565714155,94.92928366,102.5935729,23.16642891,164.6128593,19.34389959,17.33862388,21.23126246,20.37262205,20.84469896,18.13380163,16.82964191,15.50064315,15.14081803,17.43483888,21.1624999,25.02143811,29.01024665,32.25440507,31.30417669,31.95048154,29.3682824,28.21514964,6.792903194,12.85250008,15.40184434,18.86790491,21.28607132,21.93053571,22.84339264,21.06525136,19.30786859,6.86665098,10.04482466,12.64072343,16.02028347,18.72161765,18.60397455,19.32804006,17.22313801,15.91003144,0.79362904,0.982098209,1,1,1,1,1,1,38.628981,-75.46566025,2020,DEH1
F42/MO17,TXH2_2019,N,10.865,782.3898007,0,0,198,62.5,70,69.5,1.71448275,0.072857141,3.656594302,9.095434564,0.409285716,1.207678571,5.355850783,1.246142852,1.574419343,49.71999974,0.50999999,52.00785631,328.2121388,0.592857139,9.661428571,146.4478573,6.531428533,47.51499965,15.42805705,20.52131135,18.76898834,18.57032559,21.42349659,18.85281525,20.14881361,21.03072751,19.84089234,18.45000007,25.76428577,24.43254944,27.27586732,31.09000002,32.37866099,32.72435205,34.04471448,34.98200776,6.826206914,10.35000004,10.67963154,14.78766739,18.65857179,21.85071427,21.02442735,21.79614282,22.6049739,7.457816468,11.1589152,10.85119479,13.46630403,16.91193677,19.11412105,18.84765314,19.77807102,20.01419559,0.749667494,1,0.945308164,1,1,1,1,0.999698925,30.546318,-96.4329965,2019,TXH2
PHB47/PHN82,DEH1_2016,Y,20.1,729.8340276,0,1,238.5,110.5,78,77.5,2.701875035,7.431818214,3.891344367,3.01543569,5.358105985,2.453055546,7.028031294,2.624318106,3.1968602,86.46000111,81.75000036,66.39499953,101.6163622,13.33454524,24.02227264,188.3231781,15.05272682,98.58045408,18.33047433,10.1000462,19.40971708,21.02938559,18.25055452,17.64652011,18.94468483,17.7865103,16.44449792,18.09,16.60090897,19.90208421,27.67646738,27.79681775,28.9030859,31.91379825,31.21812112,30.57169607,5.529687506,9.93090907,10.11289786,16.8589893,18.02106052,19.78800518,21.90881045,21.62957593,20.16127331,6.825577378,7.645605865,8.606637786,14.43603228,14.98401645,16.37610101,18.85541374,18.37748956,17.3477875,0.726328134,0.729318176,0.990929859,1,1,1,1,1,38.6482025,-75.44606,2016,DEH1
PHP02/PHB47,TXH1_2015,N,10.7,744.6366578,0,2,143.5,74,65.5,65,2.435333351,0.886666695,4.529386736,2.992210444,0,5.407499953,3.236240411,4.528416659,2.205666663,73.06000052,5.320000172,54.16999972,113.7899998,0,59.48249948,89.11249819,24.54499996,66.1699999,13.38128519,15.80308406,13.73749678,19.48289484,22.46598899,19.96463979,19.54848583,19.57031498,18.03135075,19.61999995,26.26833312,25.8489028,26.4780255,30.37177098,28.79539756,31.9014052,33.48070828,34.35516661,6.122333375,12.74499997,15.39155332,13.69439061,15.83385423,15.9580683,20.41172374,21.45270844,23.93220836,7.516768444,12.28221354,13.06030889,12.7550996,15.35592881,14.67426974,18.11040569,19.30603111,20.37775841,0.822428569,1,0.992325397,0.994092815,1,1,1,0.999431249,30.54708625,-96.43393475,2015,TXH1
B14A/OH43,GAH2_2016,N,11.9,731.1212129,0,2,270,227,56,54,1.486129045,0,7.316392826,2.079782856,1.718421064,1.264671045,2.43256314,4.61773679,3.235456168,46.07000041,0,60.50999928,55.97210474,3.436842128,10.11736836,67.31736801,23.15894711,100.2847377,20.21189387,22.87583466,19.10112302,21.34036575,17.85876091,19.83818451,18.50479945,15.9975398,17.29687983,27.80677426,30.50400009,32.06010812,34.2138269,34.93842035,34.86282896,34.62455114,33.33373696,32.80003392,13.8351613,16.55600014,19.35906305,20.32019684,22.9621054,21.76434208,22.04984942,22.29670187,20.14649938,13.32566871,15.60302283,17.72531793,18.78372546,20.36638125,19.89190838,19.9091667,19.70080105,18.42340329,1,1,1,1,1,1,1,1,33.717295,-83.3110275,2016,GAH2
TX714/PHZ51,ARH2_2017,N,16.2,731.1212129,0,2,188,96.5,66,65,2.789999995,15.83285686,4.776016413,2.853949028,1.142500003,5.651818152,3.905948255,2.4430325,4.688621725,89.27999985,110.829998,61.6427269,88.95863769,3.003181826,52.42863608,105.2449988,13.33772746,145.3472735,17.14489296,19.09436907,20.93439511,19.65670258,19.84409681,19.1211903,18.81176407,19.65259997,17.546866,23.65656266,24.55142866,25.38541455,28.9612549,32.40098458,30.84565692,31.84241473,32.83627249,30.20087953,12.07343751,12.16142872,12.7110645,18.0477898,21.78734854,20.24410098,21.87781566,22.25639174,20.26112908,10.83878158,11.22094165,11.88579938,15.62584547,19.09416656,17.54487895,18.8103181,19.27693671,17.25265116,0.991674107,1,0.97315368,1,1,1,1,1,35.67418125,-90.0752695,2017,ARH2
PHN11_PHW65_0323/LH195,DEH1_2019,Y,21.2,687.3569149,0,0,225,96,60,58,4.885483834,0.129999995,2.22754366,2.838879743,7.092619056,13.09007943,2.376059147,7.246095167,5.291338731,151.4499989,1.169999957,29.41999924,87.75142762,13.32785715,117.8107149,70.17642808,38.82285679,163.7607149,18.09422633,22.52754413,19.09832956,21.10549391,16.87992425,18.38683534,17.43790908,14.47643482,15.18822094,17.49129031,20.55777783,23.08374535,28.61102885,30.70333358,31.53571423,31.96636291,30.10673826,28.44137569,7.04516129,9.184444467,14.30050877,18.34149326,20.74333359,21.70119062,22.68293302,22.03347627,19.57253904,6.992168387,8.735510177,11.41430501,15.6056687,17.71122979,18.59296506,19.259015,18.07354239,16.13042035,0.769815656,0.948412699,0.988507504,1,1,1,1,1,38.670675,-75.433225,2019,DEH1
B73/PHM49,NYH2_2020,N,15.15,661.6132102,0,2,238,101.5,70.5,70,4.422257993,0,1.391731236,3.182357247,6.170888774,3.507901041,2.283490724,1.426918664,2.172175634,137.0899978,0,18.68266731,113.2706661,12.6093331,36.98266699,88.46933366,18.14666667,65.61600019,20.94267544,21.78244971,21.55666085,20.64321436,19.27786447,18.92984529,17.76882093,13.77968924,11.70490539,14.55447306,27.94977782,23.62933928,27.86541297,27.88688897,28.78672537,26.53302948,21.56675493,18.20507674,2.61195699,15.66431106,11.35573055,15.51025755,16.31100023,17.48208292,14.53826355,10.86377734,6.879177126,4.979415324,14.02697238,10.70801105,14.09392345,14.22879085,15.20067311,13.04971037,9.749522427,7.387680802,0.470065285,1,0.969822941,0.995242037,1,0.988859641,0.904446401,0.765938608,42.73230075,-76.65036275,2020,NYH2
B37/H95,IAH1_2020,N,14.35,731.1212129,8.833333333,6.166666667,229,110,65,64,1.688064506,6.196000195,3.0793737,6.533057926,1.271428551,2.673269776,1.85421064,0.708456624,3.755616013,52.32999969,61.96000195,37.23499918,213.6221428,2.198571375,25.9085708,60.11785651,6.012142782,115.3728583,19.46953177,15.04660187,20.64247086,20.31598349,21.99207742,21.09552252,19.7297914,19.80455556,15.11692591,15.87290319,18.70700045,25.72176895,28.50674309,31.92999949,30.87921407,28.61147391,29.37327705,24.63079501,3.348387095,9.753000152,14.65929334,17.38633346,19.85714286,19.28849194,17.27261165,15.46819038,11.83183106,5.5584858,8.125456457,12.65757338,15.09801966,17.89357117,17.09078834,15.12121856,14.7539709,11.47694483,0.621440085,0.927035726,1,1,1,0.998514142,0.992713009,0.918334154,41.19774214,-91.48767072,2020,IAH1
CG108/CGR03,MNH1_2015,Y,14.9,720.823731,3,1,223,123,65.5,64,2.676451665,6.10285713,1.587216104,4.707726326,2.093823531,4.685775359,5.935015669,2.223261507,2.198788145,82.97000162,42.71999991,19.59000013,155.007059,3.965294123,52.23235247,227.0947085,20.90117698,67.40117758,19.81693462,15.87546921,21.62818458,20.65236193,17.21434565,21.12123323,17.7408483,14.5374504,12.06297535,17.43387093,22.63000025,27.28921799,28.46423671,28.36529418,28.07899716,26.14089523,24.73259507,17.90095705,4.567419307,13.73428563,14.30007362,16.89716897,18.65411764,16.19745995,14.75643511,13.57280729,6.634647692,6.2838161,10.87437977,13.26905608,14.87023808,15.64114514,14.35392043,12.99006372,12.46836687,7.55733068,0.722983866,1,1,1,1,0.977703003,0.878626049,0.721229646,44.07038575,-93.53519625,2015,MNH1
PHN11_OH43_0001/PHB47,ONH1_2015,Y,29.2,673.84147,0,3.5,235,120,83,83,1.605625002,2.296315821,1.411426091,1.973297954,0.512941169,3.436769168,2.641035405,1.799953816,2.360571209,51.38000005,43.63000059,20.30117703,73.50294104,0.81882352,40.73352947,103.9364728,19.58470627,71.14882509,18.02169462,20.4737019,23.34007091,22.64543997,20.24065375,18.07254412,18.60447299,14.22755231,12.21920895,9.771562532,12.63473691,23.7578119,26.83441686,29.90941261,27.46928249,26.11972075,22.82201755,18.35250846,-0.327500018,2.045263152,11.01347606,13.31919887,17.43313718,16.50329302,14.06775752,11.69572195,7.013714688,2.851211725,4.201400589,10.67713105,12.77399982,15.76589753,14.15032606,12.63577386,10.48249806,7.379159901,0.167098218,0.403345874,0.957007131,0.991950294,1,0.994472794,0.939113043,0.772366561,43.49741975,-80.44806025,2015,ONH1
LH74/PHN82,MOH1_1_2018,N,16.13333333,731.1212129,0,2,195.3333333,81.33333333,52.66666667,52.33333333,4.419032262,0.120000001,6.56660792,4.995913726,0,0.865952386,4.867908623,7.318145406,3.629241153,136.9900001,0.840000004,71.60142667,150.6285707,0,7.793571472,145.6157139,39.85928573,112.0157138,18.39395777,18.46565301,20.1607481,20.70593221,19.87326009,21.97749135,18.06982858,17.46468943,16.31914076,19.5254839,22.76714298,27.16554273,29.60936822,31.6271427,32.32420578,29.51628185,29.85375934,27.04843165,7.99741943,14.14714282,16.43732974,18.81172612,21.79964249,20.71007941,19.44316189,19.21155699,15.91814144,7.992986492,11.1555316,14.00535673,16.26359619,18.7133926,18.51714259,16.54699664,16.60044059,13.86670431,0.872361758,1,1,1,1,1,1,0.995607144,38.89791675,-92.20952075,2018,MOH1
TX714/PHZ51,OHH1_2017,N,18,729.8340276,0,2,229,110,65,64,4.401935447,12.29571451,4.299880116,6.252045262,18.36299991,4.892395558,3.195317293,3.431958172,3.794688752,136.4599988,86.0700016,53.63949916,223.8204996,40.86499989,50.26800107,124.097,30.99400014,115.4320013,19.0647902,19.03427505,21.00226491,20.15032754,19.69555429,18.89580098,18.69837911,16.0400155,13.85510684,20.47903239,25.43142836,25.24002704,27.25803818,28.09541678,28.73270468,26.30456447,24.69395371,24.25720733,8.011935501,13.44999967,12.59882409,15.91673102,16.75358336,18.39824095,14.97688189,13.11535887,11.81284403,8.407228033,12.106522,11.63721293,13.8931373,14.6377479,15.63224373,13.07252875,11.66012039,11.13333271,0.85352535,1,1,1,1,0.996926048,1,0.96495674,39.855785,-83.66477375,2017,OHH1
PHW52/PHM49,WIH1_2017,Y,25,728.5468424,0,2,249,122.5,79,81,3.894838602,1.694000003,3.49156578,6.251914317,26.29780264,12.3515148,1.782621048,1.031219451,2.019413967,120.7399967,16.94000003,60.77000046,238.2086357,55.48409002,148.2181776,77.27181808,11.13545426,60.74545419,17.96009764,21.56986256,18.71582301,20.73316127,19.69440102,19.58726141,19.1692292,15.69151392,12.21998586,16.03451621,20.2119998,20.22998088,26.71060266,27.00553033,27.16428033,24.80808837,24.03641879,21.845045,3.37838715,6.260000002,9.268565708,14.6662765,15.35575767,16.21109857,13.17589581,11.52521119,9.509429623,5.507434962,7.720411242,8.664602637,13.14891279,13.46068042,13.9043846,11.67856357,10.90146065,9.608265423,0.606900932,0.8735357,0.867893568,1,1,0.998220242,0.971647403,0.89569217,43.05668125,-89.5308135,2017,WIH1
B14A/OH43,GAH1_2016,N,14.8,675.7722478,0,9,210,100,57,56.5,6.466250051,4.395000041,0.566421492,2.549627568,3.17469698,5.859943136,4.096967014,2.330999996,2.476261007,206.9200016,35.16000032,6.21000006,86.0200003,9.52409094,52.42727233,105.6731797,11.65499998,76.76409122,15.95696127,18.25385642,20.33100053,20.74024209,20.01064868,19.54302735,19.38198769,19.26953352,18.21451922,23.62687498,22.98249984,28.56134937,29.4983659,33.37075638,32.62719045,33.25026907,34.51499955,33.94928126,11.29749997,10.47000009,15.64744728,16.2846205,20.78287862,20.61269551,21.56927107,22.51809092,22.40467728,10.53971422,9.962440438,14.36481163,15.11313475,19.02952924,18.56859265,19.26668195,20.34390963,19.99415841,0.993928569,1,1,1,1,1,1,1,31.5079175,-83.55854775,2016,GAH1
PHB47/PHN82,INH1_2016,N,18.15,702.8031377,0,2.5,244,113,62,61.5,3.034516148,1.382857186,3.106568823,3.966270256,3.500454469,6.752636371,3.451172643,3.198528118,3.024422797,94.07000059,9.680000305,31.26000059,138.8759105,3.500454469,67.52636371,113.8927274,21.6654544,92.62590972,17.63328649,23.97511796,20.66441577,20.1236558,19.9706746,19.39149484,18.14527656,15.98533716,14.62820237,18.74516109,26.31142807,27.84898846,28.12893417,28.20272714,29.14504538,29.16779001,27.95564941,27.07739093,7.950322636,11.69428553,16.31817922,16.10606538,16.8522731,18.34872752,18.58889605,17.50284626,15.03841012,7.677100472,11.91689015,14.24288378,14.4184555,14.68521604,15.7994256,15.9329094,14.92238151,13.51734692,0.852649763,1,1,1,1,1,1,0.996102814,40.4787595,-86.98982,2016,INH1
PHW52/PHM49,DEH1_2015,Y,22.5,713.1006196,0,0,246.5,125,64.5,61.5,2.877187484,6.848000002,1.658122271,2.899811139,0.533124998,6.398055441,4.542065261,4.666333417,5.694818618,92.06999949,68.48000002,26.86312445,94.40374921,0.778750002,57.58249897,115.8581242,26.73625046,176.5393772,18.09789148,17.20138936,20.11151884,21.0089777,21.53492481,19.24730516,17.70191113,15.05628078,15.14846735,16.82656264,19.24400005,20.72376954,27.68890342,31.56656283,31.86354174,32.09465687,30.43364003,29.09395151,6.265937505,9.858999991,10.7453803,17.67876376,20.38750017,21.35659703,22.77220607,22.28250884,20.56647162,6.521960329,8.412914767,9.229957748,14.85993723,17.9770315,18.58170739,19.36170697,18.35807444,16.86736745,0.750435273,0.870857151,0.962682184,1,1,1,1,1,38.62935675,-75.4656925,2015,DEH1
PHB47/PHN82,MIH1_2020,N,25.13,693.1492485,0,4.75,233,111.625,61.25,60.75,4.984838709,2.447142908,2.78018427,2.64718347,5.506875038,1.476884461,2.688717092,6.006552647,2.65185957,154.53,17.13000035,30.43499947,89.07562375,6.053750038,16.17374991,112.2143753,49.72375022,79.8756258,20.40588462,19.28742858,24.32683064,21.06964646,18.47526628,19.40802789,18.05267967,13.18055513,11.8632568,17.75483874,24.12857165,28.18736501,29.25734834,30.47187495,29.12451894,27.19720882,23.65947149,18.53645566,5.91032262,13.18571418,13.36449351,15.87753885,17.57625037,17.40439215,14.2199518,12.09430501,6.603961046,6.886871568,11.64218502,13.33305563,14.86544572,16.04104967,15.33737973,13.2580117,11.17810785,7.349100415,0.70564517,0.993469382,1,1,1,0.990981538,0.929873564,0.775463757,42.7085775,-84.4705825,2020,MIH1
CG119/CG108,GAH1_2020,N,19.08,648.9987949,4.5,1,125,45,51,51,4.279687563,0,6.08243138,3.811420537,2.267976227,2.530000055,3.98378478,1.741833346,2.910207357,136.950002,0,84.37571335,135.9278565,4.833571502,22.77000049,107.9378566,9.115000069,90.21642806,16.61263859,21.5972875,19.10636237,20.72286693,14.54687945,18.15584731,20.08605453,19.68634889,18.27781732,25.37343752,26.77166684,25.94144379,27.77824619,29.55357116,30.6518255,31.78195276,33.48178532,33.56322575,12.43875006,10.55666669,12.19035929,13.80720781,20.58059497,20.26111097,20.57386992,21.96838095,22.25456222,11.80508215,11.69113274,11.88989525,13.35432975,17.06708306,17.45646823,18.17996521,19.67032327,19.80166763,0.988537947,1,1,1,1,1,1,1,31.5079775,-83.558517,2020,GAH1
CG44/CGR01,OHH1_2020,Y,14.45,737.557139,0,0,229,110,49,47,4.175312527,1.24000001,2.003453903,2.609830299,3.238461531,4.458868342,3.000365612,1.621237519,2.44580479,133.6100008,6.200000048,24.41307693,78.60461595,5.612307695,46.13538504,105.0992289,18.40384625,73.98230748,19.06994028,20.34349766,22.26062964,20.30125672,18.94980258,17.72364635,17.47781057,14.69815231,13.31876726,20.75593752,29.31000023,26.9862925,30.26951119,31.92230738,29.63458284,27.3548547,24.45496262,20.91339716,9.301875014,17.61400032,14.18652547,18.22082699,19.47423084,18.74255468,15.66305293,13.07056974,8.164555027,9.098127154,15.53923951,13.05396234,16.29356655,17.69826911,16.21360084,13.84725457,11.75523116,8.713632263,0.810993302,1,1,1,1,0.998602591,0.941606618,0.857376019,39.85643475,-83.67288725,2020,OHH1
B14A/OH43,NYH2_2015,N,18.3,731.1212129,0,2,237.5,113,83.5,84,3.814193487,2.822857129,1.806874641,1.427310218,14.28882354,6.323155046,2.553769654,1.263651931,1.70374005,118.2399981,39.5199998,23.5252947,50.99705838,17.86235295,65.18176435,90.43176518,10.71352917,51.74117684,19.21827184,21.58410556,20.44972798,21.8367517,17.34067749,18.34945618,18.49425604,17.55625849,13.84215422,11.26903224,15.86071418,24.70888252,27.12764594,29.5805878,28.55383422,27.75922879,25.11594081,20.73318661,0.676451599,3.065714287,12.68317757,14.19692254,19.48862723,17.66257776,16.12899413,12.03346763,8.797239788,3.458861152,5.522653893,11.65565145,13.2498794,16.56577659,15.18766176,14.16580901,11.53845799,8.731216192,0.261509218,0.568112238,0.971160735,0.994106254,1,0.999864887,0.980226591,0.898542131,42.7324825,-76.65277775,2015,NYH2
PHG39/PHN82,SCH1_2020,N,13.635,731.1212129,0.5,1,100,36,58.5,57.5,6.726129055,12.61950016,14.6709951,2.000047064,2.505749965,4.425319405,2.268462711,6.18714998,5.023091868,208.5100007,84.13000107,163.6860008,61.50999924,5.011499929,39.68149965,62.57699943,33.64599986,155.4654979,20.36817608,19.66978326,14.75526058,19.85961082,19.96014466,19.24465486,19.87809105,16.40752662,15.64625104,22.32567731,25.33999968,25.31846332,29.19710574,32.4110003,31.66961065,33.32032281,31.92909988,30.24042268,7.936741977,12.70899997,16.31955663,18.65521183,21.09725013,21.1736526,21.46883008,21.19136654,20.48826235,8.963701593,11.76593586,13.23428606,15.98846211,18.75412521,18.42141037,19.32426,18.56023321,17.40294316,0.984170504,1,0.973950938,1,1,1,1,1,34.62225,-82.736661,2020,SCH1
B97/PHB47,ONH2_2016,N,19.5,725.3288793,1.5,16,241,107,71.5,66,1.435483875,1.740833327,1.463802716,3.022687524,0.150999999,1.134659085,3.046446673,1.693503778,2.765116665,44.50000012,20.88999993,18.84600039,117.1590009,0.150999999,12.25349994,101.0444998,13.16149993,84.26899996,19.72563927,22.19747464,21.68954048,21.77365896,18.98664827,19.92678304,16.69906166,15.68152671,12.9072029,14.10741935,17.58083336,26.00758685,26.04894451,27.78099985,28.79287246,28.2480382,25.9224786,23.75348014,4.257419363,7.13166666,15.03828811,14.1477789,17.72699971,17.33924119,18.24672102,15.95494667,14.17526013,5.131346137,6.986841243,12.85116395,12.65171997,14.84296497,15.26027205,15.31782021,13.26534606,11.67621189,0.511244241,0.799851209,1,1,1,1,1,0.975829282,42.4530035,-81.88279875,2016,ONH2
W10005_0107/PHB47,DEH1_2017,Y,18.5,722.7545088,0,2,238,130.5,62.5,63,2.917187458,6.201428686,3.00780289,3.517983876,1.211428521,1.632751291,5.214259368,11.31934688,4.882730708,93.34999865,43.4100008,45.34571489,126.7790489,1.268571377,15.48333303,157.8533328,69.24809492,151.3147631,17.05647962,17.73228645,20.71096481,19.57386043,19.15556694,20.88592809,18.21237176,18.15756056,16.58607394,20.26624998,24.66142872,21.72245043,26.82298965,30.35071437,30.31148162,30.69555299,28.43090921,27.29702356,9.32593758,14.19571427,10.68752201,16.75855213,19.906349,19.88150788,21.21690322,18.72144455,17.91444491,8.690479953,12.08402314,9.787934269,14.12431868,17.15482568,17.14050735,17.94790556,15.63546309,14.74613823,0.907287956,1,0.959736116,1,1,1,1,1,38.67025825,-75.4333645,2017,DEH1
PHP02/PHB47,ONH2_2015,Y,20.45,753.6469545,0,3,271.5,127,74.5,72,1.876451608,4.282666683,1.928005431,1.58261263,10.80264742,1.923208582,3.114388399,4.294901914,2.356388962,58.16999984,64.24000025,23.61999965,57.22470651,21.60529484,21.1552944,115.5017658,31.56294079,72.1164696,18.95380112,18.76709785,21.17743809,22.45418875,20.04103015,18.4543581,18.45373918,15.80078253,13.34539525,11.17387095,14.38466663,23.91200153,26.61279381,30.15176526,27.65053462,26.77986929,25.87464046,20.7920557,2.006774224,5.636000033,13.64950245,15.64688346,19.32647026,18.51812829,16.74694623,15.4972221,11.03054456,3.742938436,5.617129505,11.53065914,13.52353119,16.78542678,15.13421866,13.95153495,13.1846932,9.37660249,0.276970043,0.589690475,0.985132406,1,1,1,0.993019959,0.931831119,42.45408625,-81.8816065,2015,ONH2
B97/PHB47,OHH1_2015,Y,14.05,765.8752142,0,0,261.5,123,60.5,61.5,4.820000016,2.056666652,1.801667061,2.430255425,2.070588264,2.75488235,3.664772063,1.623969288,1.874022108,149.4200005,12.33999991,20.27235275,82.00588303,2.23529414,26.29176468,128.0200007,12.16764697,57.18411674,17.71339239,20.831882,20.85048625,20.93566426,20.28419298,19.59839119,17.66236547,17.23782846,14.83481447,16.95064511,28.03666687,26.64173705,29.01382079,31.07970569,30.59522857,27.99762273,26.69097183,23.34659959,5.9283871,15.42166694,14.66308043,16.74801267,19.23764672,18.74322206,16.69895781,13.90980629,10.26308727,6.580773377,14.04730329,13.19467995,15.08203889,17.16864649,16.69143216,14.53513226,12.92347397,10.29932856,0.672569122,1,1,1,1,1,0.994932126,0.947361455,39.855785,-83.66477375,2015,OHH1
TX714/TX779,MOH1_2_2020,N,18.58,731.1212129,0,0,259.4,150.6,63.4,61.4,2.765624954,8.119999743,10.23533287,1.900197364,6.862941181,7.496322061,3.61617108,2.901626778,3.303786197,88.49999854,40.59999871,96.12411712,56.39411764,8.455882353,68.01117661,117.8082348,21.52705885,101.3270584,18.75466287,21.25211372,22.58999711,20.28617166,20.64270943,17.48834951,18.15902921,17.2011884,14.69335169,22.18656257,30.76999931,28.84882905,30.74339714,30.90558787,31.2308437,28.74780649,29.21697892,24.17436303,12.23093753,19.21800041,17.30516703,20.0610583,19.70343171,21.50444419,18.15153395,17.40346693,12.7162556,10.41798935,16.99399986,15.18178367,17.42227064,17.30450979,18.37429674,15.5665539,15.53509051,11.41105442,0.936383936,1,1,1,1,1,0.996694042,0.965786214,38.8958275,-92.2071575,2020,MOH1
B73/PHN82,DEH1_2018,N,18.825,741.0968984,0,3,209,106.25,66,65.5,3.413225795,4.724545566,2.007753279,2.760624154,0.287142856,8.862777665,3.915865231,4.933581623,5.971971652,105.8099996,51.97000122,28.2621423,90.35856978,0.861428567,79.76499898,101.102142,26.37928568,184.7400021,18.24738333,20.30334785,18.96061465,21.19242313,20.3949075,18.85770366,17.73482038,14.47844699,15.08372737,17.38161278,18.28454564,22.01469092,28.14795471,32.28714262,31.68230149,32.09286912,30.42106803,28.79790015,6.703871004,7.41363637,12.85857977,17.97497576,22.0019049,21.31992057,22.76420594,22.26141136,20.21526036,6.825711165,7.366383816,10.38385741,15.21158117,19.10753111,18.47850441,19.35879976,18.34204267,16.58274325,0.781601378,0.839058448,0.989425295,1,1,1,1,1,38.65164475,-75.44913625,2018,DEH1
2369/LH123HT,INH1_2020,Y,26.7375,693.6963022,0.5,2,242.5,118.075,69.5,68.25,2.63064515,6.092222161,2.380905542,2.638028789,0.629411796,2.977235278,3.349803369,1.095052516,1.575144189,81.54999965,54.82999945,26.35000017,86.90176377,0.755294155,29.77235278,114.9176474,7.60117643,48.41470517,19.12040675,14.46862051,21.68340347,21.75389977,20.24839053,19.66959435,18.78188958,18.00828299,15.45076636,15.20677414,20.6899999,27.1104927,29.42650107,32.0752936,30.36388222,28.15834081,28.66782236,25.41333794,2.934193564,11.51555562,15.17811918,16.46944194,19.37588254,18.23752946,16.66734055,16.5683672,12.52337519,5.193705795,9.337664252,13.54219901,15.16026165,17.73146127,16.3694037,14.61167179,14.83949529,11.90095499,0.576025338,0.994801587,1,1,1,1,1,0.975702381,40.4787965,-86.9895995,2020,INH1
LH74/PHN82,INH1_2015,N,13.35,724.6852867,0,6,188,81,68,68,2.968064535,5.608750075,2.401797478,2.620596579,1.049062505,3.048312443,3.454130844,1.332533481,1.484370975,92.01000059,44.8700006,26.44312483,85.12437463,1.715625018,30.48312443,116.5724995,9.316249996,45.68062523,19.44608656,13.59046638,21.88315593,21.65689439,20.60130358,19.73326552,18.77560381,17.99738388,15.64927463,15.67580632,21.0562501,27.44396829,29.52449332,32.66781175,30.16981242,28.17317586,28.46934151,25.5406298,3.004516139,13.05249977,15.22068343,16.62214482,19.56843758,18.02818774,16.71489706,16.46563638,12.56847521,5.360930658,9.9438759,13.725819,15.26696414,18.11812466,16.1828721,14.63810214,14.67667849,11.95902497,0.609504607,1,1,1,1,1,1,0.986081101,40.477075,-87.000205,2015,INH1
B73/PHM49,OHH1_2016,Y,19.55,751.7161766,0,8,287,129.5,65,64,4.328064465,1.776000023,3.915145208,2.580740659,3.890757626,4.17049496,5.079069289,3.957741935,3.614594814,134.1699984,8.880000114,44.70363614,85.9177286,9.330454675,39.94818193,160.1854537,27.69772666,110.1186362,18.3437644,22.24283047,20.73146956,20.35982518,19.15233416,18.82824642,16.72048491,17.98730955,14.71797893,19.63580645,29.63200035,26.56953589,28.59263588,29.59106055,30.69283836,29.21689182,28.27188687,26.30588322,8.120967747,16.89599972,14.9739129,16.70528562,18.30318191,19.74443426,18.9160149,15.44500838,13.40262461,8.117657052,15.32722009,13.17028057,14.81678154,15.96857054,17.23303236,16.11713161,14.21502474,12.5845871,0.859331788,1,1,1,1,1,0.999172078,0.989049277,39.860924,-83.6755995,2016,OHH1
B37/OH43,NYH2_2019,Y,20.15,720.823731,0.833333333,2.5,232.6666667,121.1666667,70.33333333,69.66666667,3.722580618,3.873333404,3.775457026,3.802397661,4.637142726,4.204990808,3.398979968,2.823191607,3.703221173,115.3999992,34.86000064,60.3757139,137.1514286,9.274285453,51.14714244,162.2557133,52.58999984,112.9585706,17.9818517,20.79040337,20.47381334,20.12131004,17.75572211,20.43491569,15.89805393,11.9646884,8.550151526,16.21290321,21.91111098,21.50181499,26.85703989,26.63857151,27.37846155,23.54873757,18.10625893,13.03721199,5.322258069,10.30000003,10.29481231,15.55148496,16.86547597,15.01097073,12.10049902,6.865122249,3.164741908,6.134411308,9.414033746,9.284856483,13.53502553,13.97316997,13.53140509,10.78045964,7.367712917,4.9030616,0.665391704,1,0.983534167,1,1,0.983842121,0.777563161,0.485846779,42.73221403,-76.65248675,2019,NYH2
B73/MO17,MOH1_1_2018,N,17.3,731.1212129,0,2,234.6666667,127.3333333,55.66666667,54.33333333,4.419032262,0.120000001,6.56660792,4.995913726,0,0.865952386,4.867908623,7.318145406,3.629241153,136.9900001,0.840000004,71.60142667,150.6285707,0,7.793571472,145.6157139,39.85928573,112.0157138,18.39395777,18.46565301,20.1607481,20.70593221,19.87326009,21.97749135,18.06982858,17.46468943,16.31914076,19.5254839,22.76714298,27.16554273,29.60936822,31.6271427,32.32420578,29.51628185,29.85375934,27.04843165,7.99741943,14.14714282,16.43732974,18.81172612,21.79964249,20.71007941,19.44316189,19.21155699,15.91814144,7.992986492,11.1555316,14.00535673,16.26359619,18.7133926,18.51714259,16.54699664,16.60044059,13.86670431,0.872361758,1,1,1,1,1,1,0.995607144,38.89791675,-92.20952075,2018,MOH1
2369/LH123HT,OHH1_2020,Y,20.55,718.2493605,0,0,229,110,59.5,57,4.175312527,1.24000001,2.003453903,2.609830299,3.238461531,4.458868342,3.000365612,1.621237519,2.44580479,133.6100008,6.200000048,24.41307693,78.60461595,5.612307695,46.13538504,105.0992289,18.40384625,73.98230748,19.06994028,20.34349766,22.26062964,20.30125672,18.94980258,17.72364635,17.47781057,14.69815231,13.31876726,20.75593752,29.31000023,26.9862925,30.26951119,31.92230738,29.63458284,27.3548547,24.45496262,20.91339716,9.301875014,17.61400032,14.18652547,18.22082699,19.47423084,18.74255468,15.66305293,13.07056974,8.164555027,9.098127154,15.53923951,13.05396234,16.29356655,17.69826911,16.21360084,13.84725457,11.75523116,8.713632263,0.810993302,1,1,1,1,0.998602591,0.941606618,0.857376019,39.85643475,-83.67288725,2020,OHH1
B37/MO17,GAH2_2017,Y,17.7,731.1212129,0,2,229,110,65,64,5.215806507,2.59000005,0.877047008,6.976424555,36.66571527,11.68990473,2.766634194,6.717714339,5.237281131,161.6900017,18.13000035,10.98809533,219.4985743,69.630002,116.6428568,77.55666748,33.5885717,162.3557151,18.59375843,20.97986943,21.98193589,18.54567619,14.33990901,17.7663424,19.78523868,18.86354985,17.57616326,25.93516134,24.17571449,30.47339418,29.31252372,29.52904774,29.72980419,32.72601502,32.10511542,30.76784952,12.17225799,9.938571385,16.15324828,18.06353156,20.43476164,19.51114297,21.20992787,20.86352373,19.95543778,11.90954616,10.38538115,15.45655397,15.75249851,16.98190469,16.63412837,18.90169131,18.47155665,17.41241638,0.999631335,0.985714285,1,1,1,1,1,1,33.727145,-83.29821525,2017,GAH2
PHW52/PHN82,WIH2_2016,Y,21.925,815.753642,0,5,256.5,117.5,63.75,63.25,2.185483832,6.563333432,3.447094458,4.124693788,6.707159024,6.158880111,5.945293137,1.654273513,4.758742445,67.74999878,39.38000059,44.45545418,149.2718189,18.91272705,63.86318129,228.7613642,17.11772738,143.1609097,20.07161814,17.64681498,20.48120554,20.03716075,21.00097141,18.73971629,16.31911952,14.94670844,10.3303759,18.34677419,27.65666644,25.59626749,27.3504729,29.44640147,29.15349181,26.70938079,24.21329019,20.37268081,4.840000014,15.2516667,12.43660419,15.21846351,16.18390156,17.81047537,15.29826924,12.0891497,9.537770322,6.76617685,13.67923016,11.77429452,13.6256578,15.0809804,15.56950508,13.35737665,11.10536848,8.849967039,0.729688939,1,1,1,1,0.998061418,0.979766622,0.886131912,43.32649075,-89.33882925,2016,WIH2
F42/OH43,ONH2_2015,Y,30.15,711.1698417,0,1.5,277.5,134.5,80,78.5,1.876451608,4.282666683,1.928005431,1.58261263,10.80264742,1.923208582,3.114388399,4.294901914,2.356388962,58.16999984,64.24000025,23.61999965,57.22470651,21.60529484,21.1552944,115.5017658,31.56294079,72.1164696,18.95380112,18.76709785,21.17743809,22.45418875,20.04103015,18.4543581,18.45373918,15.80078253,13.34539525,11.17387095,14.38466663,23.91200153,26.61279381,30.15176526,27.65053462,26.77986929,25.87464046,20.7920557,2.006774224,5.636000033,13.64950245,15.64688346,19.32647026,18.51812829,16.74694623,15.4972221,11.03054456,3.742938436,5.617129505,11.53065914,13.52353119,16.78542678,15.13421866,13.95153495,13.1846932,9.37660249,0.276970043,0.589690475,0.985132406,1,1,1,0.993019959,0.931831119,42.45408625,-81.8816065,2015,ONH2
PHW52/PHM49,NCH1_2018,Y,18.63333333,731.1212129,0,2,202.6666667,92.66666667,55,54.66666667,4.157741868,0,6.852651043,4.101575565,0.281428576,2.753968325,7.265916583,9.606714405,8.963617552,128.8899979,0,78.76714403,125.545715,0.410714286,22.4842863,196.6735732,49.18571489,277.8721441,19.15814344,24.86455965,15.13897653,19.38558293,23.18458939,19.6068393,18.38664919,15.55735787,15.52161696,22.42709686,23.6650002,25.05504787,28.99162569,32.21999972,32.77589287,33.41271207,32.57228504,30.53730396,9.272903273,8.262500107,16.63082339,19.21430847,20.43714251,21.48106165,22.41052549,22.8214047,21.52269578,9.383610038,9.710722454,13.07063738,16.1524193,18.32857112,19.12847726,19.83450897,19.67052049,18.05632483,0.990449307,1,1,1,1,1,1,1,35.6667825,-78.492372,2018,NCH1
PHW52/PHM49,NCH1_2015,Y,19.4,731.1212129,0,0,232.5,115,65,64,3.0140625,9.692856925,3.043308324,7.00027835,0,3.411347986,2.886716411,10.31533332,6.56176467,96.44999999,67.84999847,47.46470581,233.8535261,0,30.12176424,80.44058821,53.94764695,203.4147048,18.56641886,18.5514961,20.38733283,17.18369043,24.39251002,21.03629604,20.30189304,17.27178406,15.58503138,22.38312501,24.94999995,23.18034629,27.40244989,31.82117664,31.76743482,33.30845927,33.22968591,31.16039845,8.592187501,12.50999982,10.48535005,18.40286831,19.92058833,21.46261411,22.34001137,22.61282364,21.92468694,9.285127697,11.46773529,10.15801447,14.99239002,17.87088248,18.60652477,19.71826945,19.84422869,18.53531879,0.955334819,1,0.995809598,1,1,1,1,1,35.29657708,-77.5664625,2015,NCH1
B73/PHZ51,DEH1_2016,N,20.3,733.0519907,0,2.5,273,130.5,77,75,2.701875035,7.431818214,3.891344367,3.01543569,5.358105985,2.453055546,7.028031294,2.624318106,3.1968602,86.46000111,81.75000036,66.39499953,101.6163622,13.33454524,24.02227264,188.3231781,15.05272682,98.58045408,18.33047433,10.1000462,19.40971708,21.02938559,18.25055452,17.64652011,18.94468483,17.7865103,16.44449792,18.09,16.60090897,19.90208421,27.67646738,27.79681775,28.9030859,31.91379825,31.21812112,30.57169607,5.529687506,9.93090907,10.11289786,16.8589893,18.02106052,19.78800518,21.90881045,21.62957593,20.16127331,6.825577378,7.645605865,8.606637786,14.43603228,14.98401645,16.37610101,18.85541374,18.37748956,17.3477875,0.726328134,0.729318176,0.990929859,1,1,1,1,1,38.6482025,-75.44606,2016,DEH1
B73/PHN82,IAH3_2019,N,20.45,711.8134344,0,1,223.5,112,65,64,2.879677419,8.325833271,8.514982687,3.930253796,0.537380945,2.3054841,2.306432914,9.350841805,5.38576807,89.26999998,99.90999925,122.1842849,140.4857139,1.612142835,22.50785688,97.56999955,77.30999979,164.0414292,18.1142604,18.14433392,18.34133211,20.20102762,20.30083813,21.10542726,19.14151731,15.03963484,12.83068274,16.60032246,18.1858333,22.24543073,27.09611601,28.60416662,30.1634999,27.59661349,25.62734982,23.13272506,3.497096781,6.015833348,10.94521806,15.70806976,18.18130992,18.44873807,15.55405048,14.14793364,12.04513443,5.803122395,7.048807354,9.977529243,13.7421048,15.43701566,16.36698878,13.8976006,12.43400485,10.94701098,0.634539169,0.718095232,0.926337681,1,1,1,0.9932483,0.897879883,41.97593131,-92.24310603,2019,IAH3
PHN11_PHW65_0323/LH195,ONH2_2016,N,21.65,724.0416941,0,7.5,235,113,75,74,1.435483875,1.740833327,1.463802716,3.022687524,0.150999999,1.134659085,3.046446673,1.693503778,2.765116665,44.50000012,20.88999993,18.84600039,117.1590009,0.150999999,12.25349994,101.0444998,13.16149993,84.26899996,19.72563927,22.19747464,21.68954048,21.77365896,18.98664827,19.92678304,16.69906166,15.68152671,12.9072029,14.10741935,17.58083336,26.00758685,26.04894451,27.78099985,28.79287246,28.2480382,25.9224786,23.75348014,4.257419363,7.13166666,15.03828811,14.1477789,17.72699971,17.33924119,18.24672102,15.95494667,14.17526013,5.131346137,6.986841243,12.85116395,12.65171997,14.84296497,15.26027205,15.31782021,13.26534606,11.67621189,0.511244241,0.799851209,1,1,1,1,1,0.975829282,42.4530035,-81.88279875,2016,ONH2
B37/OH43,ARH1_2016,N,17.35,778.1034739,3.5,1.5,188.5,105.5,70.5,68,12.62656226,6.052222146,7.859593922,4.411032368,3.769999921,0.095833332,1.834913509,2.950363528,2.931715563,404.0499923,54.46999931,101.1431819,160.496816,7.539999843,0.824999988,46.86636396,14.75181764,90.88318244,16.40757677,14.40289243,17.41332625,19.31399891,17.48165414,22.15918181,19.7781726,18.25208951,17.22596404,20.37124979,20.08666674,25.25253507,26.30445415,29.50681779,32.27019592,33.22074717,33.17606868,32.75999986,8.53968759,10.04999993,14.84655054,15.67568893,20.10318184,20.90335237,23.01320039,23.46584116,23.35664232,8.376579132,8.623890092,12.4075181,13.38568101,16.80499981,18.57005087,20.09384313,20.24603027,19.89808151,0.932198657,0.999841266,1,1,1,1,1,1,34.72952,-90.7603555,2016,ARH1
B14A/OH43,TXH1-Early_2018,Y,10.35,731.1212129,0,2,235,73.5,72.5,67.5,2.442333295,0.87833333,4.91741256,2.91095925,1.112321411,5.987347663,3.094033648,2.445309502,2.573656677,73.26999886,5.269999981,55.2178573,113.3721426,4.449285643,64.36357035,86.72785865,13.67714274,77.357857,13.4988633,14.49154552,13.92485348,19.6618496,19.390827,19.64184359,19.38410293,21.21373351,18.01258323,19.68933331,26.95833333,25.66614373,26.56996845,30.24238085,29.14372996,31.91805433,33.2644762,34.51160554,6.357666679,15.03999996,15.13755815,13.69055459,18.24071415,16.44843436,20.63070323,20.50154739,23.97494014,7.613570572,13.40715604,12.87528071,12.79536137,16.34410207,15.0664779,18.21233438,18.75919739,20.40606275,0.821476194,1,0.991620595,0.99408643,1,1,1,0.999013392,30.546318,-96.4329965,2018,TXH1-Early
LH195/PHZ51,ARH2_2017,Y,16.25,731.1212129,0,2,187,98,68,67,2.789999995,15.83285686,4.776016413,2.853949028,1.142500003,5.651818152,3.905948255,2.4430325,4.688621725,89.27999985,110.829998,61.6427269,88.95863769,3.003181826,52.42863608,105.2449988,13.33772746,145.3472735,17.14489296,19.09436907,20.93439511,19.65670258,19.84409681,19.1211903,18.81176407,19.65259997,17.546866,23.65656266,24.55142866,25.38541455,28.9612549,32.40098458,30.84565692,31.84241473,32.83627249,30.20087953,12.07343751,12.16142872,12.7110645,18.0477898,21.78734854,20.24410098,21.87781566,22.25639174,20.26112908,10.83878158,11.22094165,11.88579938,15.62584547,19.09416656,17.54487895,18.8103181,19.27693671,17.25265116,0.991674107,1,0.97315368,1,1,1,1,1,35.67418125,-90.0752695,2017,ARH2
B37/OH43,IAH4_2017,Y,17.7,731.1212129,0,2,229,110,65,64,3.054193612,4.63857133,5.654282844,2.356146022,0.145000003,0.823262634,3.029939984,2.506485397,3.022032747,94.68000197,32.46999931,92.55000019,79.81000018,0.290000005,7.931363713,110.0431818,17.65818187,91.79227275,19.60434628,22.37855189,18.81628808,21.46940114,22.42332305,21.26952374,19.1513695,15.94205759,15.34138578,17.83935482,25.21428544,21.76755785,28.88340452,30.88984893,30.99338411,28.30609907,26.26622464,25.93438806,4.952580655,10.13999993,10.24708413,15.02150207,17.47128796,18.07608078,15.80662465,13.87026602,12.51354651,6.575243948,10.82301274,9.649960621,14.3656457,16.22810104,16.57398155,14.36597852,12.57546566,12.06214068,0.727396317,1,0.910082199,1,1,1,1,0.987168831,41.99455432,-93.69030947,2017,IAH4
B14A/MO17,OHH1_2017,Y,18.3,697.0108042,0,2,229,110,65,64,4.401935447,12.29571451,4.299880116,6.252045262,18.36299991,4.892395558,3.195317293,3.431958172,3.794688752,136.4599988,86.0700016,53.63949916,223.8204996,40.86499989,50.26800107,124.097,30.99400014,115.4320013,19.0647902,19.03427505,21.00226491,20.15032754,19.69555429,18.89580098,18.69837911,16.0400155,13.85510684,20.47903239,25.43142836,25.24002704,27.25803818,28.09541678,28.73270468,26.30456447,24.69395371,24.25720733,8.011935501,13.44999967,12.59882409,15.91673102,16.75358336,18.39824095,14.97688189,13.11535887,11.81284403,8.407228033,12.106522,11.63721293,13.8931373,14.6377479,15.63224373,13.07252875,11.66012039,11.13333271,0.85352535,1,1,1,1,0.996926048,1,0.96495674,39.855785,-83.66477375,2017,OHH1
PHN11_PHW65_0323/LH195,ILH1_2019,Y,16.1,787.7573632,0,0,244,129,63,61,3.922903261,5.481666605,1.00366755,4.244691953,0.864761892,1.289377346,1.227411081,2.864647074,2.116070648,121.6100011,32.88999963,10.01785682,147.0385723,1.34571428,11.77428573,45.42428628,20.70571404,64.49999962,18.80145381,19.65322081,22.67392072,19.84274881,20.61125065,20.0231267,19.28032854,15.59344345,14.97056188,19.78774188,27.49499989,27.66771062,28.39175175,31.90428638,30.86753304,28.53869606,27.75133519,26.64299619,8.822580737,16.11666648,15.73801632,17.44140675,20.6435711,19.81749468,16.71837596,16.74759351,14.38373492,8.392897398,14.01107102,13.933587,15.08804109,18.28423173,17.40393302,14.78980986,14.45116262,13.1086535,0.871382484,1,1,1,1,1,1,0.979387755,40.0587105,-88.2298385,2019,ILH1
TX951/LH195,NYH3_2020,Y,18.9,726.6160645,0,10.5,249.5,128.5,74.5,73.5,4.422257993,0,1.373865683,3.203515064,6.161458224,3.578657229,2.247619776,1.339995863,2.270768823,137.0899978,0,18.69000064,113.6731244,12.19749978,37.86125033,87.74812532,17.041875,68.54562519,20.94560956,21.78233427,21.55267425,20.63825651,19.18147684,18.87690393,17.75633085,13.93943947,11.5316014,14.59225801,27.97729172,23.60945411,27.89842024,28.17958339,28.76829368,26.51617347,21.47489044,18.12990527,2.644717742,15.68266662,11.3508871,15.53912014,16.43281273,17.50013456,14.53010818,10.52921434,6.891416056,5.000434995,14.04753459,10.70035646,14.11697706,14.42792892,15.19886376,13.03509367,9.604727821,7.356101809,0.471947005,1,0.969562211,0.99553941,1,0.989555914,0.903066166,0.764418635,42.73227475,-76.6513705,2020,NYH3
LH74/PHN82,TXH1_2015,N,10.95,754.2905471,0,2,165,85,69.5,69,2.435333351,0.886666695,4.529386736,2.992210444,0,5.407499953,3.236240411,4.528416659,2.205666663,73.06000052,5.320000172,54.16999972,113.7899998,0,59.48249948,89.11249819,24.54499996,66.1699999,13.38128519,15.80308406,13.73749678,19.48289484,22.46598899,19.96463979,19.54848583,19.57031498,18.03135075,19.61999995,26.26833312,25.8489028,26.4780255,30.37177098,28.79539756,31.9014052,33.48070828,34.35516661,6.122333375,12.74499997,15.39155332,13.69439061,15.83385423,15.9580683,20.41172374,21.45270844,23.93220836,7.516768444,12.28221354,13.06030889,12.7550996,15.35592881,14.67426974,18.11040569,19.30603111,20.37775841,0.822428569,1,0.992325397,0.994092815,1,1,1,0.999431249,30.54708625,-96.43393475,2015,TXH1
B14A/H95,NYH2_2020,N,15,717.6057679,0,14,225.5,103.5,70,70,4.422257993,0,1.391731236,3.182357247,6.170888774,3.507901041,2.283490724,1.426918664,2.172175634,137.0899978,0,18.68266731,113.2706661,12.6093331,36.98266699,88.46933366,18.14666667,65.61600019,20.94267544,21.78244971,21.55666085,20.64321436,19.27786447,18.92984529,17.76882093,13.77968924,11.70490539,14.55447306,27.94977782,23.62933928,27.86541297,27.88688897,28.78672537,26.53302948,21.56675493,18.20507674,2.61195699,15.66431106,11.35573055,15.51025755,16.31100023,17.48208292,14.53826355,10.86377734,6.879177126,4.979415324,14.02697238,10.70801105,14.09392345,14.22879085,15.20067311,13.04971037,9.749522427,7.387680802,0.470065285,1,0.969822941,0.995242037,1,0.988859641,0.904446401,0.765938608,42.73230075,-76.65036275,2020,NYH2
TX714/TX779,MIH1_2020,N,36.7,683.4953592,0,0,257.75,169.25,78,75,4.984838709,2.447142908,2.78018427,2.64718347,5.506875038,1.476884461,2.688717092,6.006552647,2.65185957,154.53,17.13000035,30.43499947,89.07562375,6.053750038,16.17374991,112.2143753,49.72375022,79.8756258,20.40588462,19.28742858,24.32683064,21.06964646,18.47526628,19.40802789,18.05267967,13.18055513,11.8632568,17.75483874,24.12857165,28.18736501,29.25734834,30.47187495,29.12451894,27.19720882,23.65947149,18.53645566,5.91032262,13.18571418,13.36449351,15.87753885,17.57625037,17.40439215,14.2199518,12.09430501,6.603961046,6.886871568,11.64218502,13.33305563,14.86544572,16.04104967,15.33737973,13.2580117,11.17810785,7.349100415,0.70564517,0.993469382,1,1,1,0.990981538,0.929873564,0.775463757,42.7085775,-84.4705825,2020,MIH1
TX779/LH195,ARH1_2018,N,26.7,805.7779564,0,2,166,91.5,69,66.5,6.807499945,4.709999936,2.627776375,4.735912158,3.619166647,6.960178526,4.330437569,0.796285741,3.374677434,217.8399982,32.96999955,35.48928591,145.2942843,5.831428528,62.51428531,109.7978577,4.003571561,104.6150005,17.99706709,21.70226043,20.05949982,19.52680112,21.59397623,17.99264813,18.0574776,19.33215022,18.30424355,21.07062507,24.31857109,24.02168934,29.45279857,31.73095224,30.70692423,32.5717108,33.29521443,31.83741963,10.26718749,12.03571429,12.70205088,18.67412083,19.99154783,20.64677572,22.90335213,23.23585706,21.28834102,9.223277534,11.01036775,11.27832322,16.11267445,17.86206546,17.6775748,19.72770382,20.19469271,18.54368809,0.945725441,1,1,1,1,1,1,1,34.729679,-90.7603455,2018,ARH1
PHW52/PHM49,NCH1_2016,N,14.6,731.1212129,0,2,222.25,114.25,65,64,2.901562452,3.125714166,7.137907935,4.683034439,4.3177271,0.863030289,5.226283407,5.104181825,4.507668668,92.84999847,21.87999916,91.86318315,160.7736342,8.497726928,8.495454409,139.9318182,26.12772732,139.7377287,16.36857818,22.27138465,15.49498623,18.72849078,21.8793198,21.8664799,18.529992,18.05675722,17.32656161,20.86125001,25.58571407,25.68946269,27.1054564,30.20318166,31.0559697,32.42423852,33.59766701,33.26035177,7.692187494,8.212857212,14.27003911,16.07300028,18.02681784,18.80169681,21.2796372,22.62190931,22.7218182,8.383421821,10.43985322,12.46468669,13.95599298,16.17160042,16.99727481,18.83160592,19.980567,19.86697781,0.913761163,1,1,1,1,1,1,1,35.30015175,-77.57127825,2016,NCH1
PB80/PHZ51,GAH1_2017,N,12.7,742.70588,0,2.5,190,90,61,61,1.929687474,5.730000019,0.343252103,3.449286585,2.107618968,4.586772466,5.884115127,3.462793619,5.790337869,61.74999917,45.84000015,4.185237975,115.4628578,3.161428452,44.24761888,164.3961923,18.00285697,179.500474,16.80249013,20.13732326,20.17342047,19.27076224,21.20480144,16.6798163,18.15858085,19.37517402,17.73704587,23.5584375,24.76124978,28.73884546,29.02932191,29.79031757,30.11825943,30.88468736,33.04158726,32.39466959,8.654999979,9.073749959,13.81601286,15.94569083,16.85142871,20.07059283,21.0580027,22.24365102,22.03411694,9.935165979,10.3201674,13.6844889,14.81363998,15.5596332,17.10789698,17.95959829,19.61349988,19.1980032,0.8834375,1,1,1,1,1,1,1,31.50794425,-83.55854475,2017,GAH1
TX779/LH195,NYH3_2020,N,17.25,707.9518787,0,7,232.5,110.5,75.5,74,4.422257993,0,1.373865683,3.203515064,6.161458224,3.578657229,2.247619776,1.339995863,2.270768823,137.0899978,0,18.69000064,113.6731244,12.19749978,37.86125033,87.74812532,17.041875,68.54562519,20.94560956,21.78233427,21.55267425,20.63825651,19.18147684,18.87690393,17.75633085,13.93943947,11.5316014,14.59225801,27.97729172,23.60945411,27.89842024,28.17958339,28.76829368,26.51617347,21.47489044,18.12990527,2.644717742,15.68266662,11.3508871,15.53912014,16.43281273,17.50013456,14.53010818,10.52921434,6.891416056,5.000434995,14.04753459,10.70035646,14.11697706,14.42792892,15.19886376,13.03509367,9.604727821,7.356101809,0.471947005,1,0.969562211,0.99553941,1,0.989555914,0.903066166,0.764418635,42.73227475,-76.6513705,2020,NYH3
W10001_0022/PHB47,MIH1_2017,Y,17.7,731.1212129,0,2,229,110,65,64,2.651290334,1.642500043,0.365195355,3.685889798,0.022982455,0.462972321,1.745768067,1.924198947,6.215848807,82.19000036,13.14000034,4.417894763,131.6678931,0.068947365,5.871578781,77.40789432,25.15789459,187.919471,20.75480046,19.52619267,24.47429891,19.89055103,21.94334328,22.12060477,17.47908742,14.76431364,9.641321864,18.99677434,22.1187501,26.44652255,27.49693157,27.7329823,27.82492569,25.37386911,24.10071042,20.63989867,5.961290348,11.91874993,11.36318641,16.0503933,16.08877179,14.96255052,12.27657104,9.93890341,8.936309075,7.303217139,10.01258026,11.86785018,14.06113521,14.11607898,13.75096176,11.67659513,10.59348898,9.148775778,0.770126733,1,1,1,1,0.999072621,0.949278334,0.816440377,42.68116575,-84.49434125,2017,MIH1
B97/PHB47,NYH2_2016,N,20.8,731.1212129,1,1.5,151.5,66.5,76,72.5,2.034516133,1.030000001,1.88805842,0.867300396,1.140952366,2.326450204,3.376451109,4.287746575,3.208572451,63.07000011,12.36000001,22.4085716,34.4438095,2.622857094,25.59095225,116.65619,31.75809508,97.82571426,19.21240982,23.35584625,23.40556822,22.17883586,23.94456446,21.25361649,17.18897092,16.17245816,13.35906413,14.04935483,18.68749992,27.50851283,26.23633728,28.78071431,29.31692664,28.41638555,26.44500865,23.15297547,1.686774175,4.439999988,12.92699036,12.85534504,13.89476193,15.65588736,16.863818,13.58818034,10.55762265,4.511298309,6.607155497,12.88765676,12.33330427,13.7996272,14.74166699,14.82295673,12.66050813,10.26842414,0.447315667,0.804761906,0.999400038,0.994542932,1,0.999880088,0.994843294,0.949842165,42.726117,-76.655339,2016,NYH2
B14A/H95,GAH1_2020,N,19.265,730.5419795,20,3.5,165,90,68,68,4.279687563,0,6.08243138,3.811420537,2.267976227,2.530000055,3.98378478,1.741833346,2.910207357,136.950002,0,84.37571335,135.9278565,4.833571502,22.77000049,107.9378566,9.115000069,90.21642806,16.61263859,21.5972875,19.10636237,20.72286693,14.54687945,18.15584731,20.08605453,19.68634889,18.27781732,25.37343752,26.77166684,25.94144379,27.77824619,29.55357116,30.6518255,31.78195276,33.48178532,33.56322575,12.43875006,10.55666669,12.19035929,13.80720781,20.58059497,20.26111097,20.57386992,21.96838095,22.25456222,11.80508215,11.69113274,11.88989525,13.35432975,17.06708306,17.45646823,18.17996521,19.67032327,19.80166763,0.988537947,1,1,1,1,1,1,1,31.5079775,-83.558517,2020,GAH1
B73/TX779,NCH1_2018,Y,18.05,731.1212129,0,2,199,106.5,57,55,4.157741868,0,6.852651043,4.101575565,0.281428576,2.753968325,7.265916583,9.606714405,8.963617552,128.8899979,0,78.76714403,125.545715,0.410714286,22.4842863,196.6735732,49.18571489,277.8721441,19.15814344,24.86455965,15.13897653,19.38558293,23.18458939,19.6068393,18.38664919,15.55735787,15.52161696,22.42709686,23.6650002,25.05504787,28.99162569,32.21999972,32.77589287,33.41271207,32.57228504,30.53730396,9.272903273,8.262500107,16.63082339,19.21430847,20.43714251,21.48106165,22.41052549,22.8214047,21.52269578,9.383610038,9.710722454,13.07063738,16.1524193,18.32857112,19.12847726,19.83450897,19.67052049,18.05632483,0.990449307,1,1,1,1,1,1,1,35.6667825,-78.492372,2018,NCH1
PHP02/PHB47,WIH1_2017,Y,19.4,709.2390639,0,2,253.5,115,74,74,3.894838602,1.694000003,3.49156578,6.251914317,26.29780264,12.3515148,1.782621048,1.031219451,2.019413967,120.7399967,16.94000003,60.77000046,238.2086357,55.48409002,148.2181776,77.27181808,11.13545426,60.74545419,17.96009764,21.56986256,18.71582301,20.73316127,19.69440102,19.58726141,19.1692292,15.69151392,12.21998586,16.03451621,20.2119998,20.22998088,26.71060266,27.00553033,27.16428033,24.80808837,24.03641879,21.845045,3.37838715,6.260000002,9.268565708,14.6662765,15.35575767,16.21109857,13.17589581,11.52521119,9.509429623,5.507434962,7.720411242,8.664602637,13.14891279,13.46068042,13.9043846,11.67856357,10.90146065,9.608265423,0.606900932,0.8735357,0.867893568,1,1,0.998220242,0.971647403,0.89569217,43.05668125,-89.5308135,2017,WIH1
B37/OH43,IAH1_2020,Y,14.66666667,731.1212129,2.166666667,5.833333333,229,110,65,64,1.688064506,6.196000195,3.0793737,6.533057926,1.271428551,2.673269776,1.85421064,0.708456624,3.755616013,52.32999969,61.96000195,37.23499918,213.6221428,2.198571375,25.9085708,60.11785651,6.012142782,115.3728583,19.46953177,15.04660187,20.64247086,20.31598349,21.99207742,21.09552252,19.7297914,19.80455556,15.11692591,15.87290319,18.70700045,25.72176895,28.50674309,31.92999949,30.87921407,28.61147391,29.37327705,24.63079501,3.348387095,9.753000152,14.65929334,17.38633346,19.85714286,19.28849194,17.27261165,15.46819038,11.83183106,5.5584858,8.125456457,12.65757338,15.09801966,17.89357117,17.09078834,15.12121856,14.7539709,11.47694483,0.621440085,0.927035726,1,1,1,0.998514142,0.992713009,0.918334154,41.19774214,-91.48767072,2020,IAH1
PHN11_PHW65_0323/LH195,GAH1_2017,N,12.95,727.2596572,1,2,170,70,62.5,62.5,1.929687474,5.730000019,0.343252103,3.449286585,2.107618968,4.586772466,5.884115127,3.462793619,5.790337869,61.74999917,45.84000015,4.185237975,115.4628578,3.161428452,44.24761888,164.3961923,18.00285697,179.500474,16.80249013,20.13732326,20.17342047,19.27076224,21.20480144,16.6798163,18.15858085,19.37517402,17.73704587,23.5584375,24.76124978,28.73884546,29.02932191,29.79031757,30.11825943,30.88468736,33.04158726,32.39466959,8.654999979,9.073749959,13.81601286,15.94569083,16.85142871,20.07059283,21.0580027,22.24365102,22.03411694,9.935165979,10.3201674,13.6844889,14.81363998,15.5596332,17.10789698,17.95959829,19.61349988,19.1980032,0.8834375,1,1,1,1,1,1,1,31.50794425,-83.55854475,2017,GAH1
LH82/PHB47,MOH2_2015,N,14.1,731.1212129,0,0,165,60,69,68,3.914838722,3.534545422,2.891676029,5.446623968,2.505882375,1.1137255,5.068586465,0.980448186,4.011119538,121.3600004,38.87999964,35.23176398,173.6929392,5.011764751,10.0235295,148.9223525,6.487058864,124.3447057,19.08701148,18.12534948,17.16717858,21.59629129,16.88945411,20.34516158,18.32895435,19.90608894,16.95494386,18.756129,18.24727275,23.87322904,29.02836507,30.59176479,31.93248319,30.27285599,28.73220747,28.34062618,6.152580692,8.059091026,15.30129973,17.80114352,21.94705907,21.39261428,20.17023127,17.40519331,17.20941189,7.288196993,7.58478923,12.05891064,15.51775091,18.26941193,18.66254873,17.2518739,15.21359182,14.97078901,0.75554147,0.814935086,1,1,1,1,1,1,38.89807917,-92.2079,2015,MOH2
B14A/H95,ONH1_2015,Y,38,719.5365458,0,0,250,120,89,89,1.605625002,2.296315821,1.411426091,1.973297954,0.512941169,3.436769168,2.641035405,1.799953816,2.360571209,51.38000005,43.63000059,20.30117703,73.50294104,0.81882352,40.73352947,103.9364728,19.58470627,71.14882509,18.02169462,20.4737019,23.34007091,22.64543997,20.24065375,18.07254412,18.60447299,14.22755231,12.21920895,9.771562532,12.63473691,23.7578119,26.83441686,29.90941261,27.46928249,26.11972075,22.82201755,18.35250846,-0.327500018,2.045263152,11.01347606,13.31919887,17.43313718,16.50329302,14.06775752,11.69572195,7.013714688,2.851211725,4.201400589,10.67713105,12.77399982,15.76589753,14.15032606,12.63577386,10.48249806,7.379159901,0.167098218,0.403345874,0.957007131,0.991950294,1,0.994472794,0.939113043,0.772366561,43.49741975,-80.44806025,2015,ONH1
2369/LH123HT,WIH3_2020,N,20.75,572.4756328,0.5,0.5,282.75,155.25,70.25,67.75,2.733870995,5.446666638,6.112394342,4.74655674,3.655208389,1.04360979,2.527373572,3.69928986,2.61452892,84.75000083,32.67999983,82.9068754,167.6149986,8.003125131,12.58312517,113.8450009,40.74312496,78.93437568,20.41919384,18.2775027,21.33639865,20.40337995,19.49413761,18.99324058,17.80850823,14.15156863,10.1168501,15.48354838,26.52499994,25.39100386,27.30541678,28.00124967,27.24401428,25.77617537,21.78088819,14.67245705,3.106129019,15.18500026,12.31273591,15.12317531,16.14624966,16.31340126,13.17330579,9.92591724,4.431311843,5.287102842,13.2823578,11.70416503,13.61992535,14.28505882,13.97808988,12.29059579,9.657643491,5.630137727,0.571854837,1,1,1,1,0.965668942,0.879609054,0.560799012,44.115703,-89.54491325,2020,WIH3
B73/PHN82,NYH1_2017,N,17.95,731.1212129,0,7.5,226,112,80,77.5,4.758709581,4.139999986,2.953024942,5.715506232,4.320872878,2.701732063,2.616328443,1.022630585,3.614268439,147.519997,37.25999987,45.12618999,219.9223815,11.26857107,35.6957141,128.4247627,13.30476207,110.8900009,18.97444351,17.81005277,22.0763727,19.38397475,18.56141379,19.22534974,16.71382568,13.43506643,9.037548332,17.06967752,20.23333359,22.7745171,25.66488699,26.70396817,25.32691524,23.26007272,23.96840526,17.61119819,5.964193534,10.19,10.93717632,15.20362294,16.36293638,14.60656728,11.31793404,11.56685323,6.669544781,6.641127344,8.727253675,10.15270493,12.79474615,13.71935226,12.37567782,10.45035179,10.9124923,7.239151369,0.685760371,1,1,1,1,0.982493678,0.953634339,0.701363064,42.72880835,-76.6515625,2017,NYH1
PHG39/PHN82,MIH1_2018,Y,25.4,672.5542847,0.5,2.5,202,94,64.5,62.5,5.012258064,1.858571376,2.303311915,3.259516918,0,1.604151199,2.926198314,4.215530212,2.830074039,155.38,13.00999963,29.79071396,101.4421425,0,18.16214306,122.3414291,36.1057143,85.34142821,19.78619528,22.4124418,25.08845985,20.26124585,21.4032747,19.63779009,17.59687557,14.64655727,11.33533343,19.08258061,24.4042857,26.50594484,29.85917276,29.20761908,28.94024759,27.00181445,23.87253837,17.74080494,7.633548365,11.57000004,11.5577044,16.90410614,16.77238059,17.0588351,14.06431329,11.77329027,6.160183734,7.985580948,11.08545818,11.96011996,15.51317333,15.06763476,15.11768347,13.15911947,11.00371024,6.94989994,0.750656678,0.993928569,1,1,1,0.982067155,0.951173414,0.716707841,42.689234,-84.49755575,2018,MIH1
PHG39/PHN82,NYH3_2020,Y,14.85,743.3494726,0,5.5,228,116.5,69,69,4.422257993,0,1.373865683,3.203515064,6.161458224,3.578657229,2.247619776,1.339995863,2.270768823,137.0899978,0,18.69000064,113.6731244,12.19749978,37.86125033,87.74812532,17.041875,68.54562519,20.94560956,21.78233427,21.55267425,20.63825651,19.18147684,18.87690393,17.75633085,13.93943947,11.5316014,14.59225801,27.97729172,23.60945411,27.89842024,28.17958339,28.76829368,26.51617347,21.47489044,18.12990527,2.644717742,15.68266662,11.3508871,15.53912014,16.43281273,17.50013456,14.53010818,10.52921434,6.891416056,5.000434995,14.04753459,10.70035646,14.11697706,14.42792892,15.19886376,13.03509367,9.604727821,7.356101809,0.471947005,1,0.969562211,0.99553941,1,0.989555914,0.903066166,0.764418635,42.73227475,-76.6513705,2020,NYH3
TX777/LH195,TXH1_2019,Y,11.325,859.4535807,0,0,201,63.5,67.5,66.5,1.71448275,0.072857141,3.656594302,9.095434564,0.409285716,1.207678571,5.355850783,1.246142852,1.574419343,49.71999974,0.50999999,52.00785631,328.2121388,0.592857139,9.661428571,146.4478573,6.531428533,47.51499965,15.42805705,20.52131135,18.76898834,18.57032559,21.42349659,18.85281525,20.14881361,21.03072751,19.84089234,18.45000007,25.76428577,24.43254944,27.27586732,31.09000002,32.37866099,32.72435205,34.04471448,34.98200776,6.826206914,10.35000004,10.67963154,14.78766739,18.65857179,21.85071427,21.02442735,21.79614282,22.6049739,7.457816468,11.1589152,10.85119479,13.46630403,16.91193677,19.11412105,18.84765314,19.77807102,20.01419559,0.749667494,1,0.945308164,1,1,1,1,0.999698925,30.546318,-96.4329965,2019,TXH1
CG60/LH162,MOH1_2016,N,15.9,731.1212129,0,2.5,202.5,95,48.5,47.5,2.465483877,8.058000231,0.264259377,6.282521268,1.94553035,9.25680559,4.358907121,3.354664451,5.453130527,76.43000019,40.29000115,2.879999995,172.8372758,4.262727369,83.20363667,125.2090916,21.13363606,168.2240918,20.2309363,16.93509369,22.49829557,20.20959989,18.68177986,19.21408964,18.0090922,17.17714413,15.87534947,21.83193548,27.56600037,27.88644765,31.21215235,30.25795442,31.2505745,30.57423065,29.80077912,28.25339236,10.073871,16.74400005,16.26474463,19.86215984,19.98371223,20.49117413,20.76153791,19.91431794,17.56318368,9.497798547,14.24343349,14.21296425,17.47336946,17.12232598,17.8699151,17.65104862,16.90998551,15.09561117,0.937315665,1,1,1,1,1,1,0.999442641,38.8955475,-92.2072025,2016,MOH1
W10001_0022/PHB47,WIH2_2015,N,24.9,702.8031377,0,0,242,125,65,64,3.126774188,2.655000041,4.103605878,5.336067251,1.868823528,3.142847566,3.066358713,6.463272165,3.426278957,96.92999983,15.93000025,53.58117651,186.0694135,5.435882344,36.03705852,132.4747064,52.80117733,103.4994124,19.63646212,20.57311455,21.5892617,21.07111177,18.36300238,19.20517036,18.54583572,13.68038168,11.37476292,15.6409678,24.97666677,26.11823115,28.09529077,27.51588227,27.91298604,26.4469062,23.95331443,17.63645543,3.355806466,13.62666686,13.88922494,15.17788174,17.2276475,16.92946091,13.73434519,12.63733902,6.343913375,5.370860554,11.93138906,12.65256426,14.04290221,14.43586033,14.57588984,12.76646014,11.49482956,7.023163717,0.588214292,1,1,1,1,0.979783322,0.914260835,0.715230077,43.3264485,-89.33359975,2015,WIH2
B14A/OH43,GAH2_2017,N,16.15,709.8826565,14,2,217.5,98,55,55,5.215806507,2.59000005,0.877047008,6.976424555,36.66571527,11.68990473,2.766634194,6.717714339,5.237281131,161.6900017,18.13000035,10.98809533,219.4985743,69.630002,116.6428568,77.55666748,33.5885717,162.3557151,18.59375843,20.97986943,21.98193589,18.54567619,14.33990901,17.7663424,19.78523868,18.86354985,17.57616326,25.93516134,24.17571449,30.47339418,29.31252372,29.52904774,29.72980419,32.72601502,32.10511542,30.76784952,12.17225799,9.938571385,16.15324828,18.06353156,20.43476164,19.51114297,21.20992787,20.86352373,19.95543778,11.90954616,10.38538115,15.45655397,15.75249851,16.98190469,16.63412837,18.90169131,18.47155665,17.41241638,0.999631335,0.985714285,1,1,1,1,1,1,33.727145,-83.29821525,2017,GAH2
2369/LH123HT,ILH1_2018,Y,15.1,743.9930652,0,2,248.5,124,61.5,59,4.93870967,7.677000022,2.588106254,5.605117571,0.281428576,3.456349163,4.202656593,1.004543384,2.183824858,153.0999998,76.77000022,33.4678576,176.7721435,0.281428576,32.73642816,135.7042854,6.586428666,67.2342849,18.91812334,19.3164753,20.10278531,22.12028957,18.91592986,20.16297878,19.11980649,19.09856314,16.2127272,15.99580652,18.50399971,25.32625123,29.19453127,30.85535676,31.83740471,28.20358558,28.86124239,26.43877647,3.618387117,7.573000085,14.94700907,16.75211974,20.46500043,20.0205478,17.14982155,16.71822788,13.95248539,5.629456993,7.587936205,12.64486739,15.17263993,17.66017859,17.94105007,14.82889519,14.97382886,12.85823928,0.640783421,0.72660713,1,1,1,1,1,0.984431123,40.06300125,-88.2291765,2018,ILH1
B37/MO17,DEH1_2017,Y,17.7,731.1212129,0,2,229,110,65,64,2.917187458,6.201428686,3.00780289,3.517983876,1.211428521,1.632751291,5.214259368,11.31934688,4.882730708,93.34999865,43.4100008,45.34571489,126.7790489,1.268571377,15.48333303,157.8533328,69.24809492,151.3147631,17.05647962,17.73228645,20.71096481,19.57386043,19.15556694,20.88592809,18.21237176,18.15756056,16.58607394,20.26624998,24.66142872,21.72245043,26.82298965,30.35071437,30.31148162,30.69555299,28.43090921,27.29702356,9.32593758,14.19571427,10.68752201,16.75855213,19.906349,19.88150788,21.21690322,18.72144455,17.91444491,8.690479953,12.08402314,9.787934269,14.12431868,17.15482568,17.14050735,17.94790556,15.63546309,14.74613823,0.907287956,1,0.959736116,1,1,1,1,1,38.67025825,-75.4333645,2017,DEH1
B37/H95,NYH3_2015,N,22,731.1212129,1,26,236,122,80,79,4.268387075,0,1.234803629,3.315485905,3.744705864,3.708743319,2.034738589,2.091907533,2.160160663,132.3199993,0,17.66999944,111.4647067,9.843529393,38.42352946,75.35117763,21.49235322,65.37235311,20.95885717,21.76160183,22.01003167,20.47654391,19.37507164,18.84800849,18.09954582,14.25866518,12.17165493,15.21516129,28.41399994,23.9726608,27.94852153,28.22411762,29.00645443,26.88612691,22.65429039,19.02039094,3.206451565,16.00799999,11.62235867,15.61032629,16.7502941,17.72633694,14.88804443,11.60832066,7.356588233,5.349626667,14.38734971,10.95773449,14.17183136,14.61937489,15.41213998,13.31670354,10.34569698,7.707711279,0.504331792,1,0.97267375,0.996219796,1,0.995345527,0.95775528,0.812032548,42.7233625,-76.6555945,2015,NYH3
PHN11_PHW65_0323/LH195,ARH1_2017,N,13.35,763.9444363,0,2,191.75,98.4,71,68,3.058125025,3.532857077,9.871688678,6.405160528,0.516363615,5.988171668,5.119232493,3.102318153,5.34158356,97.86000079,24.72999954,132.0327285,211.6218184,0.569545432,54.36818138,136.8913653,16.08272713,165.5890903,17.13974981,16.55343887,20.38424011,18.76225527,22.81364793,19.06964508,19.53553475,19.77193111,17.12972935,24.60906261,23.96000045,24.77057006,28.06605652,30.35469691,31.5146664,31.30577636,32.78459133,30.91587993,11.9175,14.17857156,11.8445801,17.60850246,18.97249995,21.30615642,21.39979275,22.50533316,21.62237538,11.1639709,11.77578055,11.22655186,14.97537354,16.74359516,18.41041141,18.33049426,19.54768126,18.22457608,1,1,1,1,1,1,1,1,34.7272515,-90.76032575,2017,ARH1
PHW52/PHN82,WIH2_2017,Y,25.2,773.5983256,0,2,247.5,107.75,77.5,78.5,5.048709616,4.636666616,1.142383575,5.763857885,8.001590729,6.160048604,1.607776433,1.167726513,2.257555268,156.5099981,41.72999954,17.5799998,219.3963643,12.14409065,74.04090792,72.28863683,15.04409093,68.0204557,18.1690344,19.72049554,20.64727683,20.23287988,19.13163679,19.37493243,18.51401576,14.93340477,10.89478233,16.03129027,21.86555545,22.15746071,26.59689143,27.90045501,26.76799254,24.73062069,22.38533393,20.51274781,3.24419354,8.791111098,9.553497601,14.54337319,16.81037892,15.37831158,12.19271258,9.193202486,7.868866577,5.438218202,9.209131236,9.451203107,13.05708411,14.51682301,13.37610723,11.31306373,9.686333754,8.853113959,0.624158991,0.847976183,0.950288768,1,1,0.998699911,0.954544862,0.834596302,43.3246415,-89.33688775,2017,WIH2
B73/TX779,TXH3_2019,N,12.51,806.4151131,0,0,227.5,74,69.5,69.5,1.71448275,0.072857141,3.656594302,9.095434564,0.409285716,1.207678571,5.355850783,1.246142852,1.574419343,49.71999974,0.50999999,52.00785631,328.2121388,0.592857139,9.661428571,146.4478573,6.531428533,47.51499965,15.42805705,20.52131135,18.76898834,18.57032559,21.42349659,18.85281525,20.14881361,21.03072751,19.84089234,18.45000007,25.76428577,24.43254944,27.27586732,31.09000002,32.37866099,32.72435205,34.04471448,34.98200776,6.826206914,10.35000004,10.67963154,14.78766739,18.65857179,21.85071427,21.02442735,21.79614282,22.6049739,7.457816468,11.1589152,10.85119479,13.46630403,16.91193677,19.11412105,18.84765314,19.77807102,20.01419559,0.749667494,1,0.945308164,1,1,1,1,0.999698925,30.546318,-96.4329965,2019,TXH3
PHN11_PHG47_0251/PHB47,ILH1_2015,N,11.85,727.2596572,0,0,237.5,97.5,65.5,66,4.343437491,1.296153843,7.654899739,5.34311295,3.674999952,2.467291633,4.647268051,0.712819956,1.951907909,138.9899997,16.84999996,99.86750055,177.342501,7.349999905,22.2056247,144.0256246,5.039375113,60.06187434,19.4076893,20.21820178,17.58012378,22.59231729,17.35775694,20.12242863,18.79551315,20.37165926,16.80998738,15.69375022,16.27615364,23.81483975,28.77428317,30.28249967,31.91701372,28.65899596,28.4854072,27.09877011,2.916875011,4.602307732,13.93389792,16.26044709,20.47749984,20.41381959,17.79543547,15.77196732,14.62672175,5.339800043,5.921635642,11.53105666,14.7484369,17.37999976,18.17178164,15.31569586,14.44648847,13.36421336,0.599162964,0.636840646,1,1,1,1,1,0.99828125,40.05982425,-88.23397575,2015,ILH1
PHN11_PHW65_0323/LH195,INH1_2018,Y,22.81666667,830.8780685,0,2,222.6666667,106.6666667,67,64.66666667,2.767096756,4.68454543,2.7337539,2.608245307,0.180000007,3.094468228,3.412660528,0.546071422,1.653962344,85.77999943,51.52999973,31.28214284,86.61642764,0.256428582,29.52071404,116.6621433,3.926428522,50.80214219,18.97651723,17.84080185,18.4751702,21.91502565,21.1577316,19.53552192,18.82147066,19.16946561,15.73843824,16.02451609,18.1199998,25.33039297,28.95851984,31.36964308,31.15694425,28.16765345,28.4284546,26.00206774,3.260645186,6.861818249,15.08608447,16.0398559,19.18499974,18.88806934,16.73005964,15.8360335,13.18834038,5.572938243,7.259226835,12.75390782,14.76719288,17.27732141,17.05840253,14.63863294,14.40004061,12.39915253,0.613732714,0.707012975,1,1,1,1,1,0.979968538,40.4787825,-86.9898145,2018,INH1
WF9/H95,NCH1_2015,Y,17.9,731.1212129,0.5,0,224,107.5,65,64,3.0140625,9.692856925,3.043308324,7.00027835,0,3.411347986,2.886716411,10.31533332,6.56176467,96.44999999,67.84999847,47.46470581,233.8535261,0,30.12176424,80.44058821,53.94764695,203.4147048,18.56641886,18.5514961,20.38733283,17.18369043,24.39251002,21.03629604,20.30189304,17.27178406,15.58503138,22.38312501,24.94999995,23.18034629,27.40244989,31.82117664,31.76743482,33.30845927,33.22968591,31.16039845,8.592187501,12.50999982,10.48535005,18.40286831,19.92058833,21.46261411,22.34001137,22.61282364,21.92468694,9.285127697,11.46773529,10.15801447,14.99239002,17.87088248,18.60652477,19.71826945,19.84422869,18.53531879,0.955334819,1,0.995809598,1,1,1,1,1,35.29657708,-77.5664625,2015,NCH1
2369/LH123HT,GAH2_2018,Y,16.05,763.3008437,1,5,268,130.5,55,56,4.849677459,0.472857135,6.389842835,2.50728713,2.625000003,3.795198411,2.499668454,2.828785729,3.724124467,150.3400012,3.309999943,84.90856965,76.95785742,5.387857173,33.84785713,66.14142865,15.06428581,115.4478585,20.49558812,21.88511535,20.33298503,19.15998772,23.51626716,19.70790798,20.02489003,19.42019064,16.00793598,23.5748387,25.80428559,25.09824669,29.4338755,32.57678595,32.30446448,33.95531338,34.12885699,31.99587548,8.787742034,10.57714278,11.20780819,18.18961495,18.46904782,20.57888879,21.25284753,21.08492862,21.01629033,9.717543295,11.3392147,11.23425566,15.89113211,17.53376954,18.44167663,19.31882395,19.47290933,18.49284767,0.993778801,1,1,1,1,1,1,1,33.71560925,-83.30894675,2018,GAH2
PHN11_PHW65_0323/LH195,OHH1_2015,N,16.4,780.0342518,0,1,251,114,65,65,4.820000016,2.056666652,1.801667061,2.430255425,2.070588264,2.75488235,3.664772063,1.623969288,1.874022108,149.4200005,12.33999991,20.27235275,82.00588303,2.23529414,26.29176468,128.0200007,12.16764697,57.18411674,17.71339239,20.831882,20.85048625,20.93566426,20.28419298,19.59839119,17.66236547,17.23782846,14.83481447,16.95064511,28.03666687,26.64173705,29.01382079,31.07970569,30.59522857,27.99762273,26.69097183,23.34659959,5.9283871,15.42166694,14.66308043,16.74801267,19.23764672,18.74322206,16.69895781,13.90980629,10.26308727,6.580773377,14.04730329,13.19467995,15.08203889,17.16864649,16.69143216,14.53513226,12.92347397,10.29932856,0.672569122,1,1,1,1,1,0.994932126,0.947361455,39.855785,-83.66477375,2015,OHH1
F42/H95,OHH1_2018,Y,18.95,729.190435,0,3.5,267,120.5,60,61,3.056774178,9.537500136,1.922452157,2.385565957,3.342142727,1.8544286,3.625787622,3.100846839,2.007798001,94.75999951,76.30000108,21.73714328,80.43785755,3.342142727,18.544286,121.7649994,22.15357072,61.29071423,19.31095449,14.64635724,20.72885596,20.94366931,19.27592959,20.95649317,17.99811894,17.37176276,15.4204415,15.33419351,20.99500024,26.65036435,28.81994394,32.41071347,30.66092864,28.53085842,26.94730604,24.73435724,3.376129027,12.14624989,14.55931522,16.57316253,19.49428545,18.47499986,17.24720124,15.03980618,12.05347394,5.35712311,9.832246518,13.13485159,14.9051591,17.95401161,16.59941793,15.03822312,13.39555861,11.48513665,0.534285712,0.926785712,1,1,1,1,0.999125,0.970735544,39.85688825,-83.671225,2018,OHH1
LH195/LH82,OHH1_2016,Y,20.775,727.2596572,0,2.25,226,105,65,64,4.328064465,1.776000023,3.915145208,2.580740659,3.890757626,4.17049496,5.079069289,3.957741935,3.614594814,134.1699984,8.880000114,44.70363614,85.9177286,9.330454675,39.94818193,160.1854537,27.69772666,110.1186362,18.3437644,22.24283047,20.73146956,20.35982518,19.15233416,18.82824642,16.72048491,17.98730955,14.71797893,19.63580645,29.63200035,26.56953589,28.59263588,29.59106055,30.69283836,29.21689182,28.27188687,26.30588322,8.120967747,16.89599972,14.9739129,16.70528562,18.30318191,19.74443426,18.9160149,15.44500838,13.40262461,8.117657052,15.32722009,13.17028057,14.81678154,15.96857054,17.23303236,16.11713161,14.21502474,12.5845871,0.859331788,1,1,1,1,1,0.999172078,0.989049277,39.860924,-83.6755995,2016,OHH1
TX779/LH195,MIH1_2020,N,27.1,706.6646934,0,0.5,239.5,146.75,75.5,70.5,4.984838709,2.447142908,2.78018427,2.64718347,5.506875038,1.476884461,2.688717092,6.006552647,2.65185957,154.53,17.13000035,30.43499947,89.07562375,6.053750038,16.17374991,112.2143753,49.72375022,79.8756258,20.40588462,19.28742858,24.32683064,21.06964646,18.47526628,19.40802789,18.05267967,13.18055513,11.8632568,17.75483874,24.12857165,28.18736501,29.25734834,30.47187495,29.12451894,27.19720882,23.65947149,18.53645566,5.91032262,13.18571418,13.36449351,15.87753885,17.57625037,17.40439215,14.2199518,12.09430501,6.603961046,6.886871568,11.64218502,13.33305563,14.86544572,16.04104967,15.33737973,13.2580117,11.17810785,7.349100415,0.70564517,0.993469382,1,1,1,0.990981538,0.929873564,0.775463757,42.7085775,-84.4705825,2020,MIH1
PHG39/PHN82,MIH1_2016,Y,19.6,714.3878048,0,2,237.5,117,64.5,63,3.213870927,0.372000003,1.277668238,2.072144594,0.204761899,2.382636341,6.277866916,3.129595251,4.115734243,99.62999874,1.860000014,16.77857134,74.4033328,0.614285696,24.34142835,217.3680916,23.88571438,123.5814282,20.04481233,22.69628944,22.57460654,21.19066928,19.62511718,19.41470496,17.43536011,14.16523572,12.41239439,17.74322581,29.20999985,25.57947765,28.1508514,27.23547651,30.32783564,28.27294529,26.6388532,22.50219404,5.299677434,16.33600006,11.90361174,14.70447611,15.74579377,17.52671,16.25511672,15.58650841,10.86825081,6.615827776,14.89908974,11.62365975,13.82943527,13.70908531,16.01583991,14.48649579,13.48265,10.09129455,0.734400922,1,1,1,1,0.999987733,0.99326559,0.936590208,42.41206675,-84.2952625,2016,MIH1
B14A/MO17,NEH4_2017,N,26.4,720.1801384,5,3.5,156.5,76.5,65,64,4.590322548,9.024000108,0.479867887,3.811963874,0.538484848,1.684924238,2.267850047,4.65714279,3.86350146,142.299999,90.24000108,5.110000134,117.465454,1.615454544,15.13454541,79.63181698,32.59999953,117.4254543,19.43913734,17.21531701,24.1724839,20.95919975,19.50871722,19.21508163,18.90739129,17.69743939,15.39985704,20.62225799,19.52599983,28.59420128,30.06742287,31.22545445,32.42712118,28.61649727,28.47933405,26.83248677,7.519354824,9.509000063,13.57084537,16.75424147,19.44181835,20.40977276,17.16375472,15.74751643,13.71007622,8.50655754,8.450389052,13.62685976,15.58817353,17.34314748,18.36849178,14.97842881,14.34457974,12.87682879,0.797626729,0.881249991,1,1,1,1,1,0.994264069,41.162,-96.409,2017,NEH4
PHW52/PHM49,MIH1_2020,N,28.8,700.2287673,1,0,238,119,64.5,64.5,4.984838709,2.447142908,2.78018427,2.64718347,5.506875038,1.476884461,2.688717092,6.006552647,2.65185957,154.53,17.13000035,30.43499947,89.07562375,6.053750038,16.17374991,112.2143753,49.72375022,79.8756258,20.40588462,19.28742858,24.32683064,21.06964646,18.47526628,19.40802789,18.05267967,13.18055513,11.8632568,17.75483874,24.12857165,28.18736501,29.25734834,30.47187495,29.12451894,27.19720882,23.65947149,18.53645566,5.91032262,13.18571418,13.36449351,15.87753885,17.57625037,17.40439215,14.2199518,12.09430501,6.603961046,6.886871568,11.64218502,13.33305563,14.86544572,16.04104967,15.33737973,13.2580117,11.17810785,7.349100415,0.70564517,0.993469382,1,1,1,0.990981538,0.929873564,0.775463757,42.7085775,-84.4705825,2020,MIH1
F42/OH43,MOH1_2017,Y,17.7,731.1212129,0,2,229,110,65,64,8.937741737,9.40166688,2.512230721,3.318030003,5.035714369,1.794490762,1.996986524,1.220079397,1.67255761,277.0699939,56.41000128,33.26619119,103.9014299,11.93095259,15.87761924,65.30142803,7.334762096,51.25476209,18.72482054,18.08832916,22.62422694,21.00800173,18.77514496,19.93438148,19.70533138,19.36646121,17.34329115,21.92032254,25.32999992,25.47495036,29.30087203,30.46650729,32.25412016,29.92026774,28.22145964,28.04827898,10.06000005,15.27666648,12.99827088,17.39768618,19.78222205,21.21359122,18.70404881,16.33857143,14.9717184,9.612847321,12.76903024,11.94928206,15.49761919,17.12130987,18.67277384,16.20463701,14.48208578,13.92850008,0.915472353,1,1,1,1,1,1,0.999239796,38.89264,-92.2057525,2017,MOH1
B14A/OH43,ONH2_2016,Y,23.05,675.7722478,1.5,17,250.5,127,75,71.5,1.435483875,1.740833327,1.463802716,3.022687524,0.150999999,1.134659085,3.046446673,1.693503778,2.765116665,44.50000012,20.88999993,18.84600039,117.1590009,0.150999999,12.25349994,101.0444998,13.16149993,84.26899996,19.72563927,22.19747464,21.68954048,21.77365896,18.98664827,19.92678304,16.69906166,15.68152671,12.9072029,14.10741935,17.58083336,26.00758685,26.04894451,27.78099985,28.79287246,28.2480382,25.9224786,23.75348014,4.257419363,7.13166666,15.03828811,14.1477789,17.72699971,17.33924119,18.24672102,15.95494667,14.17526013,5.131346137,6.986841243,12.85116395,12.65171997,14.84296497,15.26027205,15.31782021,13.26534606,11.67621189,0.511244241,0.799851209,1,1,1,1,1,0.975829282,42.4530035,-81.88279875,2016,ONH2
PB80/PHZ51,IAH4_2015,N,15.33333333,736.2699538,0,11.33333333,264.3333333,125.6666667,65,64,1.42451612,4.854615514,2.513668144,6.351127419,5.46999979,2.154687441,1.85099418,0.335758934,4.064770202,44.15999973,63.11000168,35.58999979,218.2399999,10.93999958,20.30812445,58.48687407,2.377500039,125.1143763,19.83997888,19.28772805,16.02270398,20.69822917,17.27718186,21.35831173,20.17303565,19.59360772,15.6142427,15.83032262,16.78769229,22.26164163,27.88725423,29.37999988,31.52784708,28.69895342,30.18404469,25.46833276,2.473548389,5.024615425,13.48280789,16.59868734,20.37374985,19.78628468,17.37298211,16.89515858,12.68514048,5.318693913,6.228847238,10.78291245,14.47529064,16.87687486,17.66054739,15.18141656,15.71210426,12.05907357,0.585391697,0.659230777,0.98994413,1,1,1,1,0.952600636,41.19970961,-91.49362406,2015,IAH4
B37/H95,DEH1_2018,N,21.1,734.339176,0,2,199,92.25,66,65.5,3.413225795,4.724545566,2.007753279,2.760624154,0.287142856,8.862777665,3.915865231,4.933581623,5.971971652,105.8099996,51.97000122,28.2621423,90.35856978,0.861428567,79.76499898,101.102142,26.37928568,184.7400021,18.24738333,20.30334785,18.96061465,21.19242313,20.3949075,18.85770366,17.73482038,14.47844699,15.08372737,17.38161278,18.28454564,22.01469092,28.14795471,32.28714262,31.68230149,32.09286912,30.42106803,28.79790015,6.703871004,7.41363637,12.85857977,17.97497576,22.0019049,21.31992057,22.76420594,22.26141136,20.21526036,6.825711165,7.366383816,10.38385741,15.21158117,19.10753111,18.47850441,19.35879976,18.34204267,16.58274325,0.781601378,0.839058448,0.989425295,1,1,1,1,1,38.65164475,-75.44913625,2018,DEH1
PHW52/PHN82,WIH2_2020,N,28.35,693.6319429,1.375,0,256.875,114.875,73.125,71.125,1.142258063,7.375000167,3.772605813,4.528143625,15.91411821,3.015240613,2.848395651,6.559665308,3.073983535,35.40999997,73.75000167,42.96999988,163.850588,31.01764819,33.16764674,117.7699986,59.84176376,94.45823468,20.73953056,16.04352899,21.23354675,21.58093245,19.01370295,17.88573252,19.32013515,13.57540027,12.27254504,13.56999995,18.91099977,26.0938683,28.2322475,29.46647072,27.75422455,27.09322103,24.80509675,19.00189054,0.762580661,9.396999884,13.99892158,14.99589118,17.7452939,17.49807463,14.22893102,13.29211059,7.459399134,4.176897214,8.107987139,12.68677404,14.02444379,15.66411489,14.70790633,13.20588953,12.26960615,7.833960257,0.443168195,0.881928567,1,1,1,0.990384734,0.880973437,0.780679991,43.294786,-89.383968,2020,WIH2
PHG80/PHZ51,ONH1_2017,Y,28.45,637.8002834,0,3.5,262.5,115,78.5,78.5,4.42290319,4.904999876,1.545173221,3.420435244,1.695375006,2.594700004,1.855534774,1.54565171,2.383111348,137.1099989,49.04999876,23.52600009,140.8034994,5.378000009,36.46150006,95.23350107,29.85300009,72.44250006,18.65662235,17.08545341,23.10813164,20.12586768,18.11232318,19.44819915,16.33652997,11.62209215,7.957733996,13.94322577,18.20700026,22.35689536,24.80045755,25.17183321,25.2296929,22.79396283,22.13957367,13.29532023,3.578387066,9.706999969,10.10387851,14.12185296,14.82349991,13.63261195,10.3904862,9.847475595,3.166289439,4.958212412,8.025894563,9.659097931,11.97096233,12.35740613,11.98311106,9.953455995,10.0654016,5.273375752,0.439723498,0.877642858,1,1,1,0.972410901,0.840292505,0.515578473,43.49546,-80.42596875,2017,ONH1
PHW52/PHM49,MOH1_1_2018,N,17.63333333,731.1212129,0,1.666666667,220.6666667,93.66666667,56,54.33333333,4.419032262,0.120000001,6.56660792,4.995913726,0,0.865952386,4.867908623,7.318145406,3.629241153,136.9900001,0.840000004,71.60142667,150.6285707,0,7.793571472,145.6157139,39.85928573,112.0157138,18.39395777,18.46565301,20.1607481,20.70593221,19.87326009,21.97749135,18.06982858,17.46468943,16.31914076,19.5254839,22.76714298,27.16554273,29.60936822,31.6271427,32.32420578,29.51628185,29.85375934,27.04843165,7.99741943,14.14714282,16.43732974,18.81172612,21.79964249,20.71007941,19.44316189,19.21155699,15.91814144,7.992986492,11.1555316,14.00535673,16.26359619,18.7133926,18.51714259,16.54699664,16.60044059,13.86670431,0.872361758,1,1,1,1,1,1,0.995607144,38.89791675,-92.20952075,2018,MOH1
B73/PHM49,WIH1_2019,N,21.6,713.1006196,0,0,247.5,144.17,69.5,68.5,3.104193578,4.990909143,3.989206625,5.063632664,7.174102343,5.657788874,3.979490855,4.117971668,7.043559998,96.23000091,54.90000057,56.46538491,184.9676922,7.656153606,56.9199983,170.6046141,43.34153838,211.8461548,19.32800511,20.47989629,21.14585761,19.94081469,20.4834897,19.00171798,17.70480678,14.70759561,11.13260624,14.4303226,19.6027272,23.71186264,26.54399323,29.1737175,29.51828996,25.99775321,22.10125555,19.22207941,3.044193574,6.375454621,11.90649765,15.02653282,17.46782019,18.4264638,14.78313726,11.24849031,9.42963116,4.974875238,7.497369644,10.75801096,13.26663909,15.42227287,16.03343447,12.80151602,10.12875121,8.730340077,0.520449311,0.882272729,0.994529143,0.999440504,1,0.998245342,0.92932789,0.792629622,43.060857,-89.494068,2019,WIH1
PHG39/PHN82,INH1_2015,Y,13.65,736.9135464,0,1.5,223.5,103,68.5,68,2.968064535,5.608750075,2.401797478,2.620596579,1.049062505,3.048312443,3.454130844,1.332533481,1.484370975,92.01000059,44.8700006,26.44312483,85.12437463,1.715625018,30.48312443,116.5724995,9.316249996,45.68062523,19.44608656,13.59046638,21.88315593,21.65689439,20.60130358,19.73326552,18.77560381,17.99738388,15.64927463,15.67580632,21.0562501,27.44396829,29.52449332,32.66781175,30.16981242,28.17317586,28.46934151,25.5406298,3.004516139,13.05249977,15.22068343,16.62214482,19.56843758,18.02818774,16.71489706,16.46563638,12.56847521,5.360930658,9.9438759,13.725819,15.26696414,18.11812466,16.1828721,14.63810214,14.67667849,11.95902497,0.609504607,1,1,1,1,1,1,0.986081101,40.477075,-87.000205,2015,INH1
B14A/H95,INH1_2020,Y,22.7925,704.1225026,0.25,2,219.775,104.975,68.5,66,2.63064515,6.092222161,2.380905542,2.638028789,0.629411796,2.977235278,3.349803369,1.095052516,1.575144189,81.54999965,54.82999945,26.35000017,86.90176377,0.755294155,29.77235278,114.9176474,7.60117643,48.41470517,19.12040675,14.46862051,21.68340347,21.75389977,20.24839053,19.66959435,18.78188958,18.00828299,15.45076636,15.20677414,20.6899999,27.1104927,29.42650107,32.0752936,30.36388222,28.15834081,28.66782236,25.41333794,2.934193564,11.51555562,15.17811918,16.46944194,19.37588254,18.23752946,16.66734055,16.5683672,12.52337519,5.193705795,9.337664252,13.54219901,15.16026165,17.73146127,16.3694037,14.61167179,14.83949529,11.90095499,0.576025338,0.994801587,1,1,1,1,1,0.975702381,40.4787965,-86.9895995,2020,INH1
B73/PHZ51,ILH1_2016,Y,15.9,893.3065523,0,2,247.5,113.5,73.5,72,2.976905237,4.388409027,2.266536067,5.61207631,2.384848472,3.596551307,3.312350719,4.357499975,4.793790319,93.71999985,46.35499933,33.46068128,180.4177266,4.628863606,41.73386359,104.1413657,28.32431801,148.2020453,18.82488241,16.77241452,21.32061235,20.18653607,20.74234538,18.07981042,18.8666989,17.85818253,16.07680721,18.05081144,19.20204525,23.0422997,29.42292662,27.90308728,26.97317812,29.60218573,29.15938829,28.17592877,4.960040295,8.531272602,10.4507586,17.10049505,15.99717794,16.84881478,19.41054858,18.84383108,17.09740687,6.781235125,7.969267807,10.17119166,15.41614171,14.29579798,14.15384892,16.51995977,16.04951253,14.84458937,0.666766271,0.897956159,0.946860721,1,1,1,1,0.999883117,40.0607245,-88.2338815,2016,ILH1
W10004_0216/PHZ51,IAH3_2017,Y,17.7,731.1212129,0,2,229,110,65,64,4.153750014,4.476666673,3.404720357,2.207347727,0.783636364,2.628276904,1.892687593,2.328876272,1.794257086,132.9200004,67.1500001,54.03954627,78.33863542,1.567272728,28.02681865,71.85545488,19.05045461,54.69545453,16.14493189,17.75127989,18.89303832,22.07985964,20.54923199,20.99384486,19.81852315,17.22919489,15.64326955,15.84312499,15.5066665,21.42652578,27.714982,28.45522753,29.90074383,27.6545798,25.64720852,25.13760955,4.41906251,4.141333344,9.782295063,13.56526933,16.05901469,16.6123348,14.8096002,12.74600627,11.28191352,5.818880471,5.62230391,9.387130072,13.2881535,14.4256186,15.3843105,13.65871261,11.89796048,11.29223634,0.568604913,0.570380948,0.879734313,1,1,1,1,0.979205627,41.9758706,-92.24318881,2017,IAH3
B14A/H95,TXH1-Late_2018,N,10.8,750.4289914,0,2,247.5,102,61,62,3.579375003,7.22999986,0.880950212,3.393996506,5.74642872,3.619146949,3.455600496,0.428285708,2.278709721,114.5400001,43.37999916,11.7107143,109.309285,11.49285744,35.41714406,87.15857094,2.141428539,70.64000136,15.18905504,16.98149872,20.4111462,19.99876216,15.81608334,20.1152116,19.58230121,16.39417859,18.61523184,25.42156261,25.48166672,24.9240565,29.86096768,30.55928573,31.11103384,33.47173554,33.67857067,35.62923946,13.73406251,14.7233332,12.14174484,16.97683375,21.17380969,19.92907914,21.60030195,24.8844286,24.53525352,12.24876106,12.9546326,11.47321097,15.6369769,17.86869493,17.49319399,19.34856645,20.63058471,20.90474588,0.995234379,0.961607144,1,1,1,0.999944236,0.999152383,0.999033412,30.546318,-96.4329965,2018,TXH1-Late
B37/OH43,ARH1_2018,N,23.45,508.5668859,0,1.5,180.5,90,65,57.5,6.807499945,4.709999936,2.627776375,4.735912158,3.619166647,6.960178526,4.330437569,0.796285741,3.374677434,217.8399982,32.96999955,35.48928591,145.2942843,5.831428528,62.51428531,109.7978577,4.003571561,104.6150005,17.99706709,21.70226043,20.05949982,19.52680112,21.59397623,17.99264813,18.0574776,19.33215022,18.30424355,21.07062507,24.31857109,24.02168934,29.45279857,31.73095224,30.70692423,32.5717108,33.29521443,31.83741963,10.26718749,12.03571429,12.70205088,18.67412083,19.99154783,20.64677572,22.90335213,23.23585706,21.28834102,9.223277534,11.01036775,11.27832322,16.11267445,17.86206546,17.6775748,19.72770382,20.19469271,18.54368809,0.945725441,1,1,1,1,1,1,1,34.729679,-90.7603455,2018,ARH1
LH212HT/LH195,ONH2_2017,N,17.7,731.1212129,0,2,229,110,65,64,3.566774253,5.816000056,0.640467161,2.602850346,0.276190468,0.553043346,1.774150425,1.832219351,2.40528059,110.5700018,58.16000056,8.999047586,96.02571482,0.552380936,6.918571438,78.70857161,24.06619065,72.98142847,18.8542372,16.74867072,24.21291039,19.37094181,21.19715784,20.84705237,17.61151759,14.253685,9.927824707,15.7532257,18.68899984,23.40262829,26.34974997,26.59380949,26.86065013,24.57225317,22.91748616,20.00596815,5.764838726,10.96000004,12.03359118,16.18007827,16.63301581,15.91920336,13.14574071,11.27177775,10.10650586,6.141928302,8.38660306,10.68394655,13.52521671,13.7753985,13.64998718,11.58821465,10.41552723,9.107414304,0.598502303,0.966571423,1,1,1,0.999084662,0.956230826,0.8300025,42.45293025,-81.8827315,2017,ONH2
TX777/LH195,NCH1_2018,Y,24.75,731.1212129,0,2,202,104,58.5,58,4.157741868,0,6.852651043,4.101575565,0.281428576,2.753968325,7.265916583,9.606714405,8.963617552,128.8899979,0,78.76714403,125.545715,0.410714286,22.4842863,196.6735732,49.18571489,277.8721441,19.15814344,24.86455965,15.13897653,19.38558293,23.18458939,19.6068393,18.38664919,15.55735787,15.52161696,22.42709686,23.6650002,25.05504787,28.99162569,32.21999972,32.77589287,33.41271207,32.57228504,30.53730396,9.272903273,8.262500107,16.63082339,19.21430847,20.43714251,21.48106165,22.41052549,22.8214047,21.52269578,9.383610038,9.710722454,13.07063738,16.1524193,18.32857112,19.12847726,19.83450897,19.67052049,18.05632483,0.990449307,1,1,1,1,1,1,1,35.6667825,-78.492372,2018,NCH1
PHG39/TX205,ONH1_2016,Y,32.85,629.4335794,0,1,227.5,122.5,89,87,1.979032247,2.105714291,0.92181366,1.439738287,4.720833318,2.435439396,4.62931563,1.31185227,2.043303741,61.34999967,29.48000008,13.31600007,60.28400005,10.99249999,28.54150001,172.0475013,11.37649985,61.38049932,20.24883872,21.56727634,23.77365349,22.41142308,19.3081847,20.61473607,17.12813691,15.31534219,11.6349499,10.49290321,16.47999988,25.01561457,25.51466922,28.22516696,27.99415914,27.31356147,24.49017951,20.3886015,-0.735806467,3.753571405,10.93050922,11.61184699,15.55325019,14.71775745,15.07244109,12.71620509,9.185787659,3.269306411,5.688768484,11.09209761,11.56175859,14.2216101,13.76399544,13.57642435,11.5133866,8.776899495,0.291105988,0.684668367,0.99891379,0.988093962,1,0.998165816,0.971212584,0.877977401,43.4997965,-80.451125,2016,ONH1
B14A/MO17,NEH3_2017,N,35,689.9312854,17.5,2,200.5,113.5,65,64,6.03471326,3.955444498,0.18882913,3.842009577,1.316296295,1.435570981,2.764433094,3.912023778,4.15136979,187.076111,38.21611161,1.987222274,117.8244439,3.948888885,12.8655555,93.99333183,27.38611089,126.3194449,18.53150537,21.70326166,24.15860034,20.80931081,18.66603313,19.02487726,18.75887595,17.51813417,15.15718003,20.20137986,23.21257118,30.13389904,30.13339279,32.06462927,32.76776237,28.39622898,27.87449379,27.0242909,7.908297486,10.26215086,15.17879712,16.87891665,20.62425956,20.98993062,16.95054818,15.08081369,13.75654417,8.47748899,10.0955543,14.95078719,15.67969265,18.3413362,18.75248222,14.77642402,13.79312874,13.00111339,0.783510626,0.953819441,1,1,1,1,1,0.993105158,41.162,-96.409,2017,NEH3
LH212HT/LH195,MOH1_2015,N,13.9,731.1212129,0,4.5,210,117.5,80.5,79,3.914838722,3.002727248,2.7038834,5.646226268,2.268750012,1.183333344,4.736744086,1.740401796,3.666491943,121.3600004,33.02999973,34.41999933,178.8712478,5.868750036,10.6500001,140.2618746,11.88312507,113.6612502,18.81846694,18.88703156,16.92919735,21.70591481,15.72154266,19.94530069,18.47422179,20.12873028,17.02653892,18.28451609,18.00181831,23.77805456,28.93028285,29.85593748,31.76118019,30.42140763,28.58050013,28.43143147,5.857096827,7.500000065,15.21487777,17.6487962,21.67281234,21.45979159,20.28182538,17.09899995,17.28669369,7.068544315,7.302193139,11.97142579,15.39796361,17.76437491,18.61048589,17.380694,14.99182695,15.05317439,0.723283405,0.814935086,1,1,1,1,1,1,38.8965375,-92.20800417,2015,MOH1
W10001_0022/PHB47,GAH1_2017,N,13.9,733.6955833,2,2,170,75,54.5,54,1.929687474,5.730000019,0.343252103,3.449286585,2.107618968,4.586772466,5.884115127,3.462793619,5.790337869,61.74999917,45.84000015,4.185237975,115.4628578,3.161428452,44.24761888,164.3961923,18.00285697,179.500474,16.80249013,20.13732326,20.17342047,19.27076224,21.20480144,16.6798163,18.15858085,19.37517402,17.73704587,23.5584375,24.76124978,28.73884546,29.02932191,29.79031757,30.11825943,30.88468736,33.04158726,32.39466959,8.654999979,9.073749959,13.81601286,15.94569083,16.85142871,20.07059283,21.0580027,22.24365102,22.03411694,9.935165979,10.3201674,13.6844889,14.81363998,15.5596332,17.10789698,17.95959829,19.61349988,19.1980032,0.8834375,1,1,1,1,1,1,1,31.50794425,-83.55854475,2017,GAH1
PHG39/TX205,MOH2_2015,N,17.45,731.1212129,0,7,217.5,117.5,76,75.5,3.914838722,3.534545422,2.891676029,5.446623968,2.505882375,1.1137255,5.068586465,0.980448186,4.011119538,121.3600004,38.87999964,35.23176398,173.6929392,5.011764751,10.0235295,148.9223525,6.487058864,124.3447057,19.08701148,18.12534948,17.16717858,21.59629129,16.88945411,20.34516158,18.32895435,19.90608894,16.95494386,18.756129,18.24727275,23.87322904,29.02836507,30.59176479,31.93248319,30.27285599,28.73220747,28.34062618,6.152580692,8.059091026,15.30129973,17.80114352,21.94705907,21.39261428,20.17023127,17.40519331,17.20941189,7.288196993,7.58478923,12.05891064,15.51775091,18.26941193,18.66254873,17.2518739,15.21359182,14.97078901,0.75554147,0.814935086,1,1,1,1,1,1,38.89807917,-92.2079,2015,MOH2
CG119/CG108,NYH2_2015,Y,16.35,731.1212129,0.5,1.5,200.5,94.5,68.5,67,3.814193487,2.822857129,1.806874641,1.427310218,14.28882354,6.323155046,2.553769654,1.263651931,1.70374005,118.2399981,39.5199998,23.5252947,50.99705838,17.86235295,65.18176435,90.43176518,10.71352917,51.74117684,19.21827184,21.58410556,20.44972798,21.8367517,17.34067749,18.34945618,18.49425604,17.55625849,13.84215422,11.26903224,15.86071418,24.70888252,27.12764594,29.5805878,28.55383422,27.75922879,25.11594081,20.73318661,0.676451599,3.065714287,12.68317757,14.19692254,19.48862723,17.66257776,16.12899413,12.03346763,8.797239788,3.458861152,5.522653893,11.65565145,13.2498794,16.56577659,15.18766176,14.16580901,11.53845799,8.731216192,0.261509218,0.568112238,0.971160735,0.994106254,1,0.999864887,0.980226591,0.898542131,42.7324825,-76.65277775,2015,NYH2
PHN11_OH43_0001/PHB47,NCH1_2016,N,13.65,731.1212129,3.5,2,228.5,112.5,65,64,2.901562452,3.125714166,7.137907935,4.683034439,4.3177271,0.863030289,5.226283407,5.104181825,4.507668668,92.84999847,21.87999916,91.86318315,160.7736342,8.497726928,8.495454409,139.9318182,26.12772732,139.7377287,16.36857818,22.27138465,15.49498623,18.72849078,21.8793198,21.8664799,18.529992,18.05675722,17.32656161,20.86125001,25.58571407,25.68946269,27.1054564,30.20318166,31.0559697,32.42423852,33.59766701,33.26035177,7.692187494,8.212857212,14.27003911,16.07300028,18.02681784,18.80169681,21.2796372,22.62190931,22.7218182,8.383421821,10.43985322,12.46468669,13.95599298,16.17160042,16.99727481,18.83160592,19.980567,19.86697781,0.913761163,1,1,1,1,1,1,1,35.30015175,-77.57127825,2016,NCH1
CG119/CG108,NYH1_2019,N,23.8,719.2147495,6,2.25,212,112.75,59.75,58.75,3.742499989,3.13750004,5.753824184,3.193184694,5.054999975,4.679644987,3.141734315,2.115619262,4.095645999,119.7599996,25.10000032,83.05615347,110.7876916,10.59692295,60.83538484,169.67846,49.66846142,126.1984601,19.31204623,22.90652502,19.40556432,20.09548462,19.54416251,18.43271946,14.78687504,11.82668111,8.218362691,18.69937494,22.85875034,22.9010546,27.51683221,28.25012823,26.24284011,22.02988517,19.80082275,11.00573521,7.845625035,10.06374997,12.28813039,16.10263177,16.07333343,14.39934908,10.67406786,8.357505336,1.635690852,7.6395284,9.775213808,10.49055945,14.05854059,14.39300596,12.73828549,9.762895495,8.676471021,3.980466677,0.838560269,0.991875008,1,1,1,0.934962266,0.800347462,0.399612352,42.7288875,-76.65152084,2019,NYH1
PHW52/PHM49,KSH1_2018,N,15.95,789.688141,30.75,2,229,110,65,64,0.123225804,1.309000027,2.835063753,1.245921432,6.190769489,0.847777789,5.121826591,3.691923017,0.576771715,3.819999933,13.09000027,33.35999966,37.39923182,6.190769489,7.630000105,140.8584615,22.1515381,17.82230777,23.1370286,19.20606413,23.76917973,25.01946837,21.72317813,23.99633906,18.76579115,18.12170014,19.24157322,22.75709664,20.771,27.08892973,34.13484851,36.79923102,35.27700868,33.17677556,30.51957897,31.48973893,3.915806478,6.778999925,10.75682887,16.60383588,18.26846137,18.37008543,18.87125761,16.15291204,15.043086,8.255034949,8.267600828,11.90551203,16.73972083,17.84021903,17.73256873,17.54545708,15.43757555,15.43621363,0.847615199,0.789999991,1,1,1,1,1,0.970122947,37.810107,-100.775188,2018,KSH1
B37/OH43,WIH2_2017,Y,17.7,731.1212129,0,2,229,110,65,64,5.048709616,4.636666616,1.142383575,5.763857885,8.001590729,6.160048604,1.607776433,1.167726513,2.257555268,156.5099981,41.72999954,17.5799998,219.3963643,12.14409065,74.04090792,72.28863683,15.04409093,68.0204557,18.1690344,19.72049554,20.64727683,20.23287988,19.13163679,19.37493243,18.51401576,14.93340477,10.89478233,16.03129027,21.86555545,22.15746071,26.59689143,27.90045501,26.76799254,24.73062069,22.38533393,20.51274781,3.24419354,8.791111098,9.553497601,14.54337319,16.81037892,15.37831158,12.19271258,9.193202486,7.868866577,5.438218202,9.209131236,9.451203107,13.05708411,14.51682301,13.37610723,11.31306373,9.686333754,8.853113959,0.624158991,0.847976183,0.950288768,1,1,0.998699911,0.954544862,0.834596302,43.3246415,-89.33688775,2017,WIH2
B73/DK3IIH6,ARH1_2017,N,13.4,639.7310613,0,2,205.75,118.1,65,65,3.058125025,3.532857077,9.871688678,6.405160528,0.516363615,5.988171668,5.119232493,3.102318153,5.34158356,97.86000079,24.72999954,132.0327285,211.6218184,0.569545432,54.36818138,136.8913653,16.08272713,165.5890903,17.13974981,16.55343887,20.38424011,18.76225527,22.81364793,19.06964508,19.53553475,19.77193111,17.12972935,24.60906261,23.96000045,24.77057006,28.06605652,30.35469691,31.5146664,31.30577636,32.78459133,30.91587993,11.9175,14.17857156,11.8445801,17.60850246,18.97249995,21.30615642,21.39979275,22.50533316,21.62237538,11.1639709,11.77578055,11.22655186,14.97537354,16.74359516,18.41041141,18.33049426,19.54768126,18.22457608,1,1,1,1,1,1,1,1,34.7272515,-90.76032575,2017,ARH1
F42/MO17,NYH1_2019,Y,21.45,700.2287673,4,3,268,149.5,69,67.5,3.742499989,3.13750004,5.753824184,3.193184694,5.054999975,4.679644987,3.141734315,2.115619262,4.095645999,119.7599996,25.10000032,83.05615347,110.7876916,10.59692295,60.83538484,169.67846,49.66846142,126.1984601,19.31204623,22.90652502,19.40556432,20.09548462,19.54416251,18.43271946,14.78687504,11.82668111,8.218362691,18.69937494,22.85875034,22.9010546,27.51683221,28.25012823,26.24284011,22.02988517,19.80082275,11.00573521,7.845625035,10.06374997,12.28813039,16.10263177,16.07333343,14.39934908,10.67406786,8.357505336,1.635690852,7.6395284,9.775213808,10.49055945,14.05854059,14.39300596,12.73828549,9.762895495,8.676471021,3.980466677,0.838560269,0.991875008,1,1,1,0.934962266,0.800347462,0.399612352,42.7288875,-76.65152084,2019,NYH1
TX951/LH195,WIH1_2016,N,30.15,794.8368819,0,2.5,248.5,129,78.5,78,2.076129018,1.94750002,4.430291291,4.068377178,0.606590927,8.204471101,6.520888551,7.285801826,4.413191112,64.35999957,23.37000024,50.66818307,153.9786358,1.017727305,87.41727302,222.4604529,58.95590957,134.9268184,19.92805462,20.9108026,19.53546339,20.65690042,18.97296773,19.76360502,17.50876714,15.21370917,12.23883056,16.70258062,17.57583312,27.08182728,26.49130857,27.22159082,28.35833875,27.6700069,25.1458901,22.98674642,3.327419363,4.990833327,14.04723809,14.47423798,17.58636334,16.7186736,17.17399145,14.32051147,12.5735533,5.875866612,6.419508974,12.98865398,12.92924289,14.50224274,14.72651534,14.55658067,12.23924581,10.7486024,0.621198161,0.7653869,1,1,1,0.999967803,0.998306277,0.970976554,43.05632525,-89.53194975,2016,WIH1
PHB47/PHZ51,IAH1_2015,Y,17.26666667,721.6818545,0,14,275.3333333,137.3333333,65,64,1.566451638,2.213076954,8.402418557,1.323463692,0.084411761,2.297359398,2.93999255,2.37101191,2.732793763,48.56000078,28.7700004,122.1399999,43.52999979,0.168823523,22.82352863,100.1182349,16.67000003,83.81294001,20.43214903,18.85811498,14.63317728,22.31276759,19.14227258,22.20806523,19.83862588,18.33763158,15.0581957,16.08774191,16.64538457,21.84697853,28.7334183,30.26852911,31.30747052,29.05105531,29.39636272,24.66946357,1.839032284,4.865384661,13.12892854,16.86768962,20.05941139,18.05705196,16.3929614,15.43749916,11.17229855,5.447129731,6.098188577,10.48240964,14.99632473,17.16639266,16.72884186,14.96924927,14.77137221,11.30644361,0.593087559,0.682994502,0.988452545,1,1,0.997626801,1,0.896934674,41.9980952,-93.69336973,2015,IAH1
B14A/MO17,MNH1_2020,N,21.7,713.7442122,8.5,4,242,137.5,61,59,0.943005099,6.546073051,4.140359128,4.707487639,0.452236841,2.543512757,5.928901117,4.270615044,2.501087783,29.23315806,64.90105435,50.61684199,155.384737,0.714736844,28.61736839,219.2994748,34.34473765,76.93105461,20.83516212,15.73399946,19.74828467,20.97522671,19.78574355,20.20086134,18.41063051,15.8353279,12.84776632,15.708455,18.53155205,25.82840423,28.49526052,29.92499944,28.21992409,26.52185226,25.93987928,19.74067922,2.261239378,9.186207707,13.99244036,16.68286788,19.34447405,16.90528318,15.09377646,14.30914312,8.593217323,5.370680578,7.953384306,12.46596379,14.77865871,16.66236577,14.75116185,13.25288188,13.01752467,8.666130292,0.622613994,0.838417993,1,1,1,0.988450437,0.93066422,0.780758993,44.06907839,-93.53263028,2020,MNH1
B37/H95,NYH3_2020,N,15.85,725.9724719,0,4.5,239.5,109.5,66.5,66,4.422257993,0,1.373865683,3.203515064,6.161458224,3.578657229,2.247619776,1.339995863,2.270768823,137.0899978,0,18.69000064,113.6731244,12.19749978,37.86125033,87.74812532,17.041875,68.54562519,20.94560956,21.78233427,21.55267425,20.63825651,19.18147684,18.87690393,17.75633085,13.93943947,11.5316014,14.59225801,27.97729172,23.60945411,27.89842024,28.17958339,28.76829368,26.51617347,21.47489044,18.12990527,2.644717742,15.68266662,11.3508871,15.53912014,16.43281273,17.50013456,14.53010818,10.52921434,6.891416056,5.000434995,14.04753459,10.70035646,14.11697706,14.42792892,15.19886376,13.03509367,9.604727821,7.356101809,0.471947005,1,0.969562211,0.99553941,1,0.989555914,0.903066166,0.764418635,42.73227475,-76.6513705,2020,NYH3
B14A/MO17,NYH2_2015,N,17.2,731.1212129,0,3,260,118,82,82,3.814193487,2.822857129,1.806874641,1.427310218,14.28882354,6.323155046,2.553769654,1.263651931,1.70374005,118.2399981,39.5199998,23.5252947,50.99705838,17.86235295,65.18176435,90.43176518,10.71352917,51.74117684,19.21827184,21.58410556,20.44972798,21.8367517,17.34067749,18.34945618,18.49425604,17.55625849,13.84215422,11.26903224,15.86071418,24.70888252,27.12764594,29.5805878,28.55383422,27.75922879,25.11594081,20.73318661,0.676451599,3.065714287,12.68317757,14.19692254,19.48862723,17.66257776,16.12899413,12.03346763,8.797239788,3.458861152,5.522653893,11.65565145,13.2498794,16.56577659,15.18766176,14.16580901,11.53845799,8.731216192,0.261509218,0.568112238,0.971160735,0.994106254,1,0.999864887,0.980226591,0.898542131,42.7324825,-76.65277775,2015,NYH2
B73/DK3IIH6,MOH1_2016,N,15.775,731.1212129,0,2.25,267.5,132.5,56.25,55.25,2.465483877,8.058000231,0.264259377,6.282521268,1.94553035,9.25680559,4.358907121,3.354664451,5.453130527,76.43000019,40.29000115,2.879999995,172.8372758,4.262727369,83.20363667,125.2090916,21.13363606,168.2240918,20.2309363,16.93509369,22.49829557,20.20959989,18.68177986,19.21408964,18.0090922,17.17714413,15.87534947,21.83193548,27.56600037,27.88644765,31.21215235,30.25795442,31.2505745,30.57423065,29.80077912,28.25339236,10.073871,16.74400005,16.26474463,19.86215984,19.98371223,20.49117413,20.76153791,19.91431794,17.56318368,9.497798547,14.24343349,14.21296425,17.47336946,17.12232598,17.8699151,17.65104862,16.90998551,15.09561117,0.937315665,1,1,1,1,1,1,0.999442641,38.8955475,-92.2072025,2016,MOH1
B73/MO17,WIH2_2016,Y,19.8,801.9164007,0,5,281,151.5,65,64,2.185483832,6.563333432,3.447094458,4.124693788,6.707159024,6.158880111,5.945293137,1.654273513,4.758742445,67.74999878,39.38000059,44.45545418,149.2718189,18.91272705,63.86318129,228.7613642,17.11772738,143.1609097,20.07161814,17.64681498,20.48120554,20.03716075,21.00097141,18.73971629,16.31911952,14.94670844,10.3303759,18.34677419,27.65666644,25.59626749,27.3504729,29.44640147,29.15349181,26.70938079,24.21329019,20.37268081,4.840000014,15.2516667,12.43660419,15.21846351,16.18390156,17.81047537,15.29826924,12.0891497,9.537770322,6.76617685,13.67923016,11.77429452,13.6256578,15.0809804,15.56950508,13.35737665,11.10536848,8.849967039,0.729688939,1,1,1,1,0.998061418,0.979766622,0.886131912,43.32649075,-89.33882925,2016,WIH2
CG44/CGR01,NYH2_2018,Y,20.335,739.0374021,6.5,2,239,118.5,73.5,72.5,4.152903213,0.855714253,1.31693108,2.056877316,18.60714291,4.17142208,1.796460541,3.71345921,2.001911684,128.7399996,5.989999771,17.50499944,73.5107149,37.6500001,45.13714288,70.0178584,34.82000022,60.53000028,20.64383799,23.73438372,20.97980276,21.28373647,15.72294375,18.26843876,18.50915054,13.77481919,12.83457813,12.82806446,24.72714315,24.76775456,27.60101009,28.96428537,28.5122727,26.91050025,24.01606741,19.66558606,1.452258048,10.48999977,13.07559666,14.8719081,19.08642861,17.4819286,14.95013511,12.80738491,7.865124395,4.113027627,10.74522894,11.82847182,13.74928068,16.05096628,15.06575239,13.37181447,11.42873851,8.144119245,0.351670502,1,0.973410204,0.99504728,1,0.991140913,0.940533101,0.821942422,42.72611075,-76.65530175,2018,NYH2
F42/OH43,MIH1_2019,N,28.5,690.574878,13,14.5,241.25,119.5,71,68,3.720322615,6.189999878,7.0818969,2.961916884,8.70871786,0.913986013,1.817216317,4.468053866,4.013250907,115.3300011,49.51999903,106.8900002,93.8269235,16.81999984,10.80615383,84.36076873,63.3192304,120.886153,19.31986936,19.65939665,18.51979106,21.00444556,17.01540622,20.04742627,16.96863927,12.02893287,10.87568864,17.60709666,21.67250037,22.690749,28.9340566,30.56538516,27.94921954,26.00654686,21.50260694,17.46530245,6.210322559,10.31875008,12.21847794,16.86604701,18.743333,15.85306519,14.00590995,11.32576155,7.161163464,6.876773896,9.314382636,10.39761731,15.10453275,16.86261297,14.19391073,12.58553183,10.00606366,7.511656803,0.696382483,1,0.995173883,1,1,0.988904737,0.895422602,0.709438731,42.70789125,-84.4706665,2019,MIH1
PHG39/PHN82,TXH1-Late_2018,N,11.2,738.8443243,0,2,249,95.5,62,62.5,3.579375003,7.22999986,0.880950212,3.393996506,5.74642872,3.619146949,3.455600496,0.428285708,2.278709721,114.5400001,43.37999916,11.7107143,109.309285,11.49285744,35.41714406,87.15857094,2.141428539,70.64000136,15.18905504,16.98149872,20.4111462,19.99876216,15.81608334,20.1152116,19.58230121,16.39417859,18.61523184,25.42156261,25.48166672,24.9240565,29.86096768,30.55928573,31.11103384,33.47173554,33.67857067,35.62923946,13.73406251,14.7233332,12.14174484,16.97683375,21.17380969,19.92907914,21.60030195,24.8844286,24.53525352,12.24876106,12.9546326,11.47321097,15.6369769,17.86869493,17.49319399,19.34856645,20.63058471,20.90474588,0.995234379,0.961607144,1,1,1,0.999944236,0.999152383,0.999033412,30.546318,-96.4329965,2018,TXH1-Late
CG44/CGR01,WIH2_2015,N,17.7,814.1446605,0,0,227.5,116,65,64,3.126774188,2.655000041,4.103605878,5.336067251,1.868823528,3.142847566,3.066358713,6.463272165,3.426278957,96.92999983,15.93000025,53.58117651,186.0694135,5.435882344,36.03705852,132.4747064,52.80117733,103.4994124,19.63646212,20.57311455,21.5892617,21.07111177,18.36300238,19.20517036,18.54583572,13.68038168,11.37476292,15.6409678,24.97666677,26.11823115,28.09529077,27.51588227,27.91298604,26.4469062,23.95331443,17.63645543,3.355806466,13.62666686,13.88922494,15.17788174,17.2276475,16.92946091,13.73434519,12.63733902,6.343913375,5.370860554,11.93138906,12.65256426,14.04290221,14.43586033,14.57588984,12.76646014,11.49482956,7.023163717,0.588214292,1,1,1,1,0.979783322,0.914260835,0.715230077,43.3264485,-89.33359975,2015,WIH2
B73/MO17,IAH1_2019,N,23.25,692.5056558,0,0.5,217,105,65,64,8.157187574,0.75333335,7.315577374,1.144389074,0.212857144,0.731688293,3.103679801,5.185721735,4.918979992,261.0300024,4.5200001,87.30642721,32.26642813,0.212857144,8.04857122,121.5035704,46.39999972,147.9399989,18.01904646,22.72114833,18.53868323,20.84617194,19.20093738,21.91428985,16.4832458,14.23349405,11.00878768,22.30999994,27.52999973,24.52617789,31.4481278,28.63047609,29.47870132,27.11002697,25.00731411,20.46577188,10.93062501,14.96333329,14.91684483,20.02766766,18.36452364,16.34071412,15.67686671,13.06746994,9.592819484,10.11779152,13.58137929,12.09039624,17.73903178,15.5681627,15.08353594,13.70818638,12.14295105,9.387875541,0.879263394,1,1,1,1,0.994329881,0.928985237,0.797752907,41.1992562,-91.4941418,2019,IAH1
B37/MO17,TXH3_2019,Y,10.315,797.7137409,0,0,207,85,69.5,69,1.71448275,0.072857141,3.656594302,9.095434564,0.409285716,1.207678571,5.355850783,1.246142852,1.574419343,49.71999974,0.50999999,52.00785631,328.2121388,0.592857139,9.661428571,146.4478573,6.531428533,47.51499965,15.42805705,20.52131135,18.76898834,18.57032559,21.42349659,18.85281525,20.14881361,21.03072751,19.84089234,18.45000007,25.76428577,24.43254944,27.27586732,31.09000002,32.37866099,32.72435205,34.04471448,34.98200776,6.826206914,10.35000004,10.67963154,14.78766739,18.65857179,21.85071427,21.02442735,21.79614282,22.6049739,7.457816468,11.1589152,10.85119479,13.46630403,16.91193677,19.11412105,18.84765314,19.77807102,20.01419559,0.749667494,1,0.945308164,1,1,1,1,0.999698925,30.546318,-96.4329965,2019,TXH3
F42/OH43,KSH1_2016,Y,16.3,753.0033618,0,1,155,70,87,87,0.381562503,5.593749881,9.031136959,3.981909994,0,0.897724769,5.011421387,3.322424253,5.670073263,12.2100001,44.74999905,140.9509078,148.5090918,0,8.374091108,139.438637,19.93454552,175.7722711,18.43315426,14.04582843,18.34613738,20.88446512,22.70328743,20.59441801,18.34986672,18.15379387,17.32510191,19.15124996,21.70124984,22.33901244,27.19377063,36.31272689,35.17540036,32.01078432,33.85633352,30.76895891,2.130625044,11.46499991,9.568238579,14.2621368,21.58727247,22.04353923,20.78061301,22.71134866,19.49139311,6.3158573,9.667291017,9.626890379,13.35418843,19.56599107,19.14397536,18.06824645,19.12054732,17.03744615,0.741573662,1,0.921279778,0.986042268,0.991287871,0.998977631,0.993550002,1,39.14480675,-96.62898225,2016,KSH1
LH198/PHZ51,GAH2_2017,N,13.9,778.1034739,0,2,220.5,107,55,55,5.215806507,2.59000005,0.877047008,6.976424555,36.66571527,11.68990473,2.766634194,6.717714339,5.237281131,161.6900017,18.13000035,10.98809533,219.4985743,69.630002,116.6428568,77.55666748,33.5885717,162.3557151,18.59375843,20.97986943,21.98193589,18.54567619,14.33990901,17.7663424,19.78523868,18.86354985,17.57616326,25.93516134,24.17571449,30.47339418,29.31252372,29.52904774,29.72980419,32.72601502,32.10511542,30.76784952,12.17225799,9.938571385,16.15324828,18.06353156,20.43476164,19.51114297,21.20992787,20.86352373,19.95543778,11.90954616,10.38538115,15.45655397,15.75249851,16.98190469,16.63412837,18.90169131,18.47155665,17.41241638,0.999631335,0.985714285,1,1,1,1,1,1,33.727145,-83.29821525,2017,GAH2
PHW52/PHN82,WIH1_2015,Y,33.3,794.1932893,0,0,266,140,65,64,4.730000059,9.059999784,2.430610682,6.190059866,3.242812514,1.739310909,2.563222068,2.582604527,2.064862235,151.3600019,54.3599987,32.30062549,198.0887501,6.485625029,21.11437514,113.2525011,35.42937557,62.48000012,19.32367544,22.19104989,23.8972515,19.04105101,21.62804324,20.72553659,16.09255797,13.7227876,9.595561915,19.95718755,28.15000025,26.05326099,28.85932006,29.07385437,26.51056077,24.82739399,20.18089026,14.51549808,8.517187543,15.30499983,11.82802944,17.48783518,16.48010375,14.49615378,12.31509137,8.581945626,2.680440183,8.558350873,13.98301754,11.81015597,15.26183828,14.95581898,12.98753542,11.68123469,8.628108428,5.087550731,0.777276777,1,1,1,1,0.929186389,0.833919484,0.505939954,43.05511725,-89.528525,2015,WIH1
CG60/LH162,OHH1_2017,Y,14.85,781.9650296,0,2,229,110,65,64,4.401935447,12.29571451,4.299880116,6.252045262,18.36299991,4.892395558,3.195317293,3.431958172,3.794688752,136.4599988,86.0700016,53.63949916,223.8204996,40.86499989,50.26800107,124.097,30.99400014,115.4320013,19.0647902,19.03427505,21.00226491,20.15032754,19.69555429,18.89580098,18.69837911,16.0400155,13.85510684,20.47903239,25.43142836,25.24002704,27.25803818,28.09541678,28.73270468,26.30456447,24.69395371,24.25720733,8.011935501,13.44999967,12.59882409,15.91673102,16.75358336,18.39824095,14.97688189,13.11535887,11.81284403,8.407228033,12.106522,11.63721293,13.8931373,14.6377479,15.63224373,13.07252875,11.66012039,11.13333271,0.85352535,1,1,1,1,0.996926048,1,0.96495674,39.855785,-83.66477375,2017,OHH1
PHB47/PHN82,WIH1_2017,Y,20.875,699.5851746,0,2,246.25,116.75,77,77.75,3.894838602,1.694000003,3.49156578,6.251914317,26.29780264,12.3515148,1.782621048,1.031219451,2.019413967,120.7399967,16.94000003,60.77000046,238.2086357,55.48409002,148.2181776,77.27181808,11.13545426,60.74545419,17.96009764,21.56986256,18.71582301,20.73316127,19.69440102,19.58726141,19.1692292,15.69151392,12.21998586,16.03451621,20.2119998,20.22998088,26.71060266,27.00553033,27.16428033,24.80808837,24.03641879,21.845045,3.37838715,6.260000002,9.268565708,14.6662765,15.35575767,16.21109857,13.17589581,11.52521119,9.509429623,5.507434962,7.720411242,8.664602637,13.14891279,13.46068042,13.9043846,11.67856357,10.90146065,9.608265423,0.606900932,0.8735357,0.867893568,1,1,0.998220242,0.971647403,0.89569217,43.05668125,-89.5308135,2017,WIH1
B14A/OH43,MOH1_1_2018,N,17.9,731.1212129,0,1.5,236,101,54,51.5,4.419032262,0.120000001,6.56660792,4.995913726,0,0.865952386,4.867908623,7.318145406,3.629241153,136.9900001,0.840000004,71.60142667,150.6285707,0,7.793571472,145.6157139,39.85928573,112.0157138,18.39395777,18.46565301,20.1607481,20.70593221,19.87326009,21.97749135,18.06982858,17.46468943,16.31914076,19.5254839,22.76714298,27.16554273,29.60936822,31.6271427,32.32420578,29.51628185,29.85375934,27.04843165,7.99741943,14.14714282,16.43732974,18.81172612,21.79964249,20.71007941,19.44316189,19.21155699,15.91814144,7.992986492,11.1555316,14.00535673,16.26359619,18.7133926,18.51714259,16.54699664,16.60044059,13.86670431,0.872361758,1,1,1,1,1,1,0.995607144,38.89791675,-92.20952075,2018,MOH1
PHG39/PHN82,TXH1_2015,N,12.45,758.7956954,0,2,174,89,71.5,70.5,2.435333351,0.886666695,4.529386736,2.992210444,0,5.407499953,3.236240411,4.528416659,2.205666663,73.06000052,5.320000172,54.16999972,113.7899998,0,59.48249948,89.11249819,24.54499996,66.1699999,13.38128519,15.80308406,13.73749678,19.48289484,22.46598899,19.96463979,19.54848583,19.57031498,18.03135075,19.61999995,26.26833312,25.8489028,26.4780255,30.37177098,28.79539756,31.9014052,33.48070828,34.35516661,6.122333375,12.74499997,15.39155332,13.69439061,15.83385423,15.9580683,20.41172374,21.45270844,23.93220836,7.516768444,12.28221354,13.06030889,12.7550996,15.35592881,14.67426974,18.11040569,19.30603111,20.37775841,0.822428569,1,0.992325397,0.994092815,1,1,1,0.999431249,30.54708625,-96.43393475,2015,TXH1
B14A/OH43,ARH2_2017,Y,17.7,731.1212129,0,2,229,110,65,64,2.789999995,15.83285686,4.776016413,2.853949028,1.142500003,5.651818152,3.905948255,2.4430325,4.688621725,89.27999985,110.829998,61.6427269,88.95863769,3.003181826,52.42863608,105.2449988,13.33772746,145.3472735,17.14489296,19.09436907,20.93439511,19.65670258,19.84409681,19.1211903,18.81176407,19.65259997,17.546866,23.65656266,24.55142866,25.38541455,28.9612549,32.40098458,30.84565692,31.84241473,32.83627249,30.20087953,12.07343751,12.16142872,12.7110645,18.0477898,21.78734854,20.24410098,21.87781566,22.25639174,20.26112908,10.83878158,11.22094165,11.88579938,15.62584547,19.09416656,17.54487895,18.8103181,19.27693671,17.25265116,0.991674107,1,0.97315368,1,1,1,1,1,35.67418125,-90.0752695,2017,ARH2
LH212HT/LH195,MIH1_2017,Y,27.2,662.2568029,0,2.5,106,56.5,68.5,70,2.651290334,1.642500043,0.365195355,3.685889798,0.022982455,0.462972321,1.745768067,1.924198947,6.215848807,82.19000036,13.14000034,4.417894763,131.6678931,0.068947365,5.871578781,77.40789432,25.15789459,187.919471,20.75480046,19.52619267,24.47429891,19.89055103,21.94334328,22.12060477,17.47908742,14.76431364,9.641321864,18.99677434,22.1187501,26.44652255,27.49693157,27.7329823,27.82492569,25.37386911,24.10071042,20.63989867,5.961290348,11.91874993,11.36318641,16.0503933,16.08877179,14.96255052,12.27657104,9.93890341,8.936309075,7.303217139,10.01258026,11.86785018,14.06113521,14.11607898,13.75096176,11.67659513,10.59348898,9.148775778,0.770126733,1,1,1,1,0.999072621,0.949278334,0.816440377,42.68116575,-84.49434125,2017,MIH1
F42/OH43,NYH1_2019,N,21.45,751.7161766,5.5,2,264.5,148,68,67,3.742499989,3.13750004,5.753824184,3.193184694,5.054999975,4.679644987,3.141734315,2.115619262,4.095645999,119.7599996,25.10000032,83.05615347,110.7876916,10.59692295,60.83538484,169.67846,49.66846142,126.1984601,19.31204623,22.90652502,19.40556432,20.09548462,19.54416251,18.43271946,14.78687504,11.82668111,8.218362691,18.69937494,22.85875034,22.9010546,27.51683221,28.25012823,26.24284011,22.02988517,19.80082275,11.00573521,7.845625035,10.06374997,12.28813039,16.10263177,16.07333343,14.39934908,10.67406786,8.357505336,1.635690852,7.6395284,9.775213808,10.49055945,14.05854059,14.39300596,12.73828549,9.762895495,8.676471021,3.980466677,0.838560269,0.991875008,1,1,1,0.934962266,0.800347462,0.399612352,42.7288875,-76.65152084,2019,NYH1
CG119/CG108,IAH1_2015,N,14.65,680.9209887,0,8.5,201,97,65,64,1.566451638,2.213076954,8.402418557,1.323463692,0.084411761,2.297359398,2.93999255,2.37101191,2.732793763,48.56000078,28.7700004,122.1399999,43.52999979,0.168823523,22.82352863,100.1182349,16.67000003,83.81294001,20.43214903,18.85811498,14.63317728,22.31276759,19.14227258,22.20806523,19.83862588,18.33763158,15.0581957,16.08774191,16.64538457,21.84697853,28.7334183,30.26852911,31.30747052,29.05105531,29.39636272,24.66946357,1.839032284,4.865384661,13.12892854,16.86768962,20.05941139,18.05705196,16.3929614,15.43749916,11.17229855,5.447129731,6.098188577,10.48240964,14.99632473,17.16639266,16.72884186,14.96924927,14.77137221,11.30644361,0.593087559,0.682994502,0.988452545,1,1,0.997626801,1,0.896934674,41.9980952,-93.69336973,2015,IAH1
PHG29/PHG47,ONH1_2016,Y,23.4,695.7236189,0,2,178.5,99,79,77.5,1.979032247,2.105714291,0.92181366,1.439738287,4.720833318,2.435439396,4.62931563,1.31185227,2.043303741,61.34999967,29.48000008,13.31600007,60.28400005,10.99249999,28.54150001,172.0475013,11.37649985,61.38049932,20.24883872,21.56727634,23.77365349,22.41142308,19.3081847,20.61473607,17.12813691,15.31534219,11.6349499,10.49290321,16.47999988,25.01561457,25.51466922,28.22516696,27.99415914,27.31356147,24.49017951,20.3886015,-0.735806467,3.753571405,10.93050922,11.61184699,15.55325019,14.71775745,15.07244109,12.71620509,9.185787659,3.269306411,5.688768484,11.09209761,11.56175859,14.2216101,13.76399544,13.57642435,11.5133866,8.776899495,0.291105988,0.684668367,0.99891379,0.988093962,1,0.998165816,0.971212584,0.877977401,43.4997965,-80.451125,2016,ONH1
B14A/H95,WIH2_2017,N,22.4,743.9930652,0,2,270,147.5,78.5,79.5,5.048709616,4.636666616,1.142383575,5.763857885,8.001590729,6.160048604,1.607776433,1.167726513,2.257555268,156.5099981,41.72999954,17.5799998,219.3963643,12.14409065,74.04090792,72.28863683,15.04409093,68.0204557,18.1690344,19.72049554,20.64727683,20.23287988,19.13163679,19.37493243,18.51401576,14.93340477,10.89478233,16.03129027,21.86555545,22.15746071,26.59689143,27.90045501,26.76799254,24.73062069,22.38533393,20.51274781,3.24419354,8.791111098,9.553497601,14.54337319,16.81037892,15.37831158,12.19271258,9.193202486,7.868866577,5.438218202,9.209131236,9.451203107,13.05708411,14.51682301,13.37610723,11.31306373,9.686333754,8.853113959,0.624158991,0.847976183,0.950288768,1,1,0.998699911,0.954544862,0.834596302,43.3246415,-89.33688775,2017,WIH2
PHW52/PHM49,NYH2_2018,Y,21.8375,705.5384063,0.25,1.75,190.75,84,73,72.25,4.152903213,0.855714253,1.31693108,2.056877316,18.60714291,4.17142208,1.796460541,3.71345921,2.001911684,128.7399996,5.989999771,17.50499944,73.5107149,37.6500001,45.13714288,70.0178584,34.82000022,60.53000028,20.64383799,23.73438372,20.97980276,21.28373647,15.72294375,18.26843876,18.50915054,13.77481919,12.83457813,12.82806446,24.72714315,24.76775456,27.60101009,28.96428537,28.5122727,26.91050025,24.01606741,19.66558606,1.452258048,10.48999977,13.07559666,14.8719081,19.08642861,17.4819286,14.95013511,12.80738491,7.865124395,4.113027627,10.74522894,11.82847182,13.74928068,16.05096628,15.06575239,13.37181447,11.42873851,8.144119245,0.351670502,1,0.973410204,0.99504728,1,0.991140913,0.940533101,0.821942422,42.72611075,-76.65530175,2018,NYH2
B97/PHB47,GAH1_2015,N,13.35,730.4776202,0,5,165,75,55,54,4.231249915,0,5.95843649,3.852603143,2.594000032,2.429925956,4.217759372,2.225466652,2.667397826,135.3999973,0,82.56599903,137.5619979,4.851333332,21.8693336,117.5779999,11.12733326,82.68933261,16.59936112,21.58269278,19.11661296,20.61616366,14.5260024,17.86473659,19.792993,19.1551459,18.46432438,25.43281227,26.81500022,26.00854227,27.82657943,29.9603331,30.57562955,31.8228303,33.58693334,33.75221527,12.50374998,10.5999999,12.24448314,13.90452364,20.76811106,20.25348139,20.64254904,22.17719986,22.29090342,11.85447967,11.72664631,11.94062668,13.41492991,17.36422208,17.41455547,18.23714923,19.83066815,19.89653894,0.988973219,1,1,1,1,1,1,1,31.505771,-83.555095,2015,GAH1
B73/MO17,NCH1_2019,N,17.7,731.1212129,0,2,229,110,65,64,2.191129027,0,0.107342031,4.775073233,0.466011907,4.533660718,6.24100048,2.370892844,2.941295675,67.92499983,0,1.347142833,143.4146411,0.94178571,36.26928575,165.0100003,13.54249993,91.02821354,18.69452832,25.30126673,21.77382428,19.07893176,22.56876209,20.7892765,19.22903807,18.96679552,16.71087377,25.69580629,28.76666609,32.29891346,30.08294473,33.3002377,33.83080339,32.75741781,32.04927549,30.79691829,13.34274195,12.19133326,19.06280588,18.61089734,20.56851188,21.23558053,21.08131414,19.9046464,19.77832645,12.18436683,13.33597385,17.64216348,16.39126772,18.88342746,19.44075481,18.8247811,17.98080212,17.31161093,1,1,1,1,1,1,1,1,35.67010175,-78.510504,2019,NCH1
B14A/H95,WIH1_2019,Y,25.1,691.2184706,0,0,250,139.165,80,80,3.104193578,4.990909143,3.989206625,5.063632664,7.174102343,5.657788874,3.979490855,4.117971668,7.043559998,96.23000091,54.90000057,56.46538491,184.9676922,7.656153606,56.9199983,170.6046141,43.34153838,211.8461548,19.32800511,20.47989629,21.14585761,19.94081469,20.4834897,19.00171798,17.70480678,14.70759561,11.13260624,14.4303226,19.6027272,23.71186264,26.54399323,29.1737175,29.51828996,25.99775321,22.10125555,19.22207941,3.044193574,6.375454621,11.90649765,15.02653282,17.46782019,18.4264638,14.78313726,11.24849031,9.42963116,4.974875238,7.497369644,10.75801096,13.26663909,15.42227287,16.03343447,12.80151602,10.12875121,8.730340077,0.520449311,0.882272729,0.994529143,0.999440504,1,0.998245342,0.92932789,0.792629622,43.060857,-89.494068,2019,WIH1
B73/PHN82,ONH2_2016,N,20.1,727.9032498,0,8.5,240.5,128,75,71,1.435483875,1.740833327,1.463802716,3.022687524,0.150999999,1.134659085,3.046446673,1.693503778,2.765116665,44.50000012,20.88999993,18.84600039,117.1590009,0.150999999,12.25349994,101.0444998,13.16149993,84.26899996,19.72563927,22.19747464,21.68954048,21.77365896,18.98664827,19.92678304,16.69906166,15.68152671,12.9072029,14.10741935,17.58083336,26.00758685,26.04894451,27.78099985,28.79287246,28.2480382,25.9224786,23.75348014,4.257419363,7.13166666,15.03828811,14.1477789,17.72699971,17.33924119,18.24672102,15.95494667,14.17526013,5.131346137,6.986841243,12.85116395,12.65171997,14.84296497,15.26027205,15.31782021,13.26534606,11.67621189,0.511244241,0.799851209,1,1,1,1,1,0.975829282,42.4530035,-81.88279875,2016,ONH2
F42/MO17,WIH1_2017,Y,21.2,713.7442122,0,2,263,123,78.5,78.5,3.894838602,1.694000003,3.49156578,6.251914317,26.29780264,12.3515148,1.782621048,1.031219451,2.019413967,120.7399967,16.94000003,60.77000046,238.2086357,55.48409002,148.2181776,77.27181808,11.13545426,60.74545419,17.96009764,21.56986256,18.71582301,20.73316127,19.69440102,19.58726141,19.1692292,15.69151392,12.21998586,16.03451621,20.2119998,20.22998088,26.71060266,27.00553033,27.16428033,24.80808837,24.03641879,21.845045,3.37838715,6.260000002,9.268565708,14.6662765,15.35575767,16.21109857,13.17589581,11.52521119,9.509429623,5.507434962,7.720411242,8.664602637,13.14891279,13.46068042,13.9043846,11.67856357,10.90146065,9.608265423,0.606900932,0.8735357,0.867893568,1,1,0.998220242,0.971647403,0.89569217,43.05668125,-89.5308135,2017,WIH1
LH74/PHN82,IAH4_2015,Y,17.3,731.7648055,0,9,235.5,112,65,64,1.42451612,4.854615514,2.513668144,6.351127419,5.46999979,2.154687441,1.85099418,0.335758934,4.064770202,44.15999973,63.11000168,35.58999979,218.2399999,10.93999958,20.30812445,58.48687407,2.377500039,125.1143763,19.83997888,19.28772805,16.02270398,20.69822917,17.27718186,21.35831173,20.17303565,19.59360772,15.6142427,15.83032262,16.78769229,22.26164163,27.88725423,29.37999988,31.52784708,28.69895342,30.18404469,25.46833276,2.473548389,5.024615425,13.48280789,16.59868734,20.37374985,19.78628468,17.37298211,16.89515858,12.68514048,5.318693913,6.228847238,10.78291245,14.47529064,16.87687486,17.66054739,15.18141656,15.71210426,12.05907357,0.585391697,0.659230777,0.98994413,1,1,1,1,0.952600636,41.19970961,-91.49362406,2015,IAH4
B73/PHM49,NYH2_2018,Y,19.6775,733.1807092,0.75,1.5,214.75,115.75,72.5,72,4.152903213,0.855714253,1.31693108,2.056877316,18.60714291,4.17142208,1.796460541,3.71345921,2.001911684,128.7399996,5.989999771,17.50499944,73.5107149,37.6500001,45.13714288,70.0178584,34.82000022,60.53000028,20.64383799,23.73438372,20.97980276,21.28373647,15.72294375,18.26843876,18.50915054,13.77481919,12.83457813,12.82806446,24.72714315,24.76775456,27.60101009,28.96428537,28.5122727,26.91050025,24.01606741,19.66558606,1.452258048,10.48999977,13.07559666,14.8719081,19.08642861,17.4819286,14.95013511,12.80738491,7.865124395,4.113027627,10.74522894,11.82847182,13.74928068,16.05096628,15.06575239,13.37181447,11.42873851,8.144119245,0.351670502,1,0.973410204,0.99504728,1,0.991140913,0.940533101,0.821942422,42.72611075,-76.65530175,2018,NYH2
LH82/PHB47,MOH1_2016,N,16.55,731.1212129,2.5,1.5,225,122.5,53,52,2.465483877,8.058000231,0.264259377,6.282521268,1.94553035,9.25680559,4.358907121,3.354664451,5.453130527,76.43000019,40.29000115,2.879999995,172.8372758,4.262727369,83.20363667,125.2090916,21.13363606,168.2240918,20.2309363,16.93509369,22.49829557,20.20959989,18.68177986,19.21408964,18.0090922,17.17714413,15.87534947,21.83193548,27.56600037,27.88644765,31.21215235,30.25795442,31.2505745,30.57423065,29.80077912,28.25339236,10.073871,16.74400005,16.26474463,19.86215984,19.98371223,20.49117413,20.76153791,19.91431794,17.56318368,9.497798547,14.24343349,14.21296425,17.47336946,17.12232598,17.8699151,17.65104862,16.90998551,15.09561117,0.937315665,1,1,1,1,1,1,0.999442641,38.8955475,-92.2072025,2016,MOH1
TX714/PHZ51,MIH1_2020,Y,21.495,693.1492485,0,17,275,163,63.5,63,4.984838709,2.447142908,2.78018427,2.64718347,5.506875038,1.476884461,2.688717092,6.006552647,2.65185957,154.53,17.13000035,30.43499947,89.07562375,6.053750038,16.17374991,112.2143753,49.72375022,79.8756258,20.40588462,19.28742858,24.32683064,21.06964646,18.47526628,19.40802789,18.05267967,13.18055513,11.8632568,17.75483874,24.12857165,28.18736501,29.25734834,30.47187495,29.12451894,27.19720882,23.65947149,18.53645566,5.91032262,13.18571418,13.36449351,15.87753885,17.57625037,17.40439215,14.2199518,12.09430501,6.603961046,6.886871568,11.64218502,13.33305563,14.86544572,16.04104967,15.33737973,13.2580117,11.17810785,7.349100415,0.70564517,0.993469382,1,1,1,0.990981538,0.929873564,0.775463757,42.7085775,-84.4705825,2020,MIH1
LH195/PHN37,NYH3_2017,Y,16.85,730.4776202,1,4.5,264,131.5,75.5,75,4.985806354,2.593333337,3.440292244,5.924553407,1.051666657,3.381140065,2.23243854,2.798625029,4.018371008,154.559997,23.34000003,54.13749945,222.2425004,2.049999952,44.44499943,102.8575006,24.55750025,123.6625012,18.91896409,18.22902181,21.60070221,19.42377057,18.75741065,18.65984774,17.28846846,13.47436078,9.528870152,16.54903238,19.80111122,22.34799835,25.7161787,25.88750029,25.25326924,23.49877068,24.29574993,19.15391932,5.239677404,10.2422222,10.56618324,15.20414844,15.99166679,14.88818678,11.70967484,11.14050002,8.077069991,6.267898103,8.570747831,9.800943694,12.82521906,13.14722321,12.44715548,10.67530521,10.86002668,8.093424028,0.638917053,1,1,1,1,0.987943118,0.977741071,0.791930495,42.73339625,-76.652747,2017,NYH3
CG108/CGR03,INH1_2016,N,15.65,713.7442122,1,11,235,128.5,55.5,55,3.034516148,1.382857186,3.106568823,3.966270256,3.500454469,6.752636371,3.451172643,3.198528118,3.024422797,94.07000059,9.680000305,31.26000059,138.8759105,3.500454469,67.52636371,113.8927274,21.6654544,92.62590972,17.63328649,23.97511796,20.66441577,20.1236558,19.9706746,19.39149484,18.14527656,15.98533716,14.62820237,18.74516109,26.31142807,27.84898846,28.12893417,28.20272714,29.14504538,29.16779001,27.95564941,27.07739093,7.950322636,11.69428553,16.31817922,16.10606538,16.8522731,18.34872752,18.58889605,17.50284626,15.03841012,7.677100472,11.91689015,14.24288378,14.4184555,14.68521604,15.7994256,15.9329094,14.92238151,13.51734692,0.852649763,1,1,1,1,1,1,0.996102814,40.4787595,-86.98982,2016,INH1
B14A/MO17,NYH2_2016,N,21.05,731.1212129,1.5,1.5,175.5,83,81.5,76,2.034516133,1.030000001,1.88805842,0.867300396,1.140952366,2.326450204,3.376451109,4.287746575,3.208572451,63.07000011,12.36000001,22.4085716,34.4438095,2.622857094,25.59095225,116.65619,31.75809508,97.82571426,19.21240982,23.35584625,23.40556822,22.17883586,23.94456446,21.25361649,17.18897092,16.17245816,13.35906413,14.04935483,18.68749992,27.50851283,26.23633728,28.78071431,29.31692664,28.41638555,26.44500865,23.15297547,1.686774175,4.439999988,12.92699036,12.85534504,13.89476193,15.65588736,16.863818,13.58818034,10.55762265,4.511298309,6.607155497,12.88765676,12.33330427,13.7996272,14.74166699,14.82295673,12.66050813,10.26842414,0.447315667,0.804761906,0.999400038,0.994542932,1,0.999880088,0.994843294,0.949842165,42.726117,-76.655339,2016,NYH2
PHG39/PHN82,INH1_2018,Y,20.805,901.6732564,0,2,229.5,100.5,63.5,61,2.767096756,4.68454543,2.7337539,2.608245307,0.180000007,3.094468228,3.412660528,0.546071422,1.653962344,85.77999943,51.52999973,31.28214284,86.61642764,0.256428582,29.52071404,116.6621433,3.926428522,50.80214219,18.97651723,17.84080185,18.4751702,21.91502565,21.1577316,19.53552192,18.82147066,19.16946561,15.73843824,16.02451609,18.1199998,25.33039297,28.95851984,31.36964308,31.15694425,28.16765345,28.4284546,26.00206774,3.260645186,6.861818249,15.08608447,16.0398559,19.18499974,18.88806934,16.73005964,15.8360335,13.18834038,5.572938243,7.259226835,12.75390782,14.76719288,17.27732141,17.05840253,14.63863294,14.40004061,12.39915253,0.613732714,0.707012975,1,1,1,1,1,0.979968538,40.4787825,-86.9898145,2018,INH1
TX777/LH195,WIH2_2020,N,17.7,731.1212129,0.875,0.25,301,176.125,88.875,86.125,1.142258063,7.375000167,3.772605813,4.528143625,15.91411821,3.015240613,2.848395651,6.559665308,3.073983535,35.40999997,73.75000167,42.96999988,163.850588,31.01764819,33.16764674,117.7699986,59.84176376,94.45823468,20.73953056,16.04352899,21.23354675,21.58093245,19.01370295,17.88573252,19.32013515,13.57540027,12.27254504,13.56999995,18.91099977,26.0938683,28.2322475,29.46647072,27.75422455,27.09322103,24.80509675,19.00189054,0.762580661,9.396999884,13.99892158,14.99589118,17.7452939,17.49807463,14.22893102,13.29211059,7.459399134,4.176897214,8.107987139,12.68677404,14.02444379,15.66411489,14.70790633,13.20588953,12.26960615,7.833960257,0.443168195,0.881928567,1,1,1,0.990384734,0.880973437,0.780679991,43.294786,-89.383968,2020,WIH2
B73/MO17,WIH1_2020,Y,23.15,668.0491364,1,0,304.5,177.5,80.5,79,1.598387111,6.507143004,4.413520471,5.455426438,9.576153682,6.848251811,1.847198819,1.302442385,3.233674973,49.55000043,91.10000205,54.05307698,191.9769218,14.76999958,75.33076992,75.52923148,17.19923096,99.29769339,20.3303612,17.70938441,19.63774696,21.71928057,19.47191414,18.08778093,19.52506722,17.02277317,12.74244368,13.80935484,15.78214281,24.71870171,28.0331271,31.3961547,28.17125902,26.95535567,26.2427393,20.06715065,1.332903252,5.150000061,13.25869882,14.90724568,18.80923077,17.63741262,14.66820073,13.00544381,8.429758508,4.404075426,5.920121855,11.73838603,13.88054584,17.12955683,14.95247276,13.30208011,12.63591888,8.588509069,0.46481566,0.623010193,1,1,1,0.987099279,0.934776512,0.808464704,43.05505505,-89.52853825,2020,WIH1
B14A/MO17,ARH1_2017,N,8.95,447.9404614,0,2,198.75,118.1,65,62.5,3.058125025,3.532857077,9.871688678,6.405160528,0.516363615,5.988171668,5.119232493,3.102318153,5.34158356,97.86000079,24.72999954,132.0327285,211.6218184,0.569545432,54.36818138,136.8913653,16.08272713,165.5890903,17.13974981,16.55343887,20.38424011,18.76225527,22.81364793,19.06964508,19.53553475,19.77193111,17.12972935,24.60906261,23.96000045,24.77057006,28.06605652,30.35469691,31.5146664,31.30577636,32.78459133,30.91587993,11.9175,14.17857156,11.8445801,17.60850246,18.97249995,21.30615642,21.39979275,22.50533316,21.62237538,11.1639709,11.77578055,11.22655186,14.97537354,16.74359516,18.41041141,18.33049426,19.54768126,18.22457608,1,1,1,1,1,1,1,1,34.7272515,-90.76032575,2017,ARH1
LH195/LH82,ARH1_2017,N,13.5,746.5674357,0,2,195.6,80,65,61.5,3.058125025,3.532857077,9.871688678,6.405160528,0.516363615,5.988171668,5.119232493,3.102318153,5.34158356,97.86000079,24.72999954,132.0327285,211.6218184,0.569545432,54.36818138,136.8913653,16.08272713,165.5890903,17.13974981,16.55343887,20.38424011,18.76225527,22.81364793,19.06964508,19.53553475,19.77193111,17.12972935,24.60906261,23.96000045,24.77057006,28.06605652,30.35469691,31.5146664,31.30577636,32.78459133,30.91587993,11.9175,14.17857156,11.8445801,17.60850246,18.97249995,21.30615642,21.39979275,22.50533316,21.62237538,11.1639709,11.77578055,11.22655186,14.97537354,16.74359516,18.41041141,18.33049426,19.54768126,18.22457608,1,1,1,1,1,1,1,1,34.7272515,-90.76032575,2017,ARH1
B73/PHM49,GAH1_2015,N,13.6,808.3523269,0,2.5,190,100,62,60.5,4.231249915,0,5.95843649,3.852603143,2.594000032,2.429925956,4.217759372,2.225466652,2.667397826,135.3999973,0,82.56599903,137.5619979,4.851333332,21.8693336,117.5779999,11.12733326,82.68933261,16.59936112,21.58269278,19.11661296,20.61616366,14.5260024,17.86473659,19.792993,19.1551459,18.46432438,25.43281227,26.81500022,26.00854227,27.82657943,29.9603331,30.57562955,31.8228303,33.58693334,33.75221527,12.50374998,10.5999999,12.24448314,13.90452364,20.76811106,20.25348139,20.64254904,22.17719986,22.29090342,11.85447967,11.72664631,11.94062668,13.41492991,17.36422208,17.41455547,18.23714923,19.83066815,19.89653894,0.988973219,1,1,1,1,1,1,1,31.505771,-83.555095,2015,GAH1
B37/H95,WIH2_2017,N,22.95,765.8752142,0,2,273.5,137.5,78,79,5.048709616,4.636666616,1.142383575,5.763857885,8.001590729,6.160048604,1.607776433,1.167726513,2.257555268,156.5099981,41.72999954,17.5799998,219.3963643,12.14409065,74.04090792,72.28863683,15.04409093,68.0204557,18.1690344,19.72049554,20.64727683,20.23287988,19.13163679,19.37493243,18.51401576,14.93340477,10.89478233,16.03129027,21.86555545,22.15746071,26.59689143,27.90045501,26.76799254,24.73062069,22.38533393,20.51274781,3.24419354,8.791111098,9.553497601,14.54337319,16.81037892,15.37831158,12.19271258,9.193202486,7.868866577,5.438218202,9.209131236,9.451203107,13.05708411,14.51682301,13.37610723,11.31306373,9.686333754,8.853113959,0.624158991,0.847976183,0.950288768,1,1,0.998699911,0.954544862,0.834596302,43.3246415,-89.33688775,2017,WIH2
B14A/H95,DEH1_2020,N,21.6875,682.0472758,0,20.5,235.5,120.125,63.625,63.25,3.884838689,2.918749928,0.484801506,3.712682555,3.963928495,10.54878945,3.680508849,4.08975176,5.319973187,120.4299994,23.34999943,5.74999997,113.1935704,6.565714155,94.92928366,102.5935729,23.16642891,164.6128593,19.34389959,17.33862388,21.23126246,20.37262205,20.84469896,18.13380163,16.82964191,15.50064315,15.14081803,17.43483888,21.1624999,25.02143811,29.01024665,32.25440507,31.30417669,31.95048154,29.3682824,28.21514964,6.792903194,12.85250008,15.40184434,18.86790491,21.28607132,21.93053571,22.84339264,21.06525136,19.30786859,6.86665098,10.04482466,12.64072343,16.02028347,18.72161765,18.60397455,19.32804006,17.22313801,15.91003144,0.79362904,0.982098209,1,1,1,1,1,1,38.628981,-75.46566025,2020,DEH1
B37/H95,INH1_2018,Y,20.995,877.2167369,0,2,231,108.5,65.5,63.5,2.767096756,4.68454543,2.7337539,2.608245307,0.180000007,3.094468228,3.412660528,0.546071422,1.653962344,85.77999943,51.52999973,31.28214284,86.61642764,0.256428582,29.52071404,116.6621433,3.926428522,50.80214219,18.97651723,17.84080185,18.4751702,21.91502565,21.1577316,19.53552192,18.82147066,19.16946561,15.73843824,16.02451609,18.1199998,25.33039297,28.95851984,31.36964308,31.15694425,28.16765345,28.4284546,26.00206774,3.260645186,6.861818249,15.08608447,16.0398559,19.18499974,18.88806934,16.73005964,15.8360335,13.18834038,5.572938243,7.259226835,12.75390782,14.76719288,17.27732141,17.05840253,14.63863294,14.40004061,12.39915253,0.613732714,0.707012975,1,1,1,1,1,0.979968538,40.4787825,-86.9898145,2018,INH1
PHG29/PHG47,MIH1_2017,Y,16.7,698.2979894,0,5.5,94,44,62.5,63,2.651290334,1.642500043,0.365195355,3.685889798,0.022982455,0.462972321,1.745768067,1.924198947,6.215848807,82.19000036,13.14000034,4.417894763,131.6678931,0.068947365,5.871578781,77.40789432,25.15789459,187.919471,20.75480046,19.52619267,24.47429891,19.89055103,21.94334328,22.12060477,17.47908742,14.76431364,9.641321864,18.99677434,22.1187501,26.44652255,27.49693157,27.7329823,27.82492569,25.37386911,24.10071042,20.63989867,5.961290348,11.91874993,11.36318641,16.0503933,16.08877179,14.96255052,12.27657104,9.93890341,8.936309075,7.303217139,10.01258026,11.86785018,14.06113521,14.11607898,13.75096176,11.67659513,10.59348898,9.148775778,0.770126733,1,1,1,1,0.999072621,0.949278334,0.816440377,42.68116575,-84.49434125,2017,MIH1
PHW52/PHM49,INH1_2016,N,19.55,715.6749901,1,7.5,253,123,64.5,64,3.034516148,1.382857186,3.106568823,3.966270256,3.500454469,6.752636371,3.451172643,3.198528118,3.024422797,94.07000059,9.680000305,31.26000059,138.8759105,3.500454469,67.52636371,113.8927274,21.6654544,92.62590972,17.63328649,23.97511796,20.66441577,20.1236558,19.9706746,19.39149484,18.14527656,15.98533716,14.62820237,18.74516109,26.31142807,27.84898846,28.12893417,28.20272714,29.14504538,29.16779001,27.95564941,27.07739093,7.950322636,11.69428553,16.31817922,16.10606538,16.8522731,18.34872752,18.58889605,17.50284626,15.03841012,7.677100472,11.91689015,14.24288378,14.4184555,14.68521604,15.7994256,15.9329094,14.92238151,13.51734692,0.852649763,1,1,1,1,1,1,0.996102814,40.4787595,-86.98982,2016,INH1
LH195/PHZ51,WIH2_2017,Y,21.85,762.0136585,0,2,270,126.5,78,79,5.048709616,4.636666616,1.142383575,5.763857885,8.001590729,6.160048604,1.607776433,1.167726513,2.257555268,156.5099981,41.72999954,17.5799998,219.3963643,12.14409065,74.04090792,72.28863683,15.04409093,68.0204557,18.1690344,19.72049554,20.64727683,20.23287988,19.13163679,19.37493243,18.51401576,14.93340477,10.89478233,16.03129027,21.86555545,22.15746071,26.59689143,27.90045501,26.76799254,24.73062069,22.38533393,20.51274781,3.24419354,8.791111098,9.553497601,14.54337319,16.81037892,15.37831158,12.19271258,9.193202486,7.868866577,5.438218202,9.209131236,9.451203107,13.05708411,14.51682301,13.37610723,11.31306373,9.686333754,8.853113959,0.624158991,0.847976183,0.950288768,1,1,0.998699911,0.954544862,0.834596302,43.3246415,-89.33688775,2017,WIH2
CG108/CGR03,DEH1_2016,N,15.25,727.9032498,2,2,227,105,71.5,71,2.701875035,7.431818214,3.891344367,3.01543569,5.358105985,2.453055546,7.028031294,2.624318106,3.1968602,86.46000111,81.75000036,66.39499953,101.6163622,13.33454524,24.02227264,188.3231781,15.05272682,98.58045408,18.33047433,10.1000462,19.40971708,21.02938559,18.25055452,17.64652011,18.94468483,17.7865103,16.44449792,18.09,16.60090897,19.90208421,27.67646738,27.79681775,28.9030859,31.91379825,31.21812112,30.57169607,5.529687506,9.93090907,10.11289786,16.8589893,18.02106052,19.78800518,21.90881045,21.62957593,20.16127331,6.825577378,7.645605865,8.606637786,14.43603228,14.98401645,16.37610101,18.85541374,18.37748956,17.3477875,0.726328134,0.729318176,0.990929859,1,1,1,1,1,38.6482025,-75.44606,2016,DEH1
CG60/LH162,MOH1_2015,N,13.05,731.1212129,0,0,147.5,62.5,67.5,65.5,3.914838722,3.002727248,2.7038834,5.646226268,2.268750012,1.183333344,4.736744086,1.740401796,3.666491943,121.3600004,33.02999973,34.41999933,178.8712478,5.868750036,10.6500001,140.2618746,11.88312507,113.6612502,18.81846694,18.88703156,16.92919735,21.70591481,15.72154266,19.94530069,18.47422179,20.12873028,17.02653892,18.28451609,18.00181831,23.77805456,28.93028285,29.85593748,31.76118019,30.42140763,28.58050013,28.43143147,5.857096827,7.500000065,15.21487777,17.6487962,21.67281234,21.45979159,20.28182538,17.09899995,17.28669369,7.068544315,7.302193139,11.97142579,15.39796361,17.76437491,18.61048589,17.380694,14.99182695,15.05317439,0.723283405,0.814935086,1,1,1,1,1,1,38.8965375,-92.20800417,2015,MOH1
W10004_0216/PHZ51,GAH1_2017,N,13.05,733.6955833,0,4.5,210,90,61,60,1.929687474,5.730000019,0.343252103,3.449286585,2.107618968,4.586772466,5.884115127,3.462793619,5.790337869,61.74999917,45.84000015,4.185237975,115.4628578,3.161428452,44.24761888,164.3961923,18.00285697,179.500474,16.80249013,20.13732326,20.17342047,19.27076224,21.20480144,16.6798163,18.15858085,19.37517402,17.73704587,23.5584375,24.76124978,28.73884546,29.02932191,29.79031757,30.11825943,30.88468736,33.04158726,32.39466959,8.654999979,9.073749959,13.81601286,15.94569083,16.85142871,20.07059283,21.0580027,22.24365102,22.03411694,9.935165979,10.3201674,13.6844889,14.81363998,15.5596332,17.10789698,17.95959829,19.61349988,19.1980032,0.8834375,1,1,1,1,1,1,1,31.50794425,-83.55854475,2017,GAH1
PHW52/PHM49,WIH3_2020,N,23.725,656.142673,0,0,241.25,115,68.25,65.75,2.733870995,5.446666638,6.112394342,4.74655674,3.655208389,1.04360979,2.527373572,3.69928986,2.61452892,84.75000083,32.67999983,82.9068754,167.6149986,8.003125131,12.58312517,113.8450009,40.74312496,78.93437568,20.41919384,18.2775027,21.33639865,20.40337995,19.49413761,18.99324058,17.80850823,14.15156863,10.1168501,15.48354838,26.52499994,25.39100386,27.30541678,28.00124967,27.24401428,25.77617537,21.78088819,14.67245705,3.106129019,15.18500026,12.31273591,15.12317531,16.14624966,16.31340126,13.17330579,9.92591724,4.431311843,5.287102842,13.2823578,11.70416503,13.61992535,14.28505882,13.97808988,12.29059579,9.657643491,5.630137727,0.571854837,1,1,1,1,0.965668942,0.879609054,0.560799012,44.115703,-89.54491325,2020,WIH3
B73/PHM49,DEH1_2015,Y,20.2,687.3569149,0,0,255.5,142.5,63.5,62,2.877187484,6.848000002,1.658122271,2.899811139,0.533124998,6.398055441,4.542065261,4.666333417,5.694818618,92.06999949,68.48000002,26.86312445,94.40374921,0.778750002,57.58249897,115.8581242,26.73625046,176.5393772,18.09789148,17.20138936,20.11151884,21.0089777,21.53492481,19.24730516,17.70191113,15.05628078,15.14846735,16.82656264,19.24400005,20.72376954,27.68890342,31.56656283,31.86354174,32.09465687,30.43364003,29.09395151,6.265937505,9.858999991,10.7453803,17.67876376,20.38750017,21.35659703,22.77220607,22.28250884,20.56647162,6.521960329,8.412914767,9.229957748,14.85993723,17.9770315,18.58170739,19.36170697,18.35807444,16.86736745,0.750435273,0.870857151,0.962682184,1,1,1,1,1,38.62935675,-75.4656925,2015,DEH1
PHN11_PHW65_0323/LH195,MOH1_2016,N,17.65,731.1212129,0,1.5,232.5,112.5,58.5,57.5,2.465483877,8.058000231,0.264259377,6.282521268,1.94553035,9.25680559,4.358907121,3.354664451,5.453130527,76.43000019,40.29000115,2.879999995,172.8372758,4.262727369,83.20363667,125.2090916,21.13363606,168.2240918,20.2309363,16.93509369,22.49829557,20.20959989,18.68177986,19.21408964,18.0090922,17.17714413,15.87534947,21.83193548,27.56600037,27.88644765,31.21215235,30.25795442,31.2505745,30.57423065,29.80077912,28.25339236,10.073871,16.74400005,16.26474463,19.86215984,19.98371223,20.49117413,20.76153791,19.91431794,17.56318368,9.497798547,14.24343349,14.21296425,17.47336946,17.12232598,17.8699151,17.65104862,16.90998551,15.09561117,0.937315665,1,1,1,1,1,1,0.999442641,38.8955475,-92.2072025,2016,MOH1
CG44/CGR01,WIH1_2020,Y,14,727.2596572,1,0.5,253.5,125,70,68,1.598387111,6.507143004,4.413520471,5.455426438,9.576153682,6.848251811,1.847198819,1.302442385,3.233674973,49.55000043,91.10000205,54.05307698,191.9769218,14.76999958,75.33076992,75.52923148,17.19923096,99.29769339,20.3303612,17.70938441,19.63774696,21.71928057,19.47191414,18.08778093,19.52506722,17.02277317,12.74244368,13.80935484,15.78214281,24.71870171,28.0331271,31.3961547,28.17125902,26.95535567,26.2427393,20.06715065,1.332903252,5.150000061,13.25869882,14.90724568,18.80923077,17.63741262,14.66820073,13.00544381,8.429758508,4.404075426,5.920121855,11.73838603,13.88054584,17.12955683,14.95247276,13.30208011,12.63591888,8.588509069,0.46481566,0.623010193,1,1,1,0.987099279,0.934776512,0.808464704,43.05505505,-89.52853825,2020,WIH1
LH212HT/LH195,ILH1_2016,N,16.4,759.439288,0,2,259,135,75,73.5,2.976905237,4.388409027,2.266536067,5.61207631,2.384848472,3.596551307,3.312350719,4.357499975,4.793790319,93.71999985,46.35499933,33.46068128,180.4177266,4.628863606,41.73386359,104.1413657,28.32431801,148.2020453,18.82488241,16.77241452,21.32061235,20.18653607,20.74234538,18.07981042,18.8666989,17.85818253,16.07680721,18.05081144,19.20204525,23.0422997,29.42292662,27.90308728,26.97317812,29.60218573,29.15938829,28.17592877,4.960040295,8.531272602,10.4507586,17.10049505,15.99717794,16.84881478,19.41054858,18.84383108,17.09740687,6.781235125,7.969267807,10.17119166,15.41614171,14.29579798,14.15384892,16.51995977,16.04951253,14.84458937,0.666766271,0.897956159,0.946860721,1,1,1,1,0.999883117,40.0607245,-88.2338815,2016,ILH1
CG119/CG108,ONH2_2017,N,18.375,812.5356789,0,21.75,216.75,99.5,48.25,46.5,3.566774253,5.816000056,0.640467161,2.602850346,0.276190468,0.553043346,1.774150425,1.832219351,2.40528059,110.5700018,58.16000056,8.999047586,96.02571482,0.552380936,6.918571438,78.70857161,24.06619065,72.98142847,18.8542372,16.74867072,24.21291039,19.37094181,21.19715784,20.84705237,17.61151759,14.253685,9.927824707,15.7532257,18.68899984,23.40262829,26.34974997,26.59380949,26.86065013,24.57225317,22.91748616,20.00596815,5.764838726,10.96000004,12.03359118,16.18007827,16.63301581,15.91920336,13.14574071,11.27177775,10.10650586,6.141928302,8.38660306,10.68394655,13.52521671,13.7753985,13.64998718,11.58821465,10.41552723,9.107414304,0.598502303,0.966571423,1,1,1,0.999084662,0.956230826,0.8300025,42.45293025,-81.8827315,2017,ONH2
PHW52/PHM49,OHH1_2015,N,17.05,790.9753262,0,2,242.5,101.5,65.5,64,4.820000016,2.056666652,1.801667061,2.430255425,2.070588264,2.75488235,3.664772063,1.623969288,1.874022108,149.4200005,12.33999991,20.27235275,82.00588303,2.23529414,26.29176468,128.0200007,12.16764697,57.18411674,17.71339239,20.831882,20.85048625,20.93566426,20.28419298,19.59839119,17.66236547,17.23782846,14.83481447,16.95064511,28.03666687,26.64173705,29.01382079,31.07970569,30.59522857,27.99762273,26.69097183,23.34659959,5.9283871,15.42166694,14.66308043,16.74801267,19.23764672,18.74322206,16.69895781,13.90980629,10.26308727,6.580773377,14.04730329,13.19467995,15.08203889,17.16864649,16.69143216,14.53513226,12.92347397,10.29932856,0.672569122,1,1,1,1,1,0.994932126,0.947361455,39.855785,-83.66477375,2015,OHH1
PHW52/PHM49,MOH1_2_2018,Y,18.86666667,731.1212129,0,2,229.3333333,97,56,54.33333333,4.419032262,0.120000001,6.56660792,4.995913726,0,0.865952386,4.867908623,7.318145406,3.629241153,136.9900001,0.840000004,71.60142667,150.6285707,0,7.793571472,145.6157139,39.85928573,112.0157138,18.39395777,18.46565301,20.1607481,20.70593221,19.87326009,21.97749135,18.06982858,17.46468943,16.31914076,19.5254839,22.76714298,27.16554273,29.60936822,31.6271427,32.32420578,29.51628185,29.85375934,27.04843165,7.99741943,14.14714282,16.43732974,18.81172612,21.79964249,20.71007941,19.44316189,19.21155699,15.91814144,7.992986492,11.1555316,14.00535673,16.26359619,18.7133926,18.51714259,16.54699664,16.60044059,13.86670431,0.872361758,1,1,1,1,1,1,0.995607144,38.89555425,-92.20964575,2018,MOH1
B37/H95,ILH1_2016,N,13.35,721.4673236,1.5,2,238,107.5,72.5,71,2.976905237,4.388409027,2.266536067,5.61207631,2.384848472,3.596551307,3.312350719,4.357499975,4.793790319,93.71999985,46.35499933,33.46068128,180.4177266,4.628863606,41.73386359,104.1413657,28.32431801,148.2020453,18.82488241,16.77241452,21.32061235,20.18653607,20.74234538,18.07981042,18.8666989,17.85818253,16.07680721,18.05081144,19.20204525,23.0422997,29.42292662,27.90308728,26.97317812,29.60218573,29.15938829,28.17592877,4.960040295,8.531272602,10.4507586,17.10049505,15.99717794,16.84881478,19.41054858,18.84383108,17.09740687,6.781235125,7.969267807,10.17119166,15.41614171,14.29579798,14.15384892,16.51995977,16.04951253,14.84458937,0.666766271,0.897956159,0.946860721,1,1,1,1,0.999883117,40.0607245,-88.2338815,2016,ILH1
B73/PHN82,NCH1_2017,N,17,731.1212129,0,2,225.5,112,65,64,5.929354779,4.097142833,0.297958702,3.860588722,6.673809642,5.437090039,2.513672686,1.67758051,4.140460835,183.8099982,28.67999983,4.023333254,115.8195228,10.90952401,51.84571517,65.15761944,9.68857149,128.3542859,16.84796118,19.66078799,22.20077414,19.20396089,15.77249108,20.54839894,18.7994723,19.26606379,16.40835168,26.07000006,23.57857159,28.17011276,29.72614366,31.01404729,30.48814813,32.54721675,31.95695904,30.43138246,13.64064524,11.25142826,15.69757802,18.87536398,22.57674573,19.84793622,22.28039625,21.2748593,20.81350234,12.56442422,10.48784987,14.26665949,16.36044911,18.79940835,17.21144066,19.38557496,18.57336573,17.65269876,0.998329492,1,1,1,1,1,1,1,35.29663725,-77.5668065,2017,NCH1
LH74/PHN82,NYH3_2020,Y,13.95,755.5777323,0,8,212.5,99.5,63.5,63.5,4.422257993,0,1.373865683,3.203515064,6.161458224,3.578657229,2.247619776,1.339995863,2.270768823,137.0899978,0,18.69000064,113.6731244,12.19749978,37.86125033,87.74812532,17.041875,68.54562519,20.94560956,21.78233427,21.55267425,20.63825651,19.18147684,18.87690393,17.75633085,13.93943947,11.5316014,14.59225801,27.97729172,23.60945411,27.89842024,28.17958339,28.76829368,26.51617347,21.47489044,18.12990527,2.644717742,15.68266662,11.3508871,15.53912014,16.43281273,17.50013456,14.53010818,10.52921434,6.891416056,5.000434995,14.04753459,10.70035646,14.11697706,14.42792892,15.19886376,13.03509367,9.604727821,7.356101809,0.471947005,1,0.969562211,0.99553941,1,0.989555914,0.903066166,0.764418635,42.73227475,-76.6513705,2020,NYH3
LH195/LH82,WIH2_2015,N,27.85,777.4598813,0,0,196,111,65,64,3.126774188,2.655000041,4.103605878,5.336067251,1.868823528,3.142847566,3.066358713,6.463272165,3.426278957,96.92999983,15.93000025,53.58117651,186.0694135,5.435882344,36.03705852,132.4747064,52.80117733,103.4994124,19.63646212,20.57311455,21.5892617,21.07111177,18.36300238,19.20517036,18.54583572,13.68038168,11.37476292,15.6409678,24.97666677,26.11823115,28.09529077,27.51588227,27.91298604,26.4469062,23.95331443,17.63645543,3.355806466,13.62666686,13.88922494,15.17788174,17.2276475,16.92946091,13.73434519,12.63733902,6.343913375,5.370860554,11.93138906,12.65256426,14.04290221,14.43586033,14.57588984,12.76646014,11.49482956,7.023163717,0.588214292,1,1,1,1,0.979783322,0.914260835,0.715230077,43.3264485,-89.33359975,2015,WIH2
B37/H95,IAH1_2017,Y,17.7,731.1212129,0,2,229,110,65,64,3.40562493,4.965384584,4.756276119,1.833606587,3.814090996,2.221484887,3.670808328,1.81325484,2.347473118,108.9799978,64.54999959,71.28272616,63.78727258,4.177727374,22.83863677,118.9068186,13.7622725,72.03681816,16.19865167,17.41178014,18.84198651,22.07722619,19.57094626,20.6423577,19.65334879,19.12382584,16.87809105,17.11343735,15.37846162,22.95951679,28.09807267,26.50742381,30.27960591,29.79948923,26.92834941,26.37674051,5.413125027,4.923076978,11.46549016,14.16962528,11.61757578,16.65775237,16.66504091,13.38757222,12.41510662,6.530778339,5.768563812,10.45370215,13.71965113,11.94783378,15.64262598,15.39964617,12.71239892,12.1737806,0.629988832,0.555054952,0.946458762,1,1,1,1,0.998130952,41.19924609,-91.49402296,2017,IAH1
LH74/PHN82,WIH1_2018,Y,18.23,803.7184601,0,2,233.3333333,108.3333333,66.33333333,66.66666667,1.609999989,7.097692302,4.543300024,5.384655594,12.90857152,6.684415526,1.835393967,1.490247701,3.282350194,49.90999967,92.26999992,56.1414287,188.537143,17.774286,73.52857079,76.14071582,18.50214262,100.642856,20.21844376,17.61529163,19.67186989,21.74517717,19.19342093,18.08513378,19.62003162,16.98075827,12.74863056,13.31193533,16.25923072,24.73561688,28.00164855,31.39095186,28.11097395,26.99453296,26.15077082,19.9357303,1.183225821,5.521538512,13.28283365,14.89542408,18.89249983,17.62870117,14.61713968,12.9208708,8.385953947,4.208379921,6.163069931,11.75441076,13.86262536,17.16453014,14.91796624,13.29691021,12.54059059,8.511099252,0.430714275,0.66777473,1,1,1,0.987929958,0.939058758,0.805939432,43.0544,-89.5317,2018,WIH1
PHW52/PHN82,IAH3_2015,Y,20.05,726.6160645,0,0,248,136,65,64,1.888124991,2.913571392,3.784813995,6.971928843,0,3.257500064,1.487385228,2.541446469,4.507444947,60.41999972,40.78999949,55.43999982,241.6600003,0,32.57500064,50.31437471,24.68500039,138.7756267,19.80172794,20.03998334,15.9141292,20.68283491,21.69136486,21.24428636,20.63784564,18.68301758,14.92198489,14.64187506,16.6814285,21.6371088,27.61372247,30.87885427,30.3035625,28.596254,28.51656267,24.33389908,0.83250004,3.600714236,12.24542872,16.05178152,19.47364565,18.11006255,15.99319583,14.30373217,10.64901215,4.605131548,5.787499831,10.11465775,14.1164012,17.17624996,16.25391669,14.57670766,13.97583386,10.87542788,0.501462055,0.634540813,0.981270753,1,1,1,0.968879463,0.933929792,41.97585629,-92.24291804,2015,IAH3
CG44/CGR01,DEH1_2017,N,16,709.2390639,0,6.5,215.5,106.5,58.5,59,2.917187458,6.201428686,3.00780289,3.517983876,1.211428521,1.632751291,5.214259368,11.31934688,4.882730708,93.34999865,43.4100008,45.34571489,126.7790489,1.268571377,15.48333303,157.8533328,69.24809492,151.3147631,17.05647962,17.73228645,20.71096481,19.57386043,19.15556694,20.88592809,18.21237176,18.15756056,16.58607394,20.26624998,24.66142872,21.72245043,26.82298965,30.35071437,30.31148162,30.69555299,28.43090921,27.29702356,9.32593758,14.19571427,10.68752201,16.75855213,19.906349,19.88150788,21.21690322,18.72144455,17.91444491,8.690479953,12.08402314,9.787934269,14.12431868,17.15482568,17.14050735,17.94790556,15.63546309,14.74613823,0.907287956,1,0.959736116,1,1,1,1,1,38.67025825,-75.4333645,2017,DEH1
W10004_0216/PHZ51,KSH1_2016,N,15.2,774.8855108,1,2,150,50,91,91,0.381562503,5.593749881,9.031136959,3.981909994,0,0.897724769,5.011421387,3.322424253,5.670073263,12.2100001,44.74999905,140.9509078,148.5090918,0,8.374091108,139.438637,19.93454552,175.7722711,18.43315426,14.04582843,18.34613738,20.88446512,22.70328743,20.59441801,18.34986672,18.15379387,17.32510191,19.15124996,21.70124984,22.33901244,27.19377063,36.31272689,35.17540036,32.01078432,33.85633352,30.76895891,2.130625044,11.46499991,9.568238579,14.2621368,21.58727247,22.04353923,20.78061301,22.71134866,19.49139311,6.3158573,9.667291017,9.626890379,13.35418843,19.56599107,19.14397536,18.06824645,19.12054732,17.03744615,0.741573662,1,0.921279778,0.986042268,0.991287871,0.998977631,0.993550002,1,39.14480675,-96.62898225,2016,KSH1
PHW52/PHN82,IAH2_2017,Y,16.225,749.4636024,0,7.75,207.75,94.25,65,64,2.991935476,4.003749907,5.594154361,1.824159742,2.965909053,1.138616173,3.544395797,5.525860929,3.224964342,92.74999976,32.02999926,86.83999968,64.74363607,5.880909015,11.03545466,133.6850016,39.36636487,98.02272796,18.91811151,22.03083944,18.39067038,21.91300981,21.59707026,21.00058551,18.76246256,16.50136756,14.56336975,16.70258062,25.25375009,21.16444029,28.78792803,31.34295403,31.03890899,27.79230679,26.54138994,25.01808603,3.836129038,9.060000002,9.836484062,14.72352594,17.1804546,18.00485339,15.61890002,13.9478747,12.25710857,5.884356407,10.52058178,9.325556586,14.19611432,16.29393371,16.57150033,14.05801276,12.73803514,11.57992501,0.659274195,1,0.882113053,1,1,1,1,0.976890029,42.06582876,-94.72050129,2017,IAH2
PHB47/PHN82,IAH3_2017,Y,18.8,751.7161766,0,2,229,110,65,64,4.153750014,4.476666673,3.404720357,2.207347727,0.783636364,2.628276904,1.892687593,2.328876272,1.794257086,132.9200004,67.1500001,54.03954627,78.33863542,1.567272728,28.02681865,71.85545488,19.05045461,54.69545453,16.14493189,17.75127989,18.89303832,22.07985964,20.54923199,20.99384486,19.81852315,17.22919489,15.64326955,15.84312499,15.5066665,21.42652578,27.714982,28.45522753,29.90074383,27.6545798,25.64720852,25.13760955,4.41906251,4.141333344,9.782295063,13.56526933,16.05901469,16.6123348,14.8096002,12.74600627,11.28191352,5.818880471,5.62230391,9.387130072,13.2881535,14.4256186,15.3843105,13.65871261,11.89796048,11.29223634,0.568604913,0.570380948,0.879734313,1,1,1,1,0.979205627,41.9758706,-92.24318881,2017,IAH3
B73/PHN82,IAH1_2020,N,14.975,731.1212129,1,0.875,229,110,65,64,1.688064506,6.196000195,3.0793737,6.533057926,1.271428551,2.673269776,1.85421064,0.708456624,3.755616013,52.32999969,61.96000195,37.23499918,213.6221428,2.198571375,25.9085708,60.11785651,6.012142782,115.3728583,19.46953177,15.04660187,20.64247086,20.31598349,21.99207742,21.09552252,19.7297914,19.80455556,15.11692591,15.87290319,18.70700045,25.72176895,28.50674309,31.92999949,30.87921407,28.61147391,29.37327705,24.63079501,3.348387095,9.753000152,14.65929334,17.38633346,19.85714286,19.28849194,17.27261165,15.46819038,11.83183106,5.5584858,8.125456457,12.65757338,15.09801966,17.89357117,17.09078834,15.12121856,14.7539709,11.47694483,0.621440085,0.927035726,1,1,1,0.998514142,0.992713009,0.918334154,41.19774214,-91.48767072,2020,IAH1
2369/LH123HT,DEH1_2020,N,21.2625,682.8517666,0.625,7.5,270.5,147,65.75,65.125,3.884838689,2.918749928,0.484801506,3.712682555,3.963928495,10.54878945,3.680508849,4.08975176,5.319973187,120.4299994,23.34999943,5.74999997,113.1935704,6.565714155,94.92928366,102.5935729,23.16642891,164.6128593,19.34389959,17.33862388,21.23126246,20.37262205,20.84469896,18.13380163,16.82964191,15.50064315,15.14081803,17.43483888,21.1624999,25.02143811,29.01024665,32.25440507,31.30417669,31.95048154,29.3682824,28.21514964,6.792903194,12.85250008,15.40184434,18.86790491,21.28607132,21.93053571,22.84339264,21.06525136,19.30786859,6.86665098,10.04482466,12.64072343,16.02028347,18.72161765,18.60397455,19.32804006,17.22313801,15.91003144,0.79362904,0.982098209,1,1,1,1,1,1,38.628981,-75.46566025,2020,DEH1
B73/PHZ51,MIH1_2017,Y,22.8,681.5645814,0,3,112,56,68.5,69.5,2.651290334,1.642500043,0.365195355,3.685889798,0.022982455,0.462972321,1.745768067,1.924198947,6.215848807,82.19000036,13.14000034,4.417894763,131.6678931,0.068947365,5.871578781,77.40789432,25.15789459,187.919471,20.75480046,19.52619267,24.47429891,19.89055103,21.94334328,22.12060477,17.47908742,14.76431364,9.641321864,18.99677434,22.1187501,26.44652255,27.49693157,27.7329823,27.82492569,25.37386911,24.10071042,20.63989867,5.961290348,11.91874993,11.36318641,16.0503933,16.08877179,14.96255052,12.27657104,9.93890341,8.936309075,7.303217139,10.01258026,11.86785018,14.06113521,14.11607898,13.75096176,11.67659513,10.59348898,9.148775778,0.770126733,1,1,1,1,0.999072621,0.949278334,0.816440377,42.68116575,-84.49434125,2017,MIH1
CG60/LH162,IAH3_2017,Y,15,749.7853988,0,2,229,110,65,64,4.153750014,4.476666673,3.404720357,2.207347727,0.783636364,2.628276904,1.892687593,2.328876272,1.794257086,132.9200004,67.1500001,54.03954627,78.33863542,1.567272728,28.02681865,71.85545488,19.05045461,54.69545453,16.14493189,17.75127989,18.89303832,22.07985964,20.54923199,20.99384486,19.81852315,17.22919489,15.64326955,15.84312499,15.5066665,21.42652578,27.714982,28.45522753,29.90074383,27.6545798,25.64720852,25.13760955,4.41906251,4.141333344,9.782295063,13.56526933,16.05901469,16.6123348,14.8096002,12.74600627,11.28191352,5.818880471,5.62230391,9.387130072,13.2881535,14.4256186,15.3843105,13.65871261,11.89796048,11.29223634,0.568604913,0.570380948,0.879734313,1,1,1,1,0.979205627,41.9758706,-92.24318881,2017,IAH3
LH198/PHZ51,WIH2_2017,Y,19.95,767.805992,0,2,270,131.5,76.5,77.5,5.048709616,4.636666616,1.142383575,5.763857885,8.001590729,6.160048604,1.607776433,1.167726513,2.257555268,156.5099981,41.72999954,17.5799998,219.3963643,12.14409065,74.04090792,72.28863683,15.04409093,68.0204557,18.1690344,19.72049554,20.64727683,20.23287988,19.13163679,19.37493243,18.51401576,14.93340477,10.89478233,16.03129027,21.86555545,22.15746071,26.59689143,27.90045501,26.76799254,24.73062069,22.38533393,20.51274781,3.24419354,8.791111098,9.553497601,14.54337319,16.81037892,15.37831158,12.19271258,9.193202486,7.868866577,5.438218202,9.209131236,9.451203107,13.05708411,14.51682301,13.37610723,11.31306373,9.686333754,8.853113959,0.624158991,0.847976183,0.950288768,1,1,0.998699911,0.954544862,0.834596302,43.3246415,-89.33688775,2017,WIH2
LH82/PHB47,DEH1_2017,Y,20.55,699.5851746,0,5.5,217,101,64,63,2.917187458,6.201428686,3.00780289,3.517983876,1.211428521,1.632751291,5.214259368,11.31934688,4.882730708,93.34999865,43.4100008,45.34571489,126.7790489,1.268571377,15.48333303,157.8533328,69.24809492,151.3147631,17.05647962,17.73228645,20.71096481,19.57386043,19.15556694,20.88592809,18.21237176,18.15756056,16.58607394,20.26624998,24.66142872,21.72245043,26.82298965,30.35071437,30.31148162,30.69555299,28.43090921,27.29702356,9.32593758,14.19571427,10.68752201,16.75855213,19.906349,19.88150788,21.21690322,18.72144455,17.91444491,8.690479953,12.08402314,9.787934269,14.12431868,17.15482568,17.14050735,17.94790556,15.63546309,14.74613823,0.907287956,1,0.959736116,1,1,1,1,1,38.67025825,-75.4333645,2017,DEH1
B14A/OH43,GAH2_2018,Y,13.7,754.9341397,0.5,1,216,101.5,56.5,56,4.849677459,0.472857135,6.389842835,2.50728713,2.625000003,3.795198411,2.499668454,2.828785729,3.724124467,150.3400012,3.309999943,84.90856965,76.95785742,5.387857173,33.84785713,66.14142865,15.06428581,115.4478585,20.49558812,21.88511535,20.33298503,19.15998772,23.51626716,19.70790798,20.02489003,19.42019064,16.00793598,23.5748387,25.80428559,25.09824669,29.4338755,32.57678595,32.30446448,33.95531338,34.12885699,31.99587548,8.787742034,10.57714278,11.20780819,18.18961495,18.46904782,20.57888879,21.25284753,21.08492862,21.01629033,9.717543295,11.3392147,11.23425566,15.89113211,17.53376954,18.44167663,19.31882395,19.47290933,18.49284767,0.993778801,1,1,1,1,1,1,1,33.71560925,-83.30894675,2018,GAH2
PHW52/PHM49,ONH1_2016,Y,34.6,654.5336914,0,1.5,208.5,117.5,88.5,85,1.979032247,2.105714291,0.92181366,1.439738287,4.720833318,2.435439396,4.62931563,1.31185227,2.043303741,61.34999967,29.48000008,13.31600007,60.28400005,10.99249999,28.54150001,172.0475013,11.37649985,61.38049932,20.24883872,21.56727634,23.77365349,22.41142308,19.3081847,20.61473607,17.12813691,15.31534219,11.6349499,10.49290321,16.47999988,25.01561457,25.51466922,28.22516696,27.99415914,27.31356147,24.49017951,20.3886015,-0.735806467,3.753571405,10.93050922,11.61184699,15.55325019,14.71775745,15.07244109,12.71620509,9.185787659,3.269306411,5.688768484,11.09209761,11.56175859,14.2216101,13.76399544,13.57642435,11.5133866,8.776899495,0.291105988,0.684668367,0.99891379,0.988093962,1,0.998165816,0.971212584,0.877977401,43.4997965,-80.451125,2016,ONH1
B97/PHB47,ARH1_2017,Y,17.7,731.1212129,0,2,229,110,65,64,3.058125025,3.532857077,9.871688678,6.405160528,0.516363615,5.988171668,5.119232493,3.102318153,5.34158356,97.86000079,24.72999954,132.0327285,211.6218184,0.569545432,54.36818138,136.8913653,16.08272713,165.5890903,17.13974981,16.55343887,20.38424011,18.76225527,22.81364793,19.06964508,19.53553475,19.77193111,17.12972935,24.60906261,23.96000045,24.77057006,28.06605652,30.35469691,31.5146664,31.30577636,32.78459133,30.91587993,11.9175,14.17857156,11.8445801,17.60850246,18.97249995,21.30615642,21.39979275,22.50533316,21.62237538,11.1639709,11.77578055,11.22655186,14.97537354,16.74359516,18.41041141,18.33049426,19.54768126,18.22457608,1,1,1,1,1,1,1,1,34.7272515,-90.76032575,2017,ARH1
LH195/PHZ51,WIH2_2016,N,19.4,824.4421423,0,31.5,290,149,64,64,2.185483832,6.563333432,3.447094458,4.124693788,6.707159024,6.158880111,5.945293137,1.654273513,4.758742445,67.74999878,39.38000059,44.45545418,149.2718189,18.91272705,63.86318129,228.7613642,17.11772738,143.1609097,20.07161814,17.64681498,20.48120554,20.03716075,21.00097141,18.73971629,16.31911952,14.94670844,10.3303759,18.34677419,27.65666644,25.59626749,27.3504729,29.44640147,29.15349181,26.70938079,24.21329019,20.37268081,4.840000014,15.2516667,12.43660419,15.21846351,16.18390156,17.81047537,15.29826924,12.0891497,9.537770322,6.76617685,13.67923016,11.77429452,13.6256578,15.0809804,15.56950508,13.35737665,11.10536848,8.849967039,0.729688939,1,1,1,1,0.998061418,0.979766622,0.886131912,43.32649075,-89.33882925,2016,WIH2
PHB47/PHZ51,IAH1_2017,Y,15.05,755.255936,0.5,6.5,217.75,97.75,65,64,3.40562493,4.965384584,4.756276119,1.833606587,3.814090996,2.221484887,3.670808328,1.81325484,2.347473118,108.9799978,64.54999959,71.28272616,63.78727258,4.177727374,22.83863677,118.9068186,13.7622725,72.03681816,16.19865167,17.41178014,18.84198651,22.07722619,19.57094626,20.6423577,19.65334879,19.12382584,16.87809105,17.11343735,15.37846162,22.95951679,28.09807267,26.50742381,30.27960591,29.79948923,26.92834941,26.37674051,5.413125027,4.923076978,11.46549016,14.16962528,11.61757578,16.65775237,16.66504091,13.38757222,12.41510662,6.530778339,5.768563812,10.45370215,13.71965113,11.94783378,15.64262598,15.39964617,12.71239892,12.1737806,0.629988832,0.555054952,0.946458762,1,1,1,1,0.998130952,41.19924609,-91.49402296,2017,IAH1
PHG39/PHN82,KSH1_2015,N,15.75,758.7956954,0,2,229,110,83.5,82,0.688124985,3.518749885,2.537239536,4.634326915,6.340784251,4.013516285,5.753010874,3.95559662,1.81791271,22.01999953,28.14999908,47.40176476,147.1705882,9.165882307,38.18235242,161.646473,23.74705871,56.35529401,19.48910828,20.34062409,19.21958791,21.30664108,18.00351726,18.80818483,18.60066932,17.86718078,18.78253622,17.69406253,22.96750021,19.85221485,29.31892792,29.11705877,31.41670577,31.16760655,30.50505886,29.96204923,3.297187492,8.938749969,8.792561365,16.998743,18.09705929,19.84989561,20.1377744,20.03282345,17.06836811,6.184738542,9.476230158,8.381520189,15.38816616,15.61697663,17.65547515,17.65556265,17.32458654,15.75670183,0.6778125,1,0.850138809,1,1,1,1,0.98304554,39.21641775,-96.60482225,2015,KSH1
2369/LH123HT,ILH1_2016,N,15.45,747.2110283,0,2,247.5,102.5,72,71.5,2.976905237,4.388409027,2.266536067,5.61207631,2.384848472,3.596551307,3.312350719,4.357499975,4.793790319,93.71999985,46.35499933,33.46068128,180.4177266,4.628863606,41.73386359,104.1413657,28.32431801,148.2020453,18.82488241,16.77241452,21.32061235,20.18653607,20.74234538,18.07981042,18.8666989,17.85818253,16.07680721,18.05081144,19.20204525,23.0422997,29.42292662,27.90308728,26.97317812,29.60218573,29.15938829,28.17592877,4.960040295,8.531272602,10.4507586,17.10049505,15.99717794,16.84881478,19.41054858,18.84383108,17.09740687,6.781235125,7.969267807,10.17119166,15.41614171,14.29579798,14.15384892,16.51995977,16.04951253,14.84458937,0.666766271,0.897956159,0.946860721,1,1,1,1,0.999883117,40.0607245,-88.2338815,2016,ILH1
B14A/MO17,SCH1_2019,N,14.755,731.1212129,2,1.5,218.44,87.63,56.5,57.5,3.522580645,3.026666641,1.832071666,3.15534991,1.497023807,2.439880971,1.838213127,1.715047598,2.162465429,109.2,18.15999985,19.94999987,97.87357193,2.846428582,21.92714303,50.9164284,9.481428444,67.0364283,18.2238054,19.24788825,19.83816148,19.9388592,17.79349522,20.88775084,19.93011295,20.19525604,17.6553152,24.08129043,27.55666669,26.86360264,30.30302253,30.15095266,31.81823454,32.87501498,31.84457125,32.33357145,10.7222581,15.88833332,14.78977791,18.33498627,20.49666657,19.48954379,21.18366564,19.1694286,20.16504603,10.62715993,13.88239503,13.27455789,16.3672742,17.32380961,17.64580353,19.00989067,17.48787314,18.15917061,0.967315668,1,1,1,1,1,1,1,34.62248225,-82.73756775,2019,SCH1
B14A/H95,ONH2_2019,N,37.35,654.4049729,1.5,20,259,121.5,59,57,3.148749955,1.707142813,2.884788786,4.447732757,0.559615387,2.381315681,1.591062148,2.963873616,2.693056068,100.7599986,11.94999969,28.24076917,155.5976948,1.398461539,27.51692318,83.67846091,41.8892306,82.50307587,19.66548085,22.32332843,21.1459014,19.53903082,19.21471346,16.24443645,13.80926932,11.15414419,7.415876262,21.25437486,24.3300002,28.12065395,27.65940311,26.58807711,26.0777262,22.19925608,19.8977064,9.549499144,11.33624993,14.43999985,17.94791472,17.45486711,16.31807709,16.95925516,13.13253797,10.95349597,1.834706344,9.515816833,11.92539607,15.12217856,14.69848405,13.62366511,13.69445237,10.64536319,9.344594814,3.453371008,0.985803572,1,1,1,1,0.93986372,0.838029257,0.289255913,42.45221275,-81.881844,2019,ONH2
2369/LH123HT,ARH2_2016,N,13.25,731.1212129,0,2,232.5,139,65,63,5.780937422,12.26500018,3.712120208,7.0222886,1.105000019,0.295568184,1.931287914,1.454696927,6.280835692,184.9899975,73.59000111,50.67409075,233.2059098,2.210000038,2.364545475,51.29727264,7.656817956,194.7059064,17.76457119,17.22719622,20.14058537,19.80644481,18.88262117,19.79738723,18.69440654,19.88854878,15.60714355,21.02781257,25.69833342,24.88224707,27.55747889,33.1628785,33.38017045,32.40728063,33.71248445,31.37684753,8.517187547,14.13833332,13.26693003,16.75834882,22.79151535,23.21522755,22.56353312,22.95024234,22.3752492,8.626308124,12.37618007,11.75818796,14.46644855,19.89189903,20.24263088,19.43024202,20.23735303,18.81126952,0.958649555,1,1,1,1,1,1,1,35.838614,-90.66530155,2016,ARH2
PB80/PHZ51,NEH2_2015,N,13.3,770.1658316,0,0.333333333,229,110,94.66666667,92,1.358750008,3.755999994,3.031264216,1.286090902,0.286666671,1.657187527,3.751759362,0.157499999,0.616713691,43.48000026,37.55999994,66.29000026,43.49999976,0.860000014,16.57187527,117.6431233,0.944999993,18.99062441,19.53783247,19.98656282,18.8528682,23.65152674,23.21232343,22.7312118,19.62767813,21.61948185,18.20728239,15.03874992,23.15200024,18.66927583,30.14561768,32.37510385,32.60862507,30.36489819,32.31320816,28.31448706,-2.426562488,5.230999994,5.264051067,13.5723423,16.5714581,16.13087479,15.9646131,15.56819047,11.19634675,4.192485347,8.478296732,6.894904354,14.37610508,16.560328,16.47008009,15.3434088,16.05261291,12.83173005,0.519497764,0.97653572,0.809891265,1,1,1,1,0.922021698,41.0514495,-100.7471915,2015,NEH2
PHW52/PHM49,GAH2_2018,Y,16.85,724.0416941,0.5,2,230,110,59.5,58.5,4.849677459,0.472857135,6.389842835,2.50728713,2.625000003,3.795198411,2.499668454,2.828785729,3.724124467,150.3400012,3.309999943,84.90856965,76.95785742,5.387857173,33.84785713,66.14142865,15.06428581,115.4478585,20.49558812,21.88511535,20.33298503,19.15998772,23.51626716,19.70790798,20.02489003,19.42019064,16.00793598,23.5748387,25.80428559,25.09824669,29.4338755,32.57678595,32.30446448,33.95531338,34.12885699,31.99587548,8.787742034,10.57714278,11.20780819,18.18961495,18.46904782,20.57888879,21.25284753,21.08492862,21.01629033,9.717543295,11.3392147,11.23425566,15.89113211,17.53376954,18.44167663,19.31882395,19.47290933,18.49284767,0.993778801,1,1,1,1,1,1,1,33.71560925,-83.30894675,2018,GAH2
PB80/PHZ51,NEH1_2015,N,7.35,397.0966447,0,2,255,130,65,53,2.959062506,0.753999996,4.745632833,2.187040691,0.179999996,3.601448917,1.548000793,0.057812502,1.589214364,94.69000018,3.769999981,46.84999943,63.50812512,0.239999995,39.12187557,55.49499987,0.586250016,47.85812447,19.07194562,25.84699936,20.00593662,19.96245842,20.96463704,17.86296284,18.31175333,17.30405645,12.3794141,23.74906254,30.51399994,29.13009987,30.74148671,30.73750019,28.43858622,29.13031746,26.88374984,20.12342532,13.19218739,15.46999989,18.04036499,19.18092822,19.11281252,17.33248289,15.92131484,11.1533021,6.525200269,11.64481375,15.25955733,15.68336601,16.96891106,16.93845514,15.07345461,14.95183393,12.01070089,8.15887847,0.924598212,1,1,1,1,0.96969665,0.982957588,0.758540943,41.290979,-96.41664325,2015,NEH1
PB80/PHZ51,NYH1_2017,N,16.45,731.1212129,0.5,18.5,236.5,113.5,80,76,4.758709581,4.139999986,2.953024942,5.715506232,4.320872878,2.701732063,2.616328443,1.022630585,3.614268439,147.519997,37.25999987,45.12618999,219.9223815,11.26857107,35.6957141,128.4247627,13.30476207,110.8900009,18.97444351,17.81005277,22.0763727,19.38397475,18.56141379,19.22534974,16.71382568,13.43506643,9.037548332,17.06967752,20.23333359,22.7745171,25.66488699,26.70396817,25.32691524,23.26007272,23.96840526,17.61119819,5.964193534,10.19,10.93717632,15.20362294,16.36293638,14.60656728,11.31793404,11.56685323,6.669544781,6.641127344,8.727253675,10.15270493,12.79474615,13.71935226,12.37567782,10.45035179,10.9124923,7.239151369,0.685760371,1,1,1,1,0.982493678,0.953634339,0.701363064,42.72880835,-76.6515625,2017,NYH1
B73/PHN82,ONH2_2017,N,23.25,881.7218852,0,5.5,229,105,46,41,3.566774253,5.816000056,0.640467161,2.602850346,0.276190468,0.553043346,1.774150425,1.832219351,2.40528059,110.5700018,58.16000056,8.999047586,96.02571482,0.552380936,6.918571438,78.70857161,24.06619065,72.98142847,18.8542372,16.74867072,24.21291039,19.37094181,21.19715784,20.84705237,17.61151759,14.253685,9.927824707,15.7532257,18.68899984,23.40262829,26.34974997,26.59380949,26.86065013,24.57225317,22.91748616,20.00596815,5.764838726,10.96000004,12.03359118,16.18007827,16.63301581,15.91920336,13.14574071,11.27177775,10.10650586,6.141928302,8.38660306,10.68394655,13.52521671,13.7753985,13.64998718,11.58821465,10.41552723,9.107414304,0.598502303,0.966571423,1,1,1,0.999084662,0.956230826,0.8300025,42.45293025,-81.8827315,2017,ONH2
W10001_0022/PHB47,SDH1_2015,N,17,650.0285431,0,3,157,79,67,67,1.890000034,2.68444448,2.847212523,0.928406021,1.08916667,1.213193166,1.12388612,3.994558873,0.570569385,58.59000105,24.16000032,33.86000057,31.14874977,1.720000006,12.77624983,39.02562428,27.90249949,17.65812508,21.16446504,23.3864585,24.03054242,23.94878495,21.74335716,21.42490048,20.60212775,16.27746828,15.18579983,19.04290341,22.5888888,27.20826416,30.46229654,29.54760476,31.86073879,31.47770382,29.48664523,24.89733582,4.208709664,8.468888919,11.69082143,14.25969647,14.29062517,16.06534098,14.02269822,14.11578116,6.942900096,6.807516906,9.210660666,12.27390437,14.67606113,14.18888263,15.81431879,15.00552731,14.17539039,9.834808296,0.77025346,0.983690483,1,1,1,0.983472358,0.961069402,0.950039755,44.208745,-102.928745,2015,SDH1
LH74/PHN82,TXH1_2020,Y,12.025,790.6535299,0,2,176.53,59.055,66,65.25,2.284333333,0,4.613530444,2.949806388,1.362941181,6.741056464,2.844869093,3.829088224,2.301094231,68.53,0,55.97058804,110.7988238,1.362941181,71.52235312,82.32059028,18.97352936,69.29117607,13.91343843,13.3863348,15.08816438,19.79337859,19.48130546,19.24170726,19.77113757,20.7945973,17.91495332,20.02266652,27.17999992,26.60815942,26.52479293,29.39617636,29.12989124,32.2266946,33.03076485,34.59511331,6.794333295,17.20400028,15.2455437,13.65359797,17.29686298,16.61337131,20.73348334,20.06167624,24.24037069,7.901247141,14.27292515,13.38037585,12.76738989,15.58009007,15.11126374,18.39892159,18.53701373,20.50202011,0.821357143,1,0.99243504,0.993791594,1,1,1,0.999042533,30.53781575,-96.4283715,2020,TXH1
B73/PHZ51,INH1_2016,N,18.25,704.7339156,0,5,278.5,145,64,63.5,3.034516148,1.382857186,3.106568823,3.966270256,3.500454469,6.752636371,3.451172643,3.198528118,3.024422797,94.07000059,9.680000305,31.26000059,138.8759105,3.500454469,67.52636371,113.8927274,21.6654544,92.62590972,17.63328649,23.97511796,20.66441577,20.1236558,19.9706746,19.39149484,18.14527656,15.98533716,14.62820237,18.74516109,26.31142807,27.84898846,28.12893417,28.20272714,29.14504538,29.16779001,27.95564941,27.07739093,7.950322636,11.69428553,16.31817922,16.10606538,16.8522731,18.34872752,18.58889605,17.50284626,15.03841012,7.677100472,11.91689015,14.24288378,14.4184555,14.68521604,15.7994256,15.9329094,14.92238151,13.51734692,0.852649763,1,1,1,1,1,1,0.996102814,40.4787595,-86.98982,2016,INH1
PHN11_PHW65_0323/LH195,NYH3_2019,Y,24.15,655.8208767,0,0,231.5,111,77,76.5,3.722580618,3.873333404,3.769554008,3.757958966,6.56821411,3.88506864,3.604603585,1.929858492,3.709694332,115.3999992,34.86000064,61.04857108,135.2235714,13.13642822,47.6607138,172.5314276,35.27499978,112.0914282,17.9818517,20.79040337,20.53458356,20.20586531,15.56107187,20.47665645,15.7702462,13.42945136,8.802352299,16.21290321,21.91111098,21.5613082,26.8770008,26.27928579,27.19863099,23.33754175,19.77308355,13.39834902,5.322258069,10.30000003,10.31609792,15.50927174,17.62488075,14.92700095,12.00041282,8.027538821,3.378330702,6.134411308,9.414033746,9.318517767,13.52970479,14.11503311,13.40897889,10.69134109,8.327220554,5.109082433,0.665391704,1,0.983452189,1,1,0.970435943,0.837841689,0.510564168,42.7321756,-76.65345463,2019,NYH3
2369/LH123HT,NEH2_2018,Y,16.98571429,751.532293,0,2,309.4285714,129.8571429,65,64,1.223548393,0.707272736,4.763911635,2.422660693,9.359230876,1.187769238,2.22139935,1.060615372,2.655643509,37.93000019,7.780000091,61.58923048,72.52538565,18.71846175,11.03461544,72.02230704,6.795384554,82.07230774,19.8632896,17.86074517,17.24350838,22.63499015,18.62862352,21.21286184,19.62237806,18.45252819,16.56870138,17.6919355,17.47909086,23.04657186,30.81178887,30.82346183,31.15499996,29.41523597,30.138927,26.57117624,3.026129,6.979090886,13.86801705,18.31582591,19.94076905,19.05673485,17.52505525,17.69200753,12.69636803,6.275299993,6.965919572,11.10889174,16.66188215,17.38211544,17.1119836,15.61857368,16.09025205,12.68735507,0.68033411,0.762240243,1,1,1,0.996687975,0.997695055,0.910447978,41.38042275,-96.55988375,2018,NEH2
B73/PHN82,WIH1_2017,Y,22.35,694.4364337,0,2,255,129,78.5,78.5,3.894838602,1.694000003,3.49156578,6.251914317,26.29780264,12.3515148,1.782621048,1.031219451,2.019413967,120.7399967,16.94000003,60.77000046,238.2086357,55.48409002,148.2181776,77.27181808,11.13545426,60.74545419,17.96009764,21.56986256,18.71582301,20.73316127,19.69440102,19.58726141,19.1692292,15.69151392,12.21998586,16.03451621,20.2119998,20.22998088,26.71060266,27.00553033,27.16428033,24.80808837,24.03641879,21.845045,3.37838715,6.260000002,9.268565708,14.6662765,15.35575767,16.21109857,13.17589581,11.52521119,9.509429623,5.507434962,7.720411242,8.664602637,13.14891279,13.46068042,13.9043846,11.67856357,10.90146065,9.608265423,0.606900932,0.8735357,0.867893568,1,1,0.998220242,0.971647403,0.89569217,43.05668125,-89.5308135,2017,WIH1
LH212HT/LH195,WIH1_2016,Y,21.85,780.6778444,0,2.5,245,138.5,74,74.5,2.076129018,1.94750002,4.430291291,4.068377178,0.606590927,8.204471101,6.520888551,7.285801826,4.413191112,64.35999957,23.37000024,50.66818307,153.9786358,1.017727305,87.41727302,222.4604529,58.95590957,134.9268184,19.92805462,20.9108026,19.53546339,20.65690042,18.97296773,19.76360502,17.50876714,15.21370917,12.23883056,16.70258062,17.57583312,27.08182728,26.49130857,27.22159082,28.35833875,27.6700069,25.1458901,22.98674642,3.327419363,4.990833327,14.04723809,14.47423798,17.58636334,16.7186736,17.17399145,14.32051147,12.5735533,5.875866612,6.419508974,12.98865398,12.92924289,14.50224274,14.72651534,14.55658067,12.23924581,10.7486024,0.621198161,0.7653869,1,1,1,0.999967803,0.998306277,0.970976554,43.05632525,-89.53194975,2016,WIH1
B73/PHZ51,TXH1_2016,N,10.2,690.2530817,0,2,230,81.5,71.25,71.25,1.633666698,16.13999993,0.99702422,4.719865603,0.129393939,3.277272727,13.06232457,0.703636358,1.017125621,49.01000094,112.9799995,14.5313639,177.3549991,0.33090909,36.05,378.0672674,3.179999969,30.53454577,13.9726292,10.72874144,17.88940951,17.80076093,20.55685321,19.77792414,17.90480363,20.8338604,20.14326093,22.32500016,23.95000022,24.48309256,26.40498513,28.5388636,28.63545455,30.12870319,34.35404525,35.58838723,6.034666632,13.33571414,9.675379644,13.12758779,15.78530267,16.33764454,20.13902853,23.08186362,24.00118421,8.473379033,11.29783551,10.5045992,12.46111665,14.43681279,14.72204148,17.12368238,20.53225114,20.87599038,0.915869048,1,0.972225207,1,1,1,1,1,30.54708625,-96.43393475,2016,TXH1
B14A/OH43,GAH2_2020,N,16.1,699.2633783,0.25,34,249.25,122.75,60.75,59.25,4.57387094,0.441111114,8.353941854,2.596292498,5.733571683,2.103095203,2.179001438,2.485142878,3.918548365,141.7899991,3.970000029,91.39071568,80.77428585,11.41500051,18.92785683,57.71499962,12.42571439,121.4749993,20.66171874,23.27184486,17.58943298,19.5164109,18.75300796,20.35385684,20.26001561,17.11426864,16.01109332,24.32935487,22.81222216,27.25049476,29.76903398,31.23452386,32.73428517,34.13891635,33.4245718,31.64458511,9.683548431,7.437777784,15.07002369,18.41195949,20.46821458,20.95039675,21.2406723,21.91714281,20.83905522,10.34437265,8.95024402,13.55540875,16.15181668,17.85136922,18.84234096,19.40061188,19.58004094,18.23728962,0.993479262,1,1,1,1,1,1,1,33.72355555,-83.30265185,2020,GAH2
LH195/PHZ51,MNH1_2020,Y,17.65,771.0239551,0.5,1.5,272.5,144,65,64,0.943005099,6.546073051,4.140359128,4.707487639,0.452236841,2.543512757,5.928901117,4.270615044,2.501087783,29.23315806,64.90105435,50.61684199,155.384737,0.714736844,28.61736839,219.2994748,34.34473765,76.93105461,20.83516212,15.73399946,19.74828467,20.97522671,19.78574355,20.20086134,18.41063051,15.8353279,12.84776632,15.708455,18.53155205,25.82840423,28.49526052,29.92499944,28.21992409,26.52185226,25.93987928,19.74067922,2.261239378,9.186207707,13.99244036,16.68286788,19.34447405,16.90528318,15.09377646,14.30914312,8.593217323,5.370680578,7.953384306,12.46596379,14.77865871,16.66236577,14.75116185,13.25288188,13.01752467,8.666130292,0.622613994,0.838417993,1,1,1,0.988450437,0.93066422,0.780758993,44.06907839,-93.53263028,2020,MNH1
TX714/TX779,IAH1_2017,Y,24.05,710.5262491,0,1.5,216,117,65,64,3.40562493,4.965384584,4.756276119,1.833606587,3.814090996,2.221484887,3.670808328,1.81325484,2.347473118,108.9799978,64.54999959,71.28272616,63.78727258,4.177727374,22.83863677,118.9068186,13.7622725,72.03681816,16.19865167,17.41178014,18.84198651,22.07722619,19.57094626,20.6423577,19.65334879,19.12382584,16.87809105,17.11343735,15.37846162,22.95951679,28.09807267,26.50742381,30.27960591,29.79948923,26.92834941,26.37674051,5.413125027,4.923076978,11.46549016,14.16962528,11.61757578,16.65775237,16.66504091,13.38757222,12.41510662,6.530778339,5.768563812,10.45370215,13.71965113,11.94783378,15.64262598,15.39964617,12.71239892,12.1737806,0.629988832,0.555054952,0.946458762,1,1,1,1,0.998130952,41.19924609,-91.49402296,2017,IAH1
LH195/PHN37,WIH1_2017,Y,19.15,732.4083981,0,2,239.5,110.5,75,76.25,3.894838602,1.694000003,3.49156578,6.251914317,26.29780264,12.3515148,1.782621048,1.031219451,2.019413967,120.7399967,16.94000003,60.77000046,238.2086357,55.48409002,148.2181776,77.27181808,11.13545426,60.74545419,17.96009764,21.56986256,18.71582301,20.73316127,19.69440102,19.58726141,19.1692292,15.69151392,12.21998586,16.03451621,20.2119998,20.22998088,26.71060266,27.00553033,27.16428033,24.80808837,24.03641879,21.845045,3.37838715,6.260000002,9.268565708,14.6662765,15.35575767,16.21109857,13.17589581,11.52521119,9.509429623,5.507434962,7.720411242,8.664602637,13.14891279,13.46068042,13.9043846,11.67856357,10.90146065,9.608265423,0.606900932,0.8735357,0.867893568,1,1,0.998220242,0.971647403,0.89569217,43.05668125,-89.5308135,2017,WIH1
B37/MO17,IAH3_2017,Y,17.7,731.1212129,0,2,229,110,65,64,4.153750014,4.476666673,3.404720357,2.207347727,0.783636364,2.628276904,1.892687593,2.328876272,1.794257086,132.9200004,67.1500001,54.03954627,78.33863542,1.567272728,28.02681865,71.85545488,19.05045461,54.69545453,16.14493189,17.75127989,18.89303832,22.07985964,20.54923199,20.99384486,19.81852315,17.22919489,15.64326955,15.84312499,15.5066665,21.42652578,27.714982,28.45522753,29.90074383,27.6545798,25.64720852,25.13760955,4.41906251,4.141333344,9.782295063,13.56526933,16.05901469,16.6123348,14.8096002,12.74600627,11.28191352,5.818880471,5.62230391,9.387130072,13.2881535,14.4256186,15.3843105,13.65871261,11.89796048,11.29223634,0.568604913,0.570380948,0.879734313,1,1,1,1,0.979205627,41.9758706,-92.24318881,2017,IAH3
F42/H95,TXH1-Late_2018,N,10.6,763.3008437,0,2,265.5,116.5,62.5,62,3.579375003,7.22999986,0.880950212,3.393996506,5.74642872,3.619146949,3.455600496,0.428285708,2.278709721,114.5400001,43.37999916,11.7107143,109.309285,11.49285744,35.41714406,87.15857094,2.141428539,70.64000136,15.18905504,16.98149872,20.4111462,19.99876216,15.81608334,20.1152116,19.58230121,16.39417859,18.61523184,25.42156261,25.48166672,24.9240565,29.86096768,30.55928573,31.11103384,33.47173554,33.67857067,35.62923946,13.73406251,14.7233332,12.14174484,16.97683375,21.17380969,19.92907914,21.60030195,24.8844286,24.53525352,12.24876106,12.9546326,11.47321097,15.6369769,17.86869493,17.49319399,19.34856645,20.63058471,20.90474588,0.995234379,0.961607144,1,1,1,0.999944236,0.999152383,0.999033412,30.546318,-96.4329965,2018,TXH1-Late
B73/DK3IIH6,ARH2_2016,N,12.7,731.1212129,0,2,206.5,122,62,61,5.780937422,12.26500018,3.712120208,7.0222886,1.105000019,0.295568184,1.931287914,1.454696927,6.280835692,184.9899975,73.59000111,50.67409075,233.2059098,2.210000038,2.364545475,51.29727264,7.656817956,194.7059064,17.76457119,17.22719622,20.14058537,19.80644481,18.88262117,19.79738723,18.69440654,19.88854878,15.60714355,21.02781257,25.69833342,24.88224707,27.55747889,33.1628785,33.38017045,32.40728063,33.71248445,31.37684753,8.517187547,14.13833332,13.26693003,16.75834882,22.79151535,23.21522755,22.56353312,22.95024234,22.3752492,8.626308124,12.37618007,11.75818796,14.46644855,19.89189903,20.24263088,19.43024202,20.23735303,18.81126952,0.958649555,1,1,1,1,1,1,1,35.838614,-90.66530155,2016,ARH2
B37/OH43,KSH1_2018,N,15.575,782.2868259,24.25,7,229,110,65,64,0.123225804,1.309000027,2.835063753,1.245921432,6.190769489,0.847777789,5.121826591,3.691923017,0.576771715,3.819999933,13.09000027,33.35999966,37.39923182,6.190769489,7.630000105,140.8584615,22.1515381,17.82230777,23.1370286,19.20606413,23.76917973,25.01946837,21.72317813,23.99633906,18.76579115,18.12170014,19.24157322,22.75709664,20.771,27.08892973,34.13484851,36.79923102,35.27700868,33.17677556,30.51957897,31.48973893,3.915806478,6.778999925,10.75682887,16.60383588,18.26846137,18.37008543,18.87125761,16.15291204,15.043086,8.255034949,8.267600828,11.90551203,16.73972083,17.84021903,17.73256873,17.54545708,15.43757555,15.43621363,0.847615199,0.789999991,1,1,1,1,1,0.970122947,37.810107,-100.775188,2018,KSH1
LH74/PHN82,OHH1_2020,Y,19.7,731.7648055,0,1.5,229,110,53,51,4.175312527,1.24000001,2.003453903,2.609830299,3.238461531,4.458868342,3.000365612,1.621237519,2.44580479,133.6100008,6.200000048,24.41307693,78.60461595,5.612307695,46.13538504,105.0992289,18.40384625,73.98230748,19.06994028,20.34349766,22.26062964,20.30125672,18.94980258,17.72364635,17.47781057,14.69815231,13.31876726,20.75593752,29.31000023,26.9862925,30.26951119,31.92230738,29.63458284,27.3548547,24.45496262,20.91339716,9.301875014,17.61400032,14.18652547,18.22082699,19.47423084,18.74255468,15.66305293,13.07056974,8.164555027,9.098127154,15.53923951,13.05396234,16.29356655,17.69826911,16.21360084,13.84725457,11.75523116,8.713632263,0.810993302,1,1,1,1,0.998602591,0.941606618,0.857376019,39.85643475,-83.67288725,2020,OHH1
F42/MO17,TXH3_2020,N,9.8825,2302.130791,0,2,259.08,103.505,61,59.5,3.45875001,5.345714297,0.996479651,4.090893152,11.37176514,0.055555557,3.334418123,0.880352915,2.226110039,110.6800003,37.42000008,12.08058808,124.9758839,22.74353027,0.450000013,88.32823513,3.714117541,69.00941121,15.8034201,18.34009743,21.30541133,19.40762275,20.16580067,20.62125497,19.02899565,16.94703156,18.75160362,25.77062485,24.00285694,27.63577502,29.95402965,30.19186265,32.38063702,33.36328143,35.03835301,35.63206825,14.19906271,12.24428552,13.92062761,17.60156859,18.33921522,21.14142164,21.88591696,25.71364726,24.34760913,12.60372436,11.20425028,13.29865333,15.96364287,16.27361839,18.69618421,19.4144726,21.47019646,20.81901077,0.989866069,1,1,1,1,0.99995416,0.999321567,0.998827006,30.53869475,-96.4274175,2020,TXH3
PHG39/PHN82,IAH4_2017,N,17.7,731.1212129,0,2,229,110,65,64,3.054193612,4.63857133,5.654282844,2.356146022,0.145000003,0.823262634,3.029939984,2.506485397,3.022032747,94.68000197,32.46999931,92.55000019,79.81000018,0.290000005,7.931363713,110.0431818,17.65818187,91.79227275,19.60434628,22.37855189,18.81628808,21.46940114,22.42332305,21.26952374,19.1513695,15.94205759,15.34138578,17.83935482,25.21428544,21.76755785,28.88340452,30.88984893,30.99338411,28.30609907,26.26622464,25.93438806,4.952580655,10.13999993,10.24708413,15.02150207,17.47128796,18.07608078,15.80662465,13.87026602,12.51354651,6.575243948,10.82301274,9.649960621,14.3656457,16.22810104,16.57398155,14.36597852,12.57546566,12.06214068,0.727396317,1,0.910082199,1,1,1,1,0.987168831,41.99455432,-93.69030947,2017,IAH4
TX714/TX779,GAH1_2020,N,22.19,691.9907818,1,0,187.5,102.5,69,68,4.279687563,0,6.08243138,3.811420537,2.267976227,2.530000055,3.98378478,1.741833346,2.910207357,136.950002,0,84.37571335,135.9278565,4.833571502,22.77000049,107.9378566,9.115000069,90.21642806,16.61263859,21.5972875,19.10636237,20.72286693,14.54687945,18.15584731,20.08605453,19.68634889,18.27781732,25.37343752,26.77166684,25.94144379,27.77824619,29.55357116,30.6518255,31.78195276,33.48178532,33.56322575,12.43875006,10.55666669,12.19035929,13.80720781,20.58059497,20.26111097,20.57386992,21.96838095,22.25456222,11.80508215,11.69113274,11.88989525,13.35432975,17.06708306,17.45646823,18.17996521,19.67032327,19.80166763,0.988537947,1,1,1,1,1,1,1,31.5079775,-83.558517,2020,GAH1
PHN11_PHW65_0323/LH195,IAH2_2017,Y,17.3,740.1315095,0,7,209,98.5,65,64,2.991935476,4.003749907,5.594154361,1.824159742,2.965909053,1.138616173,3.544395797,5.525860929,3.224964342,92.74999976,32.02999926,86.83999968,64.74363607,5.880909015,11.03545466,133.6850016,39.36636487,98.02272796,18.91811151,22.03083944,18.39067038,21.91300981,21.59707026,21.00058551,18.76246256,16.50136756,14.56336975,16.70258062,25.25375009,21.16444029,28.78792803,31.34295403,31.03890899,27.79230679,26.54138994,25.01808603,3.836129038,9.060000002,9.836484062,14.72352594,17.1804546,18.00485339,15.61890002,13.9478747,12.25710857,5.884356407,10.52058178,9.325556586,14.19611432,16.29393371,16.57150033,14.05801276,12.73803514,11.57992501,0.659274195,1,0.882113053,1,1,1,1,0.976890029,42.06582876,-94.72050129,2017,IAH2
LH74/PHN82,MNH1_2018,N,19.546,732.9232722,0,2,225.8,99,63.1,60.5,2.793871032,5.664285694,1.881383508,4.66962568,0.280777779,5.314848416,5.503097756,4.902593174,1.744490341,86.61000198,39.64999986,19.66333312,156.0266671,0.653333338,61.18466587,207.3246693,42.5680015,52.61600056,18.68617175,18.6483766,23.22190313,20.23498137,21.88409551,21.20453879,17.43849101,14.02805899,11.47763682,18.24580648,23.51142883,30.49568208,28.40295697,27.67288871,27.88288382,26.24424925,23.489937,17.2954947,6.62290317,13.35285704,16.1020056,17.07111629,16.25377796,15.7901465,14.83515609,12.42970144,6.347470975,7.12789267,11.15082684,15.42136783,14.91719499,14.1582049,14.10491894,13.08066536,11.20324133,7.126560519,0.79756912,1,1,1,1,0.978734696,0.910102722,0.699884152,44.07044721,-93.53494127,2018,MNH1
B73/PHZ51,NEH3_2017,N,25.05,741.4186947,1.5,2,173,79,65,64,6.03471326,3.955444498,0.18882913,3.842009577,1.316296295,1.435570981,2.764433094,3.912023778,4.15136979,187.076111,38.21611161,1.987222274,117.8244439,3.948888885,12.8655555,93.99333183,27.38611089,126.3194449,18.53150537,21.70326166,24.15860034,20.80931081,18.66603313,19.02487726,18.75887595,17.51813417,15.15718003,20.20137986,23.21257118,30.13389904,30.13339279,32.06462927,32.76776237,28.39622898,27.87449379,27.0242909,7.908297486,10.26215086,15.17879712,16.87891665,20.62425956,20.98993062,16.95054818,15.08081369,13.75654417,8.47748899,10.0955543,14.95078719,15.67969265,18.3413362,18.75248222,14.77642402,13.79312874,13.00111339,0.783510626,0.953819441,1,1,1,1,1,0.993105158,41.162,-96.409,2017,NEH3
B14A/OH43,IAH4_2017,Y,23.6,653.2465062,11.5,1.5,225,110.5,70.5,67,3.054193612,4.63857133,5.654282844,2.356146022,0.145000003,0.823262634,3.029939984,2.506485397,3.022032747,94.68000197,32.46999931,92.55000019,79.81000018,0.290000005,7.931363713,110.0431818,17.65818187,91.79227275,19.60434628,22.37855189,18.81628808,21.46940114,22.42332305,21.26952374,19.1513695,15.94205759,15.34138578,17.83935482,25.21428544,21.76755785,28.88340452,30.88984893,30.99338411,28.30609907,26.26622464,25.93438806,4.952580655,10.13999993,10.24708413,15.02150207,17.47128796,18.07608078,15.80662465,13.87026602,12.51354651,6.575243948,10.82301274,9.649960621,14.3656457,16.22810104,16.57398155,14.36597852,12.57546566,12.06214068,0.727396317,1,0.910082199,1,1,1,1,0.987168831,41.99455432,-93.69030947,2017,IAH4
F42/MO17,NEH1_2015,N,14.6,789.0445484,0,2,255,120,65,56.5,2.959062506,0.753999996,4.745632833,2.187040691,0.179999996,3.601448917,1.548000793,0.057812502,1.589214364,94.69000018,3.769999981,46.84999943,63.50812512,0.239999995,39.12187557,55.49499987,0.586250016,47.85812447,19.07194562,25.84699936,20.00593662,19.96245842,20.96463704,17.86296284,18.31175333,17.30405645,12.3794141,23.74906254,30.51399994,29.13009987,30.74148671,30.73750019,28.43858622,29.13031746,26.88374984,20.12342532,13.19218739,15.46999989,18.04036499,19.18092822,19.11281252,17.33248289,15.92131484,11.1533021,6.525200269,11.64481375,15.25955733,15.68336601,16.96891106,16.93845514,15.07345461,14.95183393,12.01070089,8.15887847,0.924598212,1,1,1,1,0.96969665,0.982957588,0.758540943,41.290979,-96.41664325,2015,NEH1
TX714/PHZ51,MIH1_2016,N,18.5,711.8134344,0,2.5,244,129.5,66,63.5,3.213870927,0.372000003,1.277668238,2.072144594,0.204761899,2.382636341,6.277866916,3.129595251,4.115734243,99.62999874,1.860000014,16.77857134,74.4033328,0.614285696,24.34142835,217.3680916,23.88571438,123.5814282,20.04481233,22.69628944,22.57460654,21.19066928,19.62511718,19.41470496,17.43536011,14.16523572,12.41239439,17.74322581,29.20999985,25.57947765,28.1508514,27.23547651,30.32783564,28.27294529,26.6388532,22.50219404,5.299677434,16.33600006,11.90361174,14.70447611,15.74579377,17.52671,16.25511672,15.58650841,10.86825081,6.615827776,14.89908974,11.62365975,13.82943527,13.70908531,16.01583991,14.48649579,13.48265,10.09129455,0.734400922,1,1,1,1,0.999987733,0.99326559,0.936590208,42.41206675,-84.2952625,2016,MIH1
F42/MO17,NYH3_2020,N,15.05,709.8826565,0,10.5,246.5,123.5,69,68.5,4.422257993,0,1.373865683,3.203515064,6.161458224,3.578657229,2.247619776,1.339995863,2.270768823,137.0899978,0,18.69000064,113.6731244,12.19749978,37.86125033,87.74812532,17.041875,68.54562519,20.94560956,21.78233427,21.55267425,20.63825651,19.18147684,18.87690393,17.75633085,13.93943947,11.5316014,14.59225801,27.97729172,23.60945411,27.89842024,28.17958339,28.76829368,26.51617347,21.47489044,18.12990527,2.644717742,15.68266662,11.3508871,15.53912014,16.43281273,17.50013456,14.53010818,10.52921434,6.891416056,5.000434995,14.04753459,10.70035646,14.11697706,14.42792892,15.19886376,13.03509367,9.604727821,7.356101809,0.471947005,1,0.969562211,0.99553941,1,0.989555914,0.903066166,0.764418635,42.73227475,-76.6513705,2020,NYH3
B14A/MO17,WIH2_2016,N,19.3,743.3494726,0,22.5,283.5,150,65,64.5,2.185483832,6.563333432,3.447094458,4.124693788,6.707159024,6.158880111,5.945293137,1.654273513,4.758742445,67.74999878,39.38000059,44.45545418,149.2718189,18.91272705,63.86318129,228.7613642,17.11772738,143.1609097,20.07161814,17.64681498,20.48120554,20.03716075,21.00097141,18.73971629,16.31911952,14.94670844,10.3303759,18.34677419,27.65666644,25.59626749,27.3504729,29.44640147,29.15349181,26.70938079,24.21329019,20.37268081,4.840000014,15.2516667,12.43660419,15.21846351,16.18390156,17.81047537,15.29826924,12.0891497,9.537770322,6.76617685,13.67923016,11.77429452,13.6256578,15.0809804,15.56950508,13.35737665,11.10536848,8.849967039,0.729688939,1,1,1,1,0.998061418,0.979766622,0.886131912,43.32649075,-89.33882925,2016,WIH2
B37/MO17,MNH1_2019,N,28.1625,686.8742205,36.875,7,236.625,107,64,61.375,5.301249992,3.475999832,3.602993786,6.929571154,0.665000021,5.494791652,5.263070224,5.621187949,3.218817211,169.6399997,17.37999916,52.03749943,225.572501,0.665000021,65.93749982,237.3162515,64.04000057,97.09750019,20.08423158,23.23368454,18.89062728,19.10632096,20.66435087,19.89868527,15.01321032,12.57416254,8.931227934,18.84156254,30.07599983,22.64517247,27.8446756,25.93437445,26.98812485,23.63970818,22.67396729,11.50651745,7.590312487,16.46599998,13.06713844,17.85158404,15.20500028,15.88958326,13.39640844,11.73885282,1.693081995,7.690019481,15.3684929,10.60199808,14.93632352,12.89140505,13.69019131,11.26189256,10.71987293,4.447532915,0.811763395,1,1,1,1,0.985092269,0.878346274,0.404429721,44.0664117,-93.52500471,2019,MNH1
B37/MO17,MOH1_2019,N,18.3,731.1212129,0,1,224,101.5,64.5,63.5,4.907419428,9.604285649,1.196872498,5.110410132,2.801666578,0.134444442,2.379708247,7.113428694,4.895301043,152.1300023,67.22999954,11.80625023,164.838749,8.404999733,1.209999979,75.06875065,40.48125055,151.407499,17.06584337,18.93672998,19.67293901,19.7601386,19.15913832,21.9354776,19.8853634,16.02367873,15.25367059,21.02129029,24.39000021,28.1749685,28.34324165,30.6675001,31.10263872,30.50513849,30.12964257,28.72433606,9.960645122,13.42857129,17.39529908,18.05620523,21.36166632,20.47986097,19.32223721,20.23911926,18.26780907,9.14854411,11.68484074,14.86417974,15.32069344,18.01458321,17.78759074,16.90970541,17.17973687,15.57482707,0.941624426,1,1,1,1,1,1,1,38.8956125,-92.20883,2019,MOH1
B73/TX779,IAH1_2020,Y,18.71666667,731.1212129,0,0.666666667,229,110,65,64,1.688064506,6.196000195,3.0793737,6.533057926,1.271428551,2.673269776,1.85421064,0.708456624,3.755616013,52.32999969,61.96000195,37.23499918,213.6221428,2.198571375,25.9085708,60.11785651,6.012142782,115.3728583,19.46953177,15.04660187,20.64247086,20.31598349,21.99207742,21.09552252,19.7297914,19.80455556,15.11692591,15.87290319,18.70700045,25.72176895,28.50674309,31.92999949,30.87921407,28.61147391,29.37327705,24.63079501,3.348387095,9.753000152,14.65929334,17.38633346,19.85714286,19.28849194,17.27261165,15.46819038,11.83183106,5.5584858,8.125456457,12.65757338,15.09801966,17.89357117,17.09078834,15.12121856,14.7539709,11.47694483,0.621440085,0.927035726,1,1,1,0.998514142,0.992713009,0.918334154,41.19774214,-91.48767072,2020,IAH1
CG44/CGR01,NCH1_2017,N,14.1,731.1212129,0,2.5,157.5,64,65,64,5.929354779,4.097142833,0.297958702,3.860588722,6.673809642,5.437090039,2.513672686,1.67758051,4.140460835,183.8099982,28.67999983,4.023333254,115.8195228,10.90952401,51.84571517,65.15761944,9.68857149,128.3542859,16.84796118,19.66078799,22.20077414,19.20396089,15.77249108,20.54839894,18.7994723,19.26606379,16.40835168,26.07000006,23.57857159,28.17011276,29.72614366,31.01404729,30.48814813,32.54721675,31.95695904,30.43138246,13.64064524,11.25142826,15.69757802,18.87536398,22.57674573,19.84793622,22.28039625,21.2748593,20.81350234,12.56442422,10.48784987,14.26665949,16.36044911,18.79940835,17.21144066,19.38557496,18.57336573,17.65269876,0.998329492,1,1,1,1,1,1,1,35.29663725,-77.5668065,2017,NCH1
TX714/PHZ51,INH1_2015,N,13.9,718.2493605,0,6.5,227.5,105.5,68,67,2.968064535,5.608750075,2.401797478,2.620596579,1.049062505,3.048312443,3.454130844,1.332533481,1.484370975,92.01000059,44.8700006,26.44312483,85.12437463,1.715625018,30.48312443,116.5724995,9.316249996,45.68062523,19.44608656,13.59046638,21.88315593,21.65689439,20.60130358,19.73326552,18.77560381,17.99738388,15.64927463,15.67580632,21.0562501,27.44396829,29.52449332,32.66781175,30.16981242,28.17317586,28.46934151,25.5406298,3.004516139,13.05249977,15.22068343,16.62214482,19.56843758,18.02818774,16.71489706,16.46563638,12.56847521,5.360930658,9.9438759,13.725819,15.26696414,18.11812466,16.1828721,14.63810214,14.67667849,11.95902497,0.609504607,1,1,1,1,1,1,0.986081101,40.477075,-87.000205,2015,INH1
B14A/H95,IAH4_2017,Y,20.5,732.4083981,4.5,2,215,114.5,74,70.5,3.054193612,4.63857133,5.654282844,2.356146022,0.145000003,0.823262634,3.029939984,2.506485397,3.022032747,94.68000197,32.46999931,92.55000019,79.81000018,0.290000005,7.931363713,110.0431818,17.65818187,91.79227275,19.60434628,22.37855189,18.81628808,21.46940114,22.42332305,21.26952374,19.1513695,15.94205759,15.34138578,17.83935482,25.21428544,21.76755785,28.88340452,30.88984893,30.99338411,28.30609907,26.26622464,25.93438806,4.952580655,10.13999993,10.24708413,15.02150207,17.47128796,18.07608078,15.80662465,13.87026602,12.51354651,6.575243948,10.82301274,9.649960621,14.3656457,16.22810104,16.57398155,14.36597852,12.57546566,12.06214068,0.727396317,1,0.910082199,1,1,1,1,0.987168831,41.99455432,-93.69030947,2017,IAH4
PHP02/PHB47,ILH1_2015,Y,13.7,750.4289914,0,0,240,110,65,64,4.343437491,1.296153843,7.654899739,5.34311295,3.674999952,2.467291633,4.647268051,0.712819956,1.951907909,138.9899997,16.84999996,99.86750055,177.342501,7.349999905,22.2056247,144.0256246,5.039375113,60.06187434,19.4076893,20.21820178,17.58012378,22.59231729,17.35775694,20.12242863,18.79551315,20.37165926,16.80998738,15.69375022,16.27615364,23.81483975,28.77428317,30.28249967,31.91701372,28.65899596,28.4854072,27.09877011,2.916875011,4.602307732,13.93389792,16.26044709,20.47749984,20.41381959,17.79543547,15.77196732,14.62672175,5.339800043,5.921635642,11.53105666,14.7484369,17.37999976,18.17178164,15.31569586,14.44648847,13.36421336,0.599162964,0.636840646,1,1,1,1,1,0.99828125,40.05982425,-88.23397575,2015,ILH1
CG60/LH162,ONH2_2016,N,16.625,658.3952472,0.5,3.5,190.5,85.25,62.25,61.25,1.435483875,1.740833327,1.463802716,3.022687524,0.150999999,1.134659085,3.046446673,1.693503778,2.765116665,44.50000012,20.88999993,18.84600039,117.1590009,0.150999999,12.25349994,101.0444998,13.16149993,84.26899996,19.72563927,22.19747464,21.68954048,21.77365896,18.98664827,19.92678304,16.69906166,15.68152671,12.9072029,14.10741935,17.58083336,26.00758685,26.04894451,27.78099985,28.79287246,28.2480382,25.9224786,23.75348014,4.257419363,7.13166666,15.03828811,14.1477789,17.72699971,17.33924119,18.24672102,15.95494667,14.17526013,5.131346137,6.986841243,12.85116395,12.65171997,14.84296497,15.26027205,15.31782021,13.26534606,11.67621189,0.511244241,0.799851209,1,1,1,1,1,0.975829282,42.4530035,-81.88279875,2016,ONH2
F42/MO17,NCH1_2015,Y,18.15,731.1212129,0,0,232.5,130.5,65,64,3.0140625,9.692856925,3.043308324,7.00027835,0,3.411347986,2.886716411,10.31533332,6.56176467,96.44999999,67.84999847,47.46470581,233.8535261,0,30.12176424,80.44058821,53.94764695,203.4147048,18.56641886,18.5514961,20.38733283,17.18369043,24.39251002,21.03629604,20.30189304,17.27178406,15.58503138,22.38312501,24.94999995,23.18034629,27.40244989,31.82117664,31.76743482,33.30845927,33.22968591,31.16039845,8.592187501,12.50999982,10.48535005,18.40286831,19.92058833,21.46261411,22.34001137,22.61282364,21.92468694,9.285127697,11.46773529,10.15801447,14.99239002,17.87088248,18.60652477,19.71826945,19.84422869,18.53531879,0.955334819,1,0.995809598,1,1,1,1,1,35.29657708,-77.5664625,2015,NCH1
W10004_0216/PHZ51,IAH4_2017,Y,18.7,713.1006196,0,2,229,110,65,64,3.054193612,4.63857133,5.654282844,2.356146022,0.145000003,0.823262634,3.029939984,2.506485397,3.022032747,94.68000197,32.46999931,92.55000019,79.81000018,0.290000005,7.931363713,110.0431818,17.65818187,91.79227275,19.60434628,22.37855189,18.81628808,21.46940114,22.42332305,21.26952374,19.1513695,15.94205759,15.34138578,17.83935482,25.21428544,21.76755785,28.88340452,30.88984893,30.99338411,28.30609907,26.26622464,25.93438806,4.952580655,10.13999993,10.24708413,15.02150207,17.47128796,18.07608078,15.80662465,13.87026602,12.51354651,6.575243948,10.82301274,9.649960621,14.3656457,16.22810104,16.57398155,14.36597852,12.57546566,12.06214068,0.727396317,1,0.910082199,1,1,1,1,0.987168831,41.99455432,-93.69030947,2017,IAH4
B14A/OH43,DEH1_2020,N,20.6,637.9611816,0,19.25,247.125,133,65,63.375,3.884838689,2.918749928,0.484801506,3.712682555,3.963928495,10.54878945,3.680508849,4.08975176,5.319973187,120.4299994,23.34999943,5.74999997,113.1935704,6.565714155,94.92928366,102.5935729,23.16642891,164.6128593,19.34389959,17.33862388,21.23126246,20.37262205,20.84469896,18.13380163,16.82964191,15.50064315,15.14081803,17.43483888,21.1624999,25.02143811,29.01024665,32.25440507,31.30417669,31.95048154,29.3682824,28.21514964,6.792903194,12.85250008,15.40184434,18.86790491,21.28607132,21.93053571,22.84339264,21.06525136,19.30786859,6.86665098,10.04482466,12.64072343,16.02028347,18.72161765,18.60397455,19.32804006,17.22313801,15.91003144,0.79362904,0.982098209,1,1,1,1,1,1,38.628981,-75.46566025,2020,DEH1
B73/PHZ51,MOH2_2015,N,14.75,731.1212129,0,6,240,122.5,73.5,73,3.914838722,3.534545422,2.891676029,5.446623968,2.505882375,1.1137255,5.068586465,0.980448186,4.011119538,121.3600004,38.87999964,35.23176398,173.6929392,5.011764751,10.0235295,148.9223525,6.487058864,124.3447057,19.08701148,18.12534948,17.16717858,21.59629129,16.88945411,20.34516158,18.32895435,19.90608894,16.95494386,18.756129,18.24727275,23.87322904,29.02836507,30.59176479,31.93248319,30.27285599,28.73220747,28.34062618,6.152580692,8.059091026,15.30129973,17.80114352,21.94705907,21.39261428,20.17023127,17.40519331,17.20941189,7.288196993,7.58478923,12.05891064,15.51775091,18.26941193,18.66254873,17.2518739,15.21359182,14.97078901,0.75554147,0.814935086,1,1,1,1,1,1,38.89807917,-92.2079,2015,MOH2
PB80/PHZ51,ONH2_2015,Y,21.9,774.2419182,0,1,283,146,79.5,80.5,1.876451608,4.282666683,1.928005431,1.58261263,10.80264742,1.923208582,3.114388399,4.294901914,2.356388962,58.16999984,64.24000025,23.61999965,57.22470651,21.60529484,21.1552944,115.5017658,31.56294079,72.1164696,18.95380112,18.76709785,21.17743809,22.45418875,20.04103015,18.4543581,18.45373918,15.80078253,13.34539525,11.17387095,14.38466663,23.91200153,26.61279381,30.15176526,27.65053462,26.77986929,25.87464046,20.7920557,2.006774224,5.636000033,13.64950245,15.64688346,19.32647026,18.51812829,16.74694623,15.4972221,11.03054456,3.742938436,5.617129505,11.53065914,13.52353119,16.78542678,15.13421866,13.95153495,13.1846932,9.37660249,0.276970043,0.589690475,0.985132406,1,1,1,0.993019959,0.931831119,42.45408625,-81.8816065,2015,ONH2
2369/LH123HT,WIH2_2017,Y,24.55,759.439288,0,2,272.5,152.5,80,81,5.048709616,4.636666616,1.142383575,5.763857885,8.001590729,6.160048604,1.607776433,1.167726513,2.257555268,156.5099981,41.72999954,17.5799998,219.3963643,12.14409065,74.04090792,72.28863683,15.04409093,68.0204557,18.1690344,19.72049554,20.64727683,20.23287988,19.13163679,19.37493243,18.51401576,14.93340477,10.89478233,16.03129027,21.86555545,22.15746071,26.59689143,27.90045501,26.76799254,24.73062069,22.38533393,20.51274781,3.24419354,8.791111098,9.553497601,14.54337319,16.81037892,15.37831158,12.19271258,9.193202486,7.868866577,5.438218202,9.209131236,9.451203107,13.05708411,14.51682301,13.37610723,11.31306373,9.686333754,8.853113959,0.624158991,0.847976183,0.950288768,1,1,0.998699911,0.954544862,0.834596302,43.3246415,-89.33688775,2017,WIH2
F42/OH43,TXH1_2019,N,11.5,863.701292,0,0,171.5,57,68.5,67.5,1.71448275,0.072857141,3.656594302,9.095434564,0.409285716,1.207678571,5.355850783,1.246142852,1.574419343,49.71999974,0.50999999,52.00785631,328.2121388,0.592857139,9.661428571,146.4478573,6.531428533,47.51499965,15.42805705,20.52131135,18.76898834,18.57032559,21.42349659,18.85281525,20.14881361,21.03072751,19.84089234,18.45000007,25.76428577,24.43254944,27.27586732,31.09000002,32.37866099,32.72435205,34.04471448,34.98200776,6.826206914,10.35000004,10.67963154,14.78766739,18.65857179,21.85071427,21.02442735,21.79614282,22.6049739,7.457816468,11.1589152,10.85119479,13.46630403,16.91193677,19.11412105,18.84765314,19.77807102,20.01419559,0.749667494,1,0.945308164,1,1,1,1,0.999698925,30.546318,-96.4329965,2019,TXH1
CG108/CGR03,GAH1_2016,N,13.65,671.2670995,3.5,1,160,70,52,52,6.466250051,4.395000041,0.566421492,2.549627568,3.17469698,5.859943136,4.096967014,2.330999996,2.476261007,206.9200016,35.16000032,6.21000006,86.0200003,9.52409094,52.42727233,105.6731797,11.65499998,76.76409122,15.95696127,18.25385642,20.33100053,20.74024209,20.01064868,19.54302735,19.38198769,19.26953352,18.21451922,23.62687498,22.98249984,28.56134937,29.4983659,33.37075638,32.62719045,33.25026907,34.51499955,33.94928126,11.29749997,10.47000009,15.64744728,16.2846205,20.78287862,20.61269551,21.56927107,22.51809092,22.40467728,10.53971422,9.962440438,14.36481163,15.11313475,19.02952924,18.56859265,19.26668195,20.34390963,19.99415841,0.993928569,1,1,1,1,1,1,1,31.5079175,-83.55854775,2016,GAH1
2369/LH123HT,GAH1_2016,N,14.6,682.8517666,0,4.5,215,95,61,59,6.466250051,4.395000041,0.566421492,2.549627568,3.17469698,5.859943136,4.096967014,2.330999996,2.476261007,206.9200016,35.16000032,6.21000006,86.0200003,9.52409094,52.42727233,105.6731797,11.65499998,76.76409122,15.95696127,18.25385642,20.33100053,20.74024209,20.01064868,19.54302735,19.38198769,19.26953352,18.21451922,23.62687498,22.98249984,28.56134937,29.4983659,33.37075638,32.62719045,33.25026907,34.51499955,33.94928126,11.29749997,10.47000009,15.64744728,16.2846205,20.78287862,20.61269551,21.56927107,22.51809092,22.40467728,10.53971422,9.962440438,14.36481163,15.11313475,19.02952924,18.56859265,19.26668195,20.34390963,19.99415841,0.993928569,1,1,1,1,1,1,1,31.5079175,-83.55854775,2016,GAH1
CG108/CGR03,NYH2_2015,Y,16.55,731.1212129,0,3.5,208.5,97,69,68,3.814193487,2.822857129,1.806874641,1.427310218,14.28882354,6.323155046,2.553769654,1.263651931,1.70374005,118.2399981,39.5199998,23.5252947,50.99705838,17.86235295,65.18176435,90.43176518,10.71352917,51.74117684,19.21827184,21.58410556,20.44972798,21.8367517,17.34067749,18.34945618,18.49425604,17.55625849,13.84215422,11.26903224,15.86071418,24.70888252,27.12764594,29.5805878,28.55383422,27.75922879,25.11594081,20.73318661,0.676451599,3.065714287,12.68317757,14.19692254,19.48862723,17.66257776,16.12899413,12.03346763,8.797239788,3.458861152,5.522653893,11.65565145,13.2498794,16.56577659,15.18766176,14.16580901,11.53845799,8.731216192,0.261509218,0.568112238,0.971160735,0.994106254,1,0.999864887,0.980226591,0.898542131,42.7324825,-76.65277775,2015,NYH2
CG119/CG108,INH1_2018,N,13.46,912.6786901,0.5,1.5,165,82.5,56,56,2.767096756,4.68454543,2.7337539,2.608245307,0.180000007,3.094468228,3.412660528,0.546071422,1.653962344,85.77999943,51.52999973,31.28214284,86.61642764,0.256428582,29.52071404,116.6621433,3.926428522,50.80214219,18.97651723,17.84080185,18.4751702,21.91502565,21.1577316,19.53552192,18.82147066,19.16946561,15.73843824,16.02451609,18.1199998,25.33039297,28.95851984,31.36964308,31.15694425,28.16765345,28.4284546,26.00206774,3.260645186,6.861818249,15.08608447,16.0398559,19.18499974,18.88806934,16.73005964,15.8360335,13.18834038,5.572938243,7.259226835,12.75390782,14.76719288,17.27732141,17.05840253,14.63863294,14.40004061,12.39915253,0.613732714,0.707012975,1,1,1,1,1,0.979968538,40.4787825,-86.9898145,2018,INH1
PHP02/PHB47,MOH1_2016,N,17.15,731.1212129,1.5,2,252.5,135,55,54,2.465483877,8.058000231,0.264259377,6.282521268,1.94553035,9.25680559,4.358907121,3.354664451,5.453130527,76.43000019,40.29000115,2.879999995,172.8372758,4.262727369,83.20363667,125.2090916,21.13363606,168.2240918,20.2309363,16.93509369,22.49829557,20.20959989,18.68177986,19.21408964,18.0090922,17.17714413,15.87534947,21.83193548,27.56600037,27.88644765,31.21215235,30.25795442,31.2505745,30.57423065,29.80077912,28.25339236,10.073871,16.74400005,16.26474463,19.86215984,19.98371223,20.49117413,20.76153791,19.91431794,17.56318368,9.497798547,14.24343349,14.21296425,17.47336946,17.12232598,17.8699151,17.65104862,16.90998551,15.09561117,0.937315665,1,1,1,1,1,1,0.999442641,38.8955475,-92.2072025,2016,MOH1
B37/OH43,NCH1_2020,N,18.1,700.5505636,12.5,0.75,222.8125,102.1875,65,64,3.811250031,6.583749771,1.870150701,7.593384547,0.8842857,2.636686467,3.330713381,6.121142871,7.323433169,121.960001,52.66999817,29.28357046,255.9407139,2.652857099,23.48571392,94.03142862,30.32857149,227.0264283,17.79310012,18.2030313,21.90311614,16.62410426,22.73441878,20.97653859,20.54309533,18.15988809,15.65141399,21.6678125,23.21999979,23.34870433,27.04964214,28.2173808,30.95634976,33.07043217,33.2972859,31.24656685,8.082812505,11.53125006,9.51933213,18.09668861,18.19142909,20.58560522,22.1124513,22.85800005,21.91055295,8.88590596,10.34544598,9.896418393,14.69404398,15.249625,17.76881847,19.50312724,19.99035698,18.5620876,0.935200903,1,0.995619773,1,1,1,1,1,35.30009892,-77.57131746,2020,NCH1
PHN11_PHW65_0323/LH195,GAH1_2018,Y,15.05,774.4564491,0,1.666666667,213.3333333,108.3333333,61.33333333,61,4.231249915,1.934999943,5.575464231,3.801027214,1.067857163,3.256190501,3.932246866,3.816857059,2.685023025,135.3999973,11.60999966,76.79571342,135.0185695,1.516428607,29.30571451,107.1921429,19.08428529,83.23571379,16.89130574,18.83037901,19.9789379,20.32622599,17.16636637,17.47509449,19.98058203,18.77657547,18.35496912,25.6268748,28.56500022,25.46428012,27.96417186,30.5753573,30.54857133,31.9994497,33.07128549,33.68336431,12.70062498,14.46999963,11.35988473,14.27301998,20.47928579,20.42444427,20.68398901,21.82542842,22.30905548,11.99291119,13.91639365,11.33534042,13.63652225,17.52732154,17.4865078,18.33967815,19.36985553,19.8838857,0.988973219,1,1,1,1,1,1,1,31.50582525,-83.55515025,2018,GAH1
B73/TX779,WIH1_2020,N,25.2,708.5954713,0.5,1,277.5,156,77,77,1.598387111,6.507143004,4.413520471,5.455426438,9.576153682,6.848251811,1.847198819,1.302442385,3.233674973,49.55000043,91.10000205,54.05307698,191.9769218,14.76999958,75.33076992,75.52923148,17.19923096,99.29769339,20.3303612,17.70938441,19.63774696,21.71928057,19.47191414,18.08778093,19.52506722,17.02277317,12.74244368,13.80935484,15.78214281,24.71870171,28.0331271,31.3961547,28.17125902,26.95535567,26.2427393,20.06715065,1.332903252,5.150000061,13.25869882,14.90724568,18.80923077,17.63741262,14.66820073,13.00544381,8.429758508,4.404075426,5.920121855,11.73838603,13.88054584,17.12955683,14.95247276,13.30208011,12.63591888,8.588509069,0.46481566,0.623010193,1,1,1,0.987099279,0.934776512,0.808464704,43.05505505,-89.52853825,2020,WIH1
PHG80/PHZ51,WIH1_2017,N,17.7,731.1212129,0,2,229,110,65,64,3.894838602,1.694000003,3.49156578,6.251914317,26.29780264,12.3515148,1.782621048,1.031219451,2.019413967,120.7399967,16.94000003,60.77000046,238.2086357,55.48409002,148.2181776,77.27181808,11.13545426,60.74545419,17.96009764,21.56986256,18.71582301,20.73316127,19.69440102,19.58726141,19.1692292,15.69151392,12.21998586,16.03451621,20.2119998,20.22998088,26.71060266,27.00553033,27.16428033,24.80808837,24.03641879,21.845045,3.37838715,6.260000002,9.268565708,14.6662765,15.35575767,16.21109857,13.17589581,11.52521119,9.509429623,5.507434962,7.720411242,8.664602637,13.14891279,13.46068042,13.9043846,11.67856357,10.90146065,9.608265423,0.606900932,0.8735357,0.867893568,1,1,0.998220242,0.971647403,0.89569217,43.05668125,-89.5308135,2017,WIH1
B37/OH43,NYH3_2020,N,14.8,711.8134344,0,8.5,240,109.5,67.5,67.5,4.422257993,0,1.373865683,3.203515064,6.161458224,3.578657229,2.247619776,1.339995863,2.270768823,137.0899978,0,18.69000064,113.6731244,12.19749978,37.86125033,87.74812532,17.041875,68.54562519,20.94560956,21.78233427,21.55267425,20.63825651,19.18147684,18.87690393,17.75633085,13.93943947,11.5316014,14.59225801,27.97729172,23.60945411,27.89842024,28.17958339,28.76829368,26.51617347,21.47489044,18.12990527,2.644717742,15.68266662,11.3508871,15.53912014,16.43281273,17.50013456,14.53010818,10.52921434,6.891416056,5.000434995,14.04753459,10.70035646,14.11697706,14.42792892,15.19886376,13.03509367,9.604727821,7.356101809,0.471947005,1,0.969562211,0.99553941,1,0.989555914,0.903066166,0.764418635,42.73227475,-76.6513705,2020,NYH3
B37/MO17,OHH1_2020,Y,23.2,689.2876928,0,0,229,110,62,58.5,4.175312527,1.24000001,2.003453903,2.609830299,3.238461531,4.458868342,3.000365612,1.621237519,2.44580479,133.6100008,6.200000048,24.41307693,78.60461595,5.612307695,46.13538504,105.0992289,18.40384625,73.98230748,19.06994028,20.34349766,22.26062964,20.30125672,18.94980258,17.72364635,17.47781057,14.69815231,13.31876726,20.75593752,29.31000023,26.9862925,30.26951119,31.92230738,29.63458284,27.3548547,24.45496262,20.91339716,9.301875014,17.61400032,14.18652547,18.22082699,19.47423084,18.74255468,15.66305293,13.07056974,8.164555027,9.098127154,15.53923951,13.05396234,16.29356655,17.69826911,16.21360084,13.84725457,11.75523116,8.713632263,0.810993302,1,1,1,1,0.998602591,0.941606618,0.857376019,39.85643475,-83.67288725,2020,OHH1
PHN11_PHW65_0323/LH195,WIH1_2016,N,24.1,713.1006196,0,2,254,140,74,74.5,2.076129018,1.94750002,4.430291291,4.068377178,0.606590927,8.204471101,6.520888551,7.285801826,4.413191112,64.35999957,23.37000024,50.66818307,153.9786358,1.017727305,87.41727302,222.4604529,58.95590957,134.9268184,19.92805462,20.9108026,19.53546339,20.65690042,18.97296773,19.76360502,17.50876714,15.21370917,12.23883056,16.70258062,17.57583312,27.08182728,26.49130857,27.22159082,28.35833875,27.6700069,25.1458901,22.98674642,3.327419363,4.990833327,14.04723809,14.47423798,17.58636334,16.7186736,17.17399145,14.32051147,12.5735533,5.875866612,6.419508974,12.98865398,12.92924289,14.50224274,14.72651534,14.55658067,12.23924581,10.7486024,0.621198161,0.7653869,1,1,1,0.999967803,0.998306277,0.970976554,43.05632525,-89.53194975,2016,WIH1
B73/DK3IIH6,ILH1_2016,N,15.35,708.5954713,0.5,2,228,121.5,73,71.5,2.976905237,4.388409027,2.266536067,5.61207631,2.384848472,3.596551307,3.312350719,4.357499975,4.793790319,93.71999985,46.35499933,33.46068128,180.4177266,4.628863606,41.73386359,104.1413657,28.32431801,148.2020453,18.82488241,16.77241452,21.32061235,20.18653607,20.74234538,18.07981042,18.8666989,17.85818253,16.07680721,18.05081144,19.20204525,23.0422997,29.42292662,27.90308728,26.97317812,29.60218573,29.15938829,28.17592877,4.960040295,8.531272602,10.4507586,17.10049505,15.99717794,16.84881478,19.41054858,18.84383108,17.09740687,6.781235125,7.969267807,10.17119166,15.41614171,14.29579798,14.15384892,16.51995977,16.04951253,14.84458937,0.666766271,0.897956159,0.946860721,1,1,1,1,0.999883117,40.0607245,-88.2338815,2016,ILH1
W10001_0022/PHB47,KSH1_2016,N,13.1,702.8031377,0,5,175,80,93,93,0.381562503,5.593749881,9.031136959,3.981909994,0,0.897724769,5.011421387,3.322424253,5.670073263,12.2100001,44.74999905,140.9509078,148.5090918,0,8.374091108,139.438637,19.93454552,175.7722711,18.43315426,14.04582843,18.34613738,20.88446512,22.70328743,20.59441801,18.34986672,18.15379387,17.32510191,19.15124996,21.70124984,22.33901244,27.19377063,36.31272689,35.17540036,32.01078432,33.85633352,30.76895891,2.130625044,11.46499991,9.568238579,14.2621368,21.58727247,22.04353923,20.78061301,22.71134866,19.49139311,6.3158573,9.667291017,9.626890379,13.35418843,19.56599107,19.14397536,18.06824645,19.12054732,17.03744615,0.741573662,1,0.921279778,0.986042268,0.991287871,0.998977631,0.993550002,1,39.14480675,-96.62898225,2016,KSH1
B73/MO17,GAH1_2017,N,13.55,687.3569149,1,2,195,80,60,59,1.929687474,5.730000019,0.343252103,3.449286585,2.107618968,4.586772466,5.884115127,3.462793619,5.790337869,61.74999917,45.84000015,4.185237975,115.4628578,3.161428452,44.24761888,164.3961923,18.00285697,179.500474,16.80249013,20.13732326,20.17342047,19.27076224,21.20480144,16.6798163,18.15858085,19.37517402,17.73704587,23.5584375,24.76124978,28.73884546,29.02932191,29.79031757,30.11825943,30.88468736,33.04158726,32.39466959,8.654999979,9.073749959,13.81601286,15.94569083,16.85142871,20.07059283,21.0580027,22.24365102,22.03411694,9.935165979,10.3201674,13.6844889,14.81363998,15.5596332,17.10789698,17.95959829,19.61349988,19.1980032,0.8834375,1,1,1,1,1,1,1,31.50794425,-83.55854475,2017,GAH1
B73/PHM49,DEH1_2020,N,23.1,689.9312854,0,1,234.5,120.5,66,65.5,3.884838689,2.918749928,0.484801506,3.712682555,3.963928495,10.54878945,3.680508849,4.08975176,5.319973187,120.4299994,23.34999943,5.74999997,113.1935704,6.565714155,94.92928366,102.5935729,23.16642891,164.6128593,19.34389959,17.33862388,21.23126246,20.37262205,20.84469896,18.13380163,16.82964191,15.50064315,15.14081803,17.43483888,21.1624999,25.02143811,29.01024665,32.25440507,31.30417669,31.95048154,29.3682824,28.21514964,6.792903194,12.85250008,15.40184434,18.86790491,21.28607132,21.93053571,22.84339264,21.06525136,19.30786859,6.86665098,10.04482466,12.64072343,16.02028347,18.72161765,18.60397455,19.32804006,17.22313801,15.91003144,0.79362904,0.982098209,1,1,1,1,1,1,38.628981,-75.46566025,2020,DEH1
B37/OH43,NYH2_2015,N,20.8,731.1212129,0,3,214,98,87,87,3.814193487,2.822857129,1.806874641,1.427310218,14.28882354,6.323155046,2.553769654,1.263651931,1.70374005,118.2399981,39.5199998,23.5252947,50.99705838,17.86235295,65.18176435,90.43176518,10.71352917,51.74117684,19.21827184,21.58410556,20.44972798,21.8367517,17.34067749,18.34945618,18.49425604,17.55625849,13.84215422,11.26903224,15.86071418,24.70888252,27.12764594,29.5805878,28.55383422,27.75922879,25.11594081,20.73318661,0.676451599,3.065714287,12.68317757,14.19692254,19.48862723,17.66257776,16.12899413,12.03346763,8.797239788,3.458861152,5.522653893,11.65565145,13.2498794,16.56577659,15.18766176,14.16580901,11.53845799,8.731216192,0.261509218,0.568112238,0.971160735,0.994106254,1,0.999864887,0.980226591,0.898542131,42.7324825,-76.65277775,2015,NYH2
B73/TX779,GAH1_2017,N,13.75,762.0136585,0,2,185,85,64,63,1.929687474,5.730000019,0.343252103,3.449286585,2.107618968,4.586772466,5.884115127,3.462793619,5.790337869,61.74999917,45.84000015,4.185237975,115.4628578,3.161428452,44.24761888,164.3961923,18.00285697,179.500474,16.80249013,20.13732326,20.17342047,19.27076224,21.20480144,16.6798163,18.15858085,19.37517402,17.73704587,23.5584375,24.76124978,28.73884546,29.02932191,29.79031757,30.11825943,30.88468736,33.04158726,32.39466959,8.654999979,9.073749959,13.81601286,15.94569083,16.85142871,20.07059283,21.0580027,22.24365102,22.03411694,9.935165979,10.3201674,13.6844889,14.81363998,15.5596332,17.10789698,17.95959829,19.61349988,19.1980032,0.8834375,1,1,1,1,1,1,1,31.50794425,-83.55854475,2017,GAH1
LH198/PHZ51,WIH2_2016,N,19.525,813.5010678,0,11.75,289,141.5,62.5,61.75,2.185483832,6.563333432,3.447094458,4.124693788,6.707159024,6.158880111,5.945293137,1.654273513,4.758742445,67.74999878,39.38000059,44.45545418,149.2718189,18.91272705,63.86318129,228.7613642,17.11772738,143.1609097,20.07161814,17.64681498,20.48120554,20.03716075,21.00097141,18.73971629,16.31911952,14.94670844,10.3303759,18.34677419,27.65666644,25.59626749,27.3504729,29.44640147,29.15349181,26.70938079,24.21329019,20.37268081,4.840000014,15.2516667,12.43660419,15.21846351,16.18390156,17.81047537,15.29826924,12.0891497,9.537770322,6.76617685,13.67923016,11.77429452,13.6256578,15.0809804,15.56950508,13.35737665,11.10536848,8.849967039,0.729688939,1,1,1,1,0.998061418,0.979766622,0.886131912,43.32649075,-89.33882925,2016,WIH2
LH212HT/LH195,INH1_2015,N,19.4,711.1698417,0,1,221,93,74.5,74,2.968064535,5.608750075,2.401797478,2.620596579,1.049062505,3.048312443,3.454130844,1.332533481,1.484370975,92.01000059,44.8700006,26.44312483,85.12437463,1.715625018,30.48312443,116.5724995,9.316249996,45.68062523,19.44608656,13.59046638,21.88315593,21.65689439,20.60130358,19.73326552,18.77560381,17.99738388,15.64927463,15.67580632,21.0562501,27.44396829,29.52449332,32.66781175,30.16981242,28.17317586,28.46934151,25.5406298,3.004516139,13.05249977,15.22068343,16.62214482,19.56843758,18.02818774,16.71489706,16.46563638,12.56847521,5.360930658,9.9438759,13.725819,15.26696414,18.11812466,16.1828721,14.63810214,14.67667849,11.95902497,0.609504607,1,1,1,1,1,1,0.986081101,40.477075,-87.000205,2015,INH1
PHG29/PHG47,DEH1_2017,Y,16.05,725.3288793,0,10.5,225.5,115.5,62.5,62.5,2.917187458,6.201428686,3.00780289,3.517983876,1.211428521,1.632751291,5.214259368,11.31934688,4.882730708,93.34999865,43.4100008,45.34571489,126.7790489,1.268571377,15.48333303,157.8533328,69.24809492,151.3147631,17.05647962,17.73228645,20.71096481,19.57386043,19.15556694,20.88592809,18.21237176,18.15756056,16.58607394,20.26624998,24.66142872,21.72245043,26.82298965,30.35071437,30.31148162,30.69555299,28.43090921,27.29702356,9.32593758,14.19571427,10.68752201,16.75855213,19.906349,19.88150788,21.21690322,18.72144455,17.91444491,8.690479953,12.08402314,9.787934269,14.12431868,17.15482568,17.14050735,17.94790556,15.63546309,14.74613823,0.907287956,1,0.959736116,1,1,1,1,1,38.67025825,-75.4333645,2017,DEH1
CG119/CG108,ARH1_2018,N,21.45,553.1678543,4,1.5,182.5,91.5,59.5,54,6.807499945,4.709999936,2.627776375,4.735912158,3.619166647,6.960178526,4.330437569,0.796285741,3.374677434,217.8399982,32.96999955,35.48928591,145.2942843,5.831428528,62.51428531,109.7978577,4.003571561,104.6150005,17.99706709,21.70226043,20.05949982,19.52680112,21.59397623,17.99264813,18.0574776,19.33215022,18.30424355,21.07062507,24.31857109,24.02168934,29.45279857,31.73095224,30.70692423,32.5717108,33.29521443,31.83741963,10.26718749,12.03571429,12.70205088,18.67412083,19.99154783,20.64677572,22.90335213,23.23585706,21.28834102,9.223277534,11.01036775,11.27832322,16.11267445,17.86206546,17.6775748,19.72770382,20.19469271,18.54368809,0.945725441,1,1,1,1,1,1,1,34.729679,-90.7603455,2018,ARH1
F42/MO17,IAH4_2015,N,17.7,720.1801384,51,0.5,265,128,65,64,1.42451612,4.854615514,2.513668144,6.351127419,5.46999979,2.154687441,1.85099418,0.335758934,4.064770202,44.15999973,63.11000168,35.58999979,218.2399999,10.93999958,20.30812445,58.48687407,2.377500039,125.1143763,19.83997888,19.28772805,16.02270398,20.69822917,17.27718186,21.35831173,20.17303565,19.59360772,15.6142427,15.83032262,16.78769229,22.26164163,27.88725423,29.37999988,31.52784708,28.69895342,30.18404469,25.46833276,2.473548389,5.024615425,13.48280789,16.59868734,20.37374985,19.78628468,17.37298211,16.89515858,12.68514048,5.318693913,6.228847238,10.78291245,14.47529064,16.87687486,17.66054739,15.18141656,15.71210426,12.05907357,0.585391697,0.659230777,0.98994413,1,1,1,1,0.952600636,41.19970961,-91.49362406,2015,IAH4
W10004_0216/PHZ51,ONH1_2016,Y,27.2,664.1875807,0,1,253,131.5,83.5,83,1.979032247,2.105714291,0.92181366,1.439738287,4.720833318,2.435439396,4.62931563,1.31185227,2.043303741,61.34999967,29.48000008,13.31600007,60.28400005,10.99249999,28.54150001,172.0475013,11.37649985,61.38049932,20.24883872,21.56727634,23.77365349,22.41142308,19.3081847,20.61473607,17.12813691,15.31534219,11.6349499,10.49290321,16.47999988,25.01561457,25.51466922,28.22516696,27.99415914,27.31356147,24.49017951,20.3886015,-0.735806467,3.753571405,10.93050922,11.61184699,15.55325019,14.71775745,15.07244109,12.71620509,9.185787659,3.269306411,5.688768484,11.09209761,11.56175859,14.2216101,13.76399544,13.57642435,11.5133866,8.776899495,0.291105988,0.684668367,0.99891379,0.988093962,1,0.998165816,0.971212584,0.877977401,43.4997965,-80.451125,2016,ONH1
F42/OH43,MNH1_2016,N,23.25,731.1212129,0,2,229,110,67,65,2.893225764,0.170000008,5.030425272,6.121705224,6.438583227,6.210954471,8.179238718,7.617170889,9.394742846,89.68999869,1.190000057,67.79499967,212.8530004,13.67999972,65.11499918,295.599999,62.20750045,287.315495,17.89673604,26.28611401,18.122652,20.29948324,15.80941307,17.87578139,16.93568638,15.29315111,12.15008877,17.5148386,25.45428576,24.53269911,27.63337014,28.14450006,28.70269129,27.15887183,24.8505404,22.53032632,6.338387108,9.824285678,13.68155402,15.81410535,17.82425013,18.42635015,16.92976579,13.57123889,11.50456607,6.871134867,10.90204251,11.6566452,13.98369248,15.05511886,15.68076391,14.22086787,11.86153057,10.26982602,0.734527645,1,1,1,1,0.999952477,0.98729881,0.936092645,44.06646925,-93.533648,2016,MNH1
CG60/LH162,WIH2_2015,Y,18.75,806.4215491,0,0,218.5,109,65,64,3.126774188,2.655000041,4.103605878,5.336067251,1.868823528,3.142847566,3.066358713,6.463272165,3.426278957,96.92999983,15.93000025,53.58117651,186.0694135,5.435882344,36.03705852,132.4747064,52.80117733,103.4994124,19.63646212,20.57311455,21.5892617,21.07111177,18.36300238,19.20517036,18.54583572,13.68038168,11.37476292,15.6409678,24.97666677,26.11823115,28.09529077,27.51588227,27.91298604,26.4469062,23.95331443,17.63645543,3.355806466,13.62666686,13.88922494,15.17788174,17.2276475,16.92946091,13.73434519,12.63733902,6.343913375,5.370860554,11.93138906,12.65256426,14.04290221,14.43586033,14.57588984,12.76646014,11.49482956,7.023163717,0.588214292,1,1,1,1,0.979783322,0.914260835,0.715230077,43.3264485,-89.33359975,2015,WIH2
B73/PHM49,MOH2_2015,N,14.95,731.1212129,0,0,210,105,75,73.5,3.914838722,3.534545422,2.891676029,5.446623968,2.505882375,1.1137255,5.068586465,0.980448186,4.011119538,121.3600004,38.87999964,35.23176398,173.6929392,5.011764751,10.0235295,148.9223525,6.487058864,124.3447057,19.08701148,18.12534948,17.16717858,21.59629129,16.88945411,20.34516158,18.32895435,19.90608894,16.95494386,18.756129,18.24727275,23.87322904,29.02836507,30.59176479,31.93248319,30.27285599,28.73220747,28.34062618,6.152580692,8.059091026,15.30129973,17.80114352,21.94705907,21.39261428,20.17023127,17.40519331,17.20941189,7.288196993,7.58478923,12.05891064,15.51775091,18.26941193,18.66254873,17.2518739,15.21359182,14.97078901,0.75554147,0.814935086,1,1,1,1,1,1,38.89807917,-92.2079,2015,MOH2
F42/MO17,MOH1_2_2020,N,18.07142857,731.1212129,1.142857143,0.571428571,251.8571429,115.8571429,56.28571429,53.85714286,2.765624954,8.119999743,10.23533287,1.900197364,6.862941181,7.496322061,3.61617108,2.901626778,3.303786197,88.49999854,40.59999871,96.12411712,56.39411764,8.455882353,68.01117661,117.8082348,21.52705885,101.3270584,18.75466287,21.25211372,22.58999711,20.28617166,20.64270943,17.48834951,18.15902921,17.2011884,14.69335169,22.18656257,30.76999931,28.84882905,30.74339714,30.90558787,31.2308437,28.74780649,29.21697892,24.17436303,12.23093753,19.21800041,17.30516703,20.0610583,19.70343171,21.50444419,18.15153395,17.40346693,12.7162556,10.41798935,16.99399986,15.18178367,17.42227064,17.30450979,18.37429674,15.5665539,15.53509051,11.41105442,0.936383936,1,1,1,1,1,0.996694042,0.965786214,38.8958275,-92.2071575,2020,MOH1
B73/TX779,GAH2_2018,Y,17.25,751.072584,0.5,2,244,137.5,58.5,57.5,4.849677459,0.472857135,6.389842835,2.50728713,2.625000003,3.795198411,2.499668454,2.828785729,3.724124467,150.3400012,3.309999943,84.90856965,76.95785742,5.387857173,33.84785713,66.14142865,15.06428581,115.4478585,20.49558812,21.88511535,20.33298503,19.15998772,23.51626716,19.70790798,20.02489003,19.42019064,16.00793598,23.5748387,25.80428559,25.09824669,29.4338755,32.57678595,32.30446448,33.95531338,34.12885699,31.99587548,8.787742034,10.57714278,11.20780819,18.18961495,18.46904782,20.57888879,21.25284753,21.08492862,21.01629033,9.717543295,11.3392147,11.23425566,15.89113211,17.53376954,18.44167663,19.31882395,19.47290933,18.49284767,0.993778801,1,1,1,1,1,1,1,33.71560925,-83.30894675,2018,GAH2
B14A/MO17,MOH1_1_2018,N,14.83333333,731.1212129,0.333333333,2,196,79.66666667,61.33333333,57.33333333,4.419032262,0.120000001,6.56660792,4.995913726,0,0.865952386,4.867908623,7.318145406,3.629241153,136.9900001,0.840000004,71.60142667,150.6285707,0,7.793571472,145.6157139,39.85928573,112.0157138,18.39395777,18.46565301,20.1607481,20.70593221,19.87326009,21.97749135,18.06982858,17.46468943,16.31914076,19.5254839,22.76714298,27.16554273,29.60936822,31.6271427,32.32420578,29.51628185,29.85375934,27.04843165,7.99741943,14.14714282,16.43732974,18.81172612,21.79964249,20.71007941,19.44316189,19.21155699,15.91814144,7.992986492,11.1555316,14.00535673,16.26359619,18.7133926,18.51714259,16.54699664,16.60044059,13.86670431,0.872361758,1,1,1,1,1,1,0.995607144,38.89791675,-92.20952075,2018,MOH1
B37/OH43,ARH2_2018,N,13.775,731.1212129,1.5,2,163,72,64,60,4.523124937,5.877777735,3.202210455,3.225384198,0.461428574,5.0703967,1.707251537,1.546976178,1.915506911,144.739998,52.89999962,46.32285666,103.4992844,0.461428574,45.6335703,42.68714207,7.346428526,59.38071425,17.7541087,19.6455271,19.52097147,20.05684428,23.80737271,19.97823453,19.1297214,18.25489796,18.05597286,19.61875001,21.92000008,22.77345622,28.90718296,31.9800005,30.98396799,32.84130907,33.56595603,31.90391706,8.73406262,10.34777779,11.28771296,17.85430307,18.706429,19.75547635,22.48266054,23.2605133,21.25223495,8.305601359,9.423215554,10.22107903,15.52009327,17.35232514,17.37984482,19.61861005,20.2782542,18.53689778,0.857433028,1,0.994106717,0.995975764,1,1,1,1,35.674241,-90.0749725,2018,ARH2
W10001_0022/PHB47,ARH1_2016,N,14.9,812.2138826,0,2,159,89,67,63,12.62656226,6.052222146,7.859593922,4.411032368,3.769999921,0.095833332,1.834913509,2.950363528,2.931715563,404.0499923,54.46999931,101.1431819,160.496816,7.539999843,0.824999988,46.86636396,14.75181764,90.88318244,16.40757677,14.40289243,17.41332625,19.31399891,17.48165414,22.15918181,19.7781726,18.25208951,17.22596404,20.37124979,20.08666674,25.25253507,26.30445415,29.50681779,32.27019592,33.22074717,33.17606868,32.75999986,8.53968759,10.04999993,14.84655054,15.67568893,20.10318184,20.90335237,23.01320039,23.46584116,23.35664232,8.376579132,8.623890092,12.4075181,13.38568101,16.80499981,18.57005087,20.09384313,20.24603027,19.89808151,0.932198657,0.999841266,1,1,1,1,1,1,34.72952,-90.7603555,2016,ARH1
TX951/LH195,NYH3_2015,N,26.8,731.1212129,0,1.5,244,139.5,87,86,4.268387075,0,1.234803629,3.315485905,3.744705864,3.708743319,2.034738589,2.091907533,2.160160663,132.3199993,0,17.66999944,111.4647067,9.843529393,38.42352946,75.35117763,21.49235322,65.37235311,20.95885717,21.76160183,22.01003167,20.47654391,19.37507164,18.84800849,18.09954582,14.25866518,12.17165493,15.21516129,28.41399994,23.9726608,27.94852153,28.22411762,29.00645443,26.88612691,22.65429039,19.02039094,3.206451565,16.00799999,11.62235867,15.61032629,16.7502941,17.72633694,14.88804443,11.60832066,7.356588233,5.349626667,14.38734971,10.95773449,14.17183136,14.61937489,15.41213998,13.31670354,10.34569698,7.707711279,0.504331792,1,0.97267375,0.996219796,1,0.995345527,0.95775528,0.812032548,42.7233625,-76.6555945,2015,NYH3
PHW52/PHM49,NEH2_2018,Y,16.7,746.5674357,0,2,288,115,65,64,1.223548393,0.707272736,4.763911635,2.422660693,9.359230876,1.187769238,2.22139935,1.060615372,2.655643509,37.93000019,7.780000091,61.58923048,72.52538565,18.71846175,11.03461544,72.02230704,6.795384554,82.07230774,19.8632896,17.86074517,17.24350838,22.63499015,18.62862352,21.21286184,19.62237806,18.45252819,16.56870138,17.6919355,17.47909086,23.04657186,30.81178887,30.82346183,31.15499996,29.41523597,30.138927,26.57117624,3.026129,6.979090886,13.86801705,18.31582591,19.94076905,19.05673485,17.52505525,17.69200753,12.69636803,6.275299993,6.965919572,11.10889174,16.66188215,17.38211544,17.1119836,15.61857368,16.09025205,12.68735507,0.68033411,0.762240243,1,1,1,0.996687975,0.997695055,0.910447978,41.38042275,-96.55988375,2018,NEH2
W10001_0022/PHB47,MOH1_2015,N,13.75,731.1212129,0,5.5,215,90,73.5,70.5,3.914838722,3.002727248,2.7038834,5.646226268,2.268750012,1.183333344,4.736744086,1.740401796,3.666491943,121.3600004,33.02999973,34.41999933,178.8712478,5.868750036,10.6500001,140.2618746,11.88312507,113.6612502,18.81846694,18.88703156,16.92919735,21.70591481,15.72154266,19.94530069,18.47422179,20.12873028,17.02653892,18.28451609,18.00181831,23.77805456,28.93028285,29.85593748,31.76118019,30.42140763,28.58050013,28.43143147,5.857096827,7.500000065,15.21487777,17.6487962,21.67281234,21.45979159,20.28182538,17.09899995,17.28669369,7.068544315,7.302193139,11.97142579,15.39796361,17.76437491,18.61048589,17.380694,14.99182695,15.05317439,0.723283405,0.814935086,1,1,1,1,1,1,38.8965375,-92.20800417,2015,MOH1
F42/H95,ARH2_2018,N,15.5,731.1212129,0,2,191,99,69.5,66,4.523124937,5.877777735,3.202210455,3.225384198,0.461428574,5.0703967,1.707251537,1.546976178,1.915506911,144.739998,52.89999962,46.32285666,103.4992844,0.461428574,45.6335703,42.68714207,7.346428526,59.38071425,17.7541087,19.6455271,19.52097147,20.05684428,23.80737271,19.97823453,19.1297214,18.25489796,18.05597286,19.61875001,21.92000008,22.77345622,28.90718296,31.9800005,30.98396799,32.84130907,33.56595603,31.90391706,8.73406262,10.34777779,11.28771296,17.85430307,18.706429,19.75547635,22.48266054,23.2605133,21.25223495,8.305601359,9.423215554,10.22107903,15.52009327,17.35232514,17.37984482,19.61861005,20.2782542,18.53689778,0.857433028,1,0.994106717,0.995975764,1,1,1,1,35.674241,-90.0749725,2018,ARH2
B37/H95,SCH1_2019,N,14.05,731.1212129,0.5,2,213.36,83.82,57,61.5,3.522580645,3.026666641,1.832071666,3.15534991,1.497023807,2.439880971,1.838213127,1.715047598,2.162465429,109.2,18.15999985,19.94999987,97.87357193,2.846428582,21.92714303,50.9164284,9.481428444,67.0364283,18.2238054,19.24788825,19.83816148,19.9388592,17.79349522,20.88775084,19.93011295,20.19525604,17.6553152,24.08129043,27.55666669,26.86360264,30.30302253,30.15095266,31.81823454,32.87501498,31.84457125,32.33357145,10.7222581,15.88833332,14.78977791,18.33498627,20.49666657,19.48954379,21.18366564,19.1694286,20.16504603,10.62715993,13.88239503,13.27455789,16.3672742,17.32380961,17.64580353,19.00989067,17.48787314,18.15917061,0.967315668,1,1,1,1,1,1,1,34.62248225,-82.73756775,2019,SCH1
B73/PHM49,NYH3_2015,Y,24.35,731.1212129,1,2,243.5,135.5,81,81,4.268387075,0,1.234803629,3.315485905,3.744705864,3.708743319,2.034738589,2.091907533,2.160160663,132.3199993,0,17.66999944,111.4647067,9.843529393,38.42352946,75.35117763,21.49235322,65.37235311,20.95885717,21.76160183,22.01003167,20.47654391,19.37507164,18.84800849,18.09954582,14.25866518,12.17165493,15.21516129,28.41399994,23.9726608,27.94852153,28.22411762,29.00645443,26.88612691,22.65429039,19.02039094,3.206451565,16.00799999,11.62235867,15.61032629,16.7502941,17.72633694,14.88804443,11.60832066,7.356588233,5.349626667,14.38734971,10.95773449,14.17183136,14.61937489,15.41213998,13.31670354,10.34569698,7.707711279,0.504331792,1,0.97267375,0.996219796,1,0.995345527,0.95775528,0.812032548,42.7233625,-76.6555945,2015,NYH3
F42/H95,ONH1_2017,Y,33.75,641.0182465,0,4.5,265,145,81,81,4.42290319,4.904999876,1.545173221,3.420435244,1.695375006,2.594700004,1.855534774,1.54565171,2.383111348,137.1099989,49.04999876,23.52600009,140.8034994,5.378000009,36.46150006,95.23350107,29.85300009,72.44250006,18.65662235,17.08545341,23.10813164,20.12586768,18.11232318,19.44819915,16.33652997,11.62209215,7.957733996,13.94322577,18.20700026,22.35689536,24.80045755,25.17183321,25.2296929,22.79396283,22.13957367,13.29532023,3.578387066,9.706999969,10.10387851,14.12185296,14.82349991,13.63261195,10.3904862,9.847475595,3.166289439,4.958212412,8.025894563,9.659097931,11.97096233,12.35740613,11.98311106,9.953455995,10.0654016,5.273375752,0.439723498,0.877642858,1,1,1,0.972410901,0.840292505,0.515578473,43.49546,-80.42596875,2017,ONH1
B14A/MO17,TXH1_2016,N,10,674.4850626,0,2,209.5,81.5,71,71,1.633666698,16.13999993,0.99702422,4.719865603,0.129393939,3.277272727,13.06232457,0.703636358,1.017125621,49.01000094,112.9799995,14.5313639,177.3549991,0.33090909,36.05,378.0672674,3.179999969,30.53454577,13.9726292,10.72874144,17.88940951,17.80076093,20.55685321,19.77792414,17.90480363,20.8338604,20.14326093,22.32500016,23.95000022,24.48309256,26.40498513,28.5388636,28.63545455,30.12870319,34.35404525,35.58838723,6.034666632,13.33571414,9.675379644,13.12758779,15.78530267,16.33764454,20.13902853,23.08186362,24.00118421,8.473379033,11.29783551,10.5045992,12.46111665,14.43681279,14.72204148,17.12368238,20.53225114,20.87599038,0.915869048,1,0.972225207,1,1,1,1,1,30.54708625,-96.43393475,2016,TXH1
PHG39/PHN82,DEH1_2016,Y,21.1,740.1315095,1,21.5,264,130.5,76,75,2.701875035,7.431818214,3.891344367,3.01543569,5.358105985,2.453055546,7.028031294,2.624318106,3.1968602,86.46000111,81.75000036,66.39499953,101.6163622,13.33454524,24.02227264,188.3231781,15.05272682,98.58045408,18.33047433,10.1000462,19.40971708,21.02938559,18.25055452,17.64652011,18.94468483,17.7865103,16.44449792,18.09,16.60090897,19.90208421,27.67646738,27.79681775,28.9030859,31.91379825,31.21812112,30.57169607,5.529687506,9.93090907,10.11289786,16.8589893,18.02106052,19.78800518,21.90881045,21.62957593,20.16127331,6.825577378,7.645605865,8.606637786,14.43603228,14.98401645,16.37610101,18.85541374,18.37748956,17.3477875,0.726328134,0.729318176,0.990929859,1,1,1,1,1,38.6482025,-75.44606,2016,DEH1
PHW52/PHM49,MOH1_2016,N,16.9,731.1212129,0,2,227.5,102.5,60,58.5,2.465483877,8.058000231,0.264259377,6.282521268,1.94553035,9.25680559,4.358907121,3.354664451,5.453130527,76.43000019,40.29000115,2.879999995,172.8372758,4.262727369,83.20363667,125.2090916,21.13363606,168.2240918,20.2309363,16.93509369,22.49829557,20.20959989,18.68177986,19.21408964,18.0090922,17.17714413,15.87534947,21.83193548,27.56600037,27.88644765,31.21215235,30.25795442,31.2505745,30.57423065,29.80077912,28.25339236,10.073871,16.74400005,16.26474463,19.86215984,19.98371223,20.49117413,20.76153791,19.91431794,17.56318368,9.497798547,14.24343349,14.21296425,17.47336946,17.12232598,17.8699151,17.65104862,16.90998551,15.09561117,0.937315665,1,1,1,1,1,1,0.999442641,38.8955475,-92.2072025,2016,MOH1
PHG39/PHN82,GAH2_2018,Y,14.35,758.7956954,0,2,225.5,93.5,56,55,4.849677459,0.472857135,6.389842835,2.50728713,2.625000003,3.795198411,2.499668454,2.828785729,3.724124467,150.3400012,3.309999943,84.90856965,76.95785742,5.387857173,33.84785713,66.14142865,15.06428581,115.4478585,20.49558812,21.88511535,20.33298503,19.15998772,23.51626716,19.70790798,20.02489003,19.42019064,16.00793598,23.5748387,25.80428559,25.09824669,29.4338755,32.57678595,32.30446448,33.95531338,34.12885699,31.99587548,8.787742034,10.57714278,11.20780819,18.18961495,18.46904782,20.57888879,21.25284753,21.08492862,21.01629033,9.717543295,11.3392147,11.23425566,15.89113211,17.53376954,18.44167663,19.31882395,19.47290933,18.49284767,0.993778801,1,1,1,1,1,1,1,33.71560925,-83.30894675,2018,GAH2
B73/PHM49,NEH3_2017,N,25.15,742.0622874,26,2,199.5,106.5,65,64,6.03471326,3.955444498,0.18882913,3.842009577,1.316296295,1.435570981,2.764433094,3.912023778,4.15136979,187.076111,38.21611161,1.987222274,117.8244439,3.948888885,12.8655555,93.99333183,27.38611089,126.3194449,18.53150537,21.70326166,24.15860034,20.80931081,18.66603313,19.02487726,18.75887595,17.51813417,15.15718003,20.20137986,23.21257118,30.13389904,30.13339279,32.06462927,32.76776237,28.39622898,27.87449379,27.0242909,7.908297486,10.26215086,15.17879712,16.87891665,20.62425956,20.98993062,16.95054818,15.08081369,13.75654417,8.47748899,10.0955543,14.95078719,15.67969265,18.3413362,18.75248222,14.77642402,13.79312874,13.00111339,0.783510626,0.953819441,1,1,1,1,1,0.993105158,41.162,-96.409,2017,NEH3
2369/LH123HT,TXH2_2019,Y,11.89,805.0635686,0,0,222.5,72.5,70,70,1.71448275,0.072857141,3.656594302,9.095434564,0.409285716,1.207678571,5.355850783,1.246142852,1.574419343,49.71999974,0.50999999,52.00785631,328.2121388,0.592857139,9.661428571,146.4478573,6.531428533,47.51499965,15.42805705,20.52131135,18.76898834,18.57032559,21.42349659,18.85281525,20.14881361,21.03072751,19.84089234,18.45000007,25.76428577,24.43254944,27.27586732,31.09000002,32.37866099,32.72435205,34.04471448,34.98200776,6.826206914,10.35000004,10.67963154,14.78766739,18.65857179,21.85071427,21.02442735,21.79614282,22.6049739,7.457816468,11.1589152,10.85119479,13.46630403,16.91193677,19.11412105,18.84765314,19.77807102,20.01419559,0.749667494,1,0.945308164,1,1,1,1,0.999698925,30.546318,-96.4329965,2019,TXH2
B37/H95,INH1_2016,N,21.9,716.3185827,59,7.5,279,151.5,66.5,65,3.034516148,1.382857186,3.106568823,3.966270256,3.500454469,6.752636371,3.451172643,3.198528118,3.024422797,94.07000059,9.680000305,31.26000059,138.8759105,3.500454469,67.52636371,113.8927274,21.6654544,92.62590972,17.63328649,23.97511796,20.66441577,20.1236558,19.9706746,19.39149484,18.14527656,15.98533716,14.62820237,18.74516109,26.31142807,27.84898846,28.12893417,28.20272714,29.14504538,29.16779001,27.95564941,27.07739093,7.950322636,11.69428553,16.31817922,16.10606538,16.8522731,18.34872752,18.58889605,17.50284626,15.03841012,7.677100472,11.91689015,14.24288378,14.4184555,14.68521604,15.7994256,15.9329094,14.92238151,13.51734692,0.852649763,1,1,1,1,1,1,0.996102814,40.4787595,-86.98982,2016,INH1
F42/H95,MNH1_2020,N,20.2,731.7648055,0,1,234.5,115.5,67,66,0.943005099,6.546073051,4.140359128,4.707487639,0.452236841,2.543512757,5.928901117,4.270615044,2.501087783,29.23315806,64.90105435,50.61684199,155.384737,0.714736844,28.61736839,219.2994748,34.34473765,76.93105461,20.83516212,15.73399946,19.74828467,20.97522671,19.78574355,20.20086134,18.41063051,15.8353279,12.84776632,15.708455,18.53155205,25.82840423,28.49526052,29.92499944,28.21992409,26.52185226,25.93987928,19.74067922,2.261239378,9.186207707,13.99244036,16.68286788,19.34447405,16.90528318,15.09377646,14.30914312,8.593217323,5.370680578,7.953384306,12.46596379,14.77865871,16.66236577,14.75116185,13.25288188,13.01752467,8.666130292,0.622613994,0.838417993,1,1,1,0.988450437,0.93066422,0.780758993,44.06907839,-93.53263028,2020,MNH1
PHW52/PHN82,IAH2_2019,Y,21.4,727.9032498,0.5,1,257.5,130,65,64,1.624999978,4.994666719,7.633826981,4.023414549,10.53523836,1.22350002,2.763567443,7.261517829,4.773321835,51.99999928,74.92000079,126.7292866,144.3807149,31.60571507,12.2350002,103.2057142,58.23357121,145.3535721,19.40078695,15.59915857,17.73377221,20.37141966,18.69170743,21.11460887,19.04896103,16.46108124,13.94542613,15.78031255,14.78666655,21.30773964,26.90560141,30.4667857,29.3667858,27.70213024,26.0789087,24.69893011,1.823749996,4.276000045,9.222208134,15.06467224,19.71440506,18.17542877,16.74212177,15.32632928,13.45358666,5.188982368,5.371381143,9.150668224,13.41851256,17.10626668,15.79657396,14.44283917,13.04517908,11.92357614,0.546495539,0.532857125,0.866155154,0.998157434,1,1,1,0.956872449,42.06583499,-94.72067796,2019,IAH2
PB80/PHZ51,MOH2_2015,N,14.46666667,731.1212129,0,10,235,111.6666667,73.33333333,71,3.914838722,3.534545422,2.891676029,5.446623968,2.505882375,1.1137255,5.068586465,0.980448186,4.011119538,121.3600004,38.87999964,35.23176398,173.6929392,5.011764751,10.0235295,148.9223525,6.487058864,124.3447057,19.08701148,18.12534948,17.16717858,21.59629129,16.88945411,20.34516158,18.32895435,19.90608894,16.95494386,18.756129,18.24727275,23.87322904,29.02836507,30.59176479,31.93248319,30.27285599,28.73220747,28.34062618,6.152580692,8.059091026,15.30129973,17.80114352,21.94705907,21.39261428,20.17023127,17.40519331,17.20941189,7.288196993,7.58478923,12.05891064,15.51775091,18.26941193,18.66254873,17.2518739,15.21359182,14.97078901,0.75554147,0.814935086,1,1,1,1,1,1,38.89807917,-92.2079,2015,MOH2
CG60/LH162,NEH1_2015,N,14.45,790.9753262,0,2,185,100,65,50,2.959062506,0.753999996,4.745632833,2.187040691,0.179999996,3.601448917,1.548000793,0.057812502,1.589214364,94.69000018,3.769999981,46.84999943,63.50812512,0.239999995,39.12187557,55.49499987,0.586250016,47.85812447,19.07194562,25.84699936,20.00593662,19.96245842,20.96463704,17.86296284,18.31175333,17.30405645,12.3794141,23.74906254,30.51399994,29.13009987,30.74148671,30.73750019,28.43858622,29.13031746,26.88374984,20.12342532,13.19218739,15.46999989,18.04036499,19.18092822,19.11281252,17.33248289,15.92131484,11.1533021,6.525200269,11.64481375,15.25955733,15.68336601,16.96891106,16.93845514,15.07345461,14.95183393,12.01070089,8.15887847,0.924598212,1,1,1,1,0.96969665,0.982957588,0.758540943,41.290979,-96.41664325,2015,NEH1
LH195/PHZ51,NEH2_2015,N,16,748.8200098,0,0,229,110,97.25,96.5,1.358750008,3.755999994,3.031264216,1.286090902,0.286666671,1.657187527,3.751759362,0.157499999,0.616713691,43.48000026,37.55999994,66.29000026,43.49999976,0.860000014,16.57187527,117.6431233,0.944999993,18.99062441,19.53783247,19.98656282,18.8528682,23.65152674,23.21232343,22.7312118,19.62767813,21.61948185,18.20728239,15.03874992,23.15200024,18.66927583,30.14561768,32.37510385,32.60862507,30.36489819,32.31320816,28.31448706,-2.426562488,5.230999994,5.264051067,13.5723423,16.5714581,16.13087479,15.9646131,15.56819047,11.19634675,4.192485347,8.478296732,6.894904354,14.37610508,16.560328,16.47008009,15.3434088,16.05261291,12.83173005,0.519497764,0.97653572,0.809891265,1,1,1,1,0.922021698,41.0514495,-100.7471915,2015,NEH2
CG119/CG108,MNH1_2020,N,15.25,736.2699538,0.5,0,204.5,99,60,59,0.943005099,6.546073051,4.140359128,4.707487639,0.452236841,2.543512757,5.928901117,4.270615044,2.501087783,29.23315806,64.90105435,50.61684199,155.384737,0.714736844,28.61736839,219.2994748,34.34473765,76.93105461,20.83516212,15.73399946,19.74828467,20.97522671,19.78574355,20.20086134,18.41063051,15.8353279,12.84776632,15.708455,18.53155205,25.82840423,28.49526052,29.92499944,28.21992409,26.52185226,25.93987928,19.74067922,2.261239378,9.186207707,13.99244036,16.68286788,19.34447405,16.90528318,15.09377646,14.30914312,8.593217323,5.370680578,7.953384306,12.46596379,14.77865871,16.66236577,14.75116185,13.25288188,13.01752467,8.666130292,0.622613994,0.838417993,1,1,1,0.988450437,0.93066422,0.780758993,44.06907839,-93.53263028,2020,MNH1
B73/MO17,NYH2_2016,N,18.45,731.1212129,1.5,2,195,97,79.5,75,2.034516133,1.030000001,1.88805842,0.867300396,1.140952366,2.326450204,3.376451109,4.287746575,3.208572451,63.07000011,12.36000001,22.4085716,34.4438095,2.622857094,25.59095225,116.65619,31.75809508,97.82571426,19.21240982,23.35584625,23.40556822,22.17883586,23.94456446,21.25361649,17.18897092,16.17245816,13.35906413,14.04935483,18.68749992,27.50851283,26.23633728,28.78071431,29.31692664,28.41638555,26.44500865,23.15297547,1.686774175,4.439999988,12.92699036,12.85534504,13.89476193,15.65588736,16.863818,13.58818034,10.55762265,4.511298309,6.607155497,12.88765676,12.33330427,13.7996272,14.74166699,14.82295673,12.66050813,10.26842414,0.447315667,0.804761906,0.999400038,0.994542932,1,0.999880088,0.994843294,0.949842165,42.726117,-76.655339,2016,NYH2
PHN11_PHW65_0323/LH195,TXH1_2016,N,10.95,729.190435,0,2,217,79,73,73,1.633666698,16.13999993,0.99702422,4.719865603,0.129393939,3.277272727,13.06232457,0.703636358,1.017125621,49.01000094,112.9799995,14.5313639,177.3549991,0.33090909,36.05,378.0672674,3.179999969,30.53454577,13.9726292,10.72874144,17.88940951,17.80076093,20.55685321,19.77792414,17.90480363,20.8338604,20.14326093,22.32500016,23.95000022,24.48309256,26.40498513,28.5388636,28.63545455,30.12870319,34.35404525,35.58838723,6.034666632,13.33571414,9.675379644,13.12758779,15.78530267,16.33764454,20.13902853,23.08186362,24.00118421,8.473379033,11.29783551,10.5045992,12.46111665,14.43681279,14.72204148,17.12368238,20.53225114,20.87599038,0.915869048,1,0.972225207,1,1,1,1,1,30.54708625,-96.43393475,2016,TXH1
F42/H95,IAH4_2017,Y,17.7,731.1212129,0,2,229,110,65,64,3.054193612,4.63857133,5.654282844,2.356146022,0.145000003,0.823262634,3.029939984,2.506485397,3.022032747,94.68000197,32.46999931,92.55000019,79.81000018,0.290000005,7.931363713,110.0431818,17.65818187,91.79227275,19.60434628,22.37855189,18.81628808,21.46940114,22.42332305,21.26952374,19.1513695,15.94205759,15.34138578,17.83935482,25.21428544,21.76755785,28.88340452,30.88984893,30.99338411,28.30609907,26.26622464,25.93438806,4.952580655,10.13999993,10.24708413,15.02150207,17.47128796,18.07608078,15.80662465,13.87026602,12.51354651,6.575243948,10.82301274,9.649960621,14.3656457,16.22810104,16.57398155,14.36597852,12.57546566,12.06214068,0.727396317,1,0.910082199,1,1,1,1,0.987168831,41.99455432,-93.69030947,2017,IAH4
B73/PHZ51,ARH1_2016,N,16.35,793.5496967,0,2,198.5,114.5,71,69,12.62656226,6.052222146,7.859593922,4.411032368,3.769999921,0.095833332,1.834913509,2.950363528,2.931715563,404.0499923,54.46999931,101.1431819,160.496816,7.539999843,0.824999988,46.86636396,14.75181764,90.88318244,16.40757677,14.40289243,17.41332625,19.31399891,17.48165414,22.15918181,19.7781726,18.25208951,17.22596404,20.37124979,20.08666674,25.25253507,26.30445415,29.50681779,32.27019592,33.22074717,33.17606868,32.75999986,8.53968759,10.04999993,14.84655054,15.67568893,20.10318184,20.90335237,23.01320039,23.46584116,23.35664232,8.376579132,8.623890092,12.4075181,13.38568101,16.80499981,18.57005087,20.09384313,20.24603027,19.89808151,0.932198657,0.999841266,1,1,1,1,1,1,34.72952,-90.7603555,2016,ARH1
F42/H95,MOH1_2_2020,N,16.32,731.1212129,0,0,229.2,101.4,55,54,2.765624954,8.119999743,10.23533287,1.900197364,6.862941181,7.496322061,3.61617108,2.901626778,3.303786197,88.49999854,40.59999871,96.12411712,56.39411764,8.455882353,68.01117661,117.8082348,21.52705885,101.3270584,18.75466287,21.25211372,22.58999711,20.28617166,20.64270943,17.48834951,18.15902921,17.2011884,14.69335169,22.18656257,30.76999931,28.84882905,30.74339714,30.90558787,31.2308437,28.74780649,29.21697892,24.17436303,12.23093753,19.21800041,17.30516703,20.0610583,19.70343171,21.50444419,18.15153395,17.40346693,12.7162556,10.41798935,16.99399986,15.18178367,17.42227064,17.30450979,18.37429674,15.5665539,15.53509051,11.41105442,0.936383936,1,1,1,1,1,0.996694042,0.965786214,38.8958275,-92.2071575,2020,MOH1
PHG80/PHZ51,ONH2_2016,Y,20.15,713.1006196,0,1.5,240.5,105,74,69.5,1.435483875,1.740833327,1.463802716,3.022687524,0.150999999,1.134659085,3.046446673,1.693503778,2.765116665,44.50000012,20.88999993,18.84600039,117.1590009,0.150999999,12.25349994,101.0444998,13.16149993,84.26899996,19.72563927,22.19747464,21.68954048,21.77365896,18.98664827,19.92678304,16.69906166,15.68152671,12.9072029,14.10741935,17.58083336,26.00758685,26.04894451,27.78099985,28.79287246,28.2480382,25.9224786,23.75348014,4.257419363,7.13166666,15.03828811,14.1477789,17.72699971,17.33924119,18.24672102,15.95494667,14.17526013,5.131346137,6.986841243,12.85116395,12.65171997,14.84296497,15.26027205,15.31782021,13.26534606,11.67621189,0.511244241,0.799851209,1,1,1,1,1,0.975829282,42.4530035,-81.88279875,2016,ONH2
F42/H95,WIH2_2019,N,27.25,651.6375247,0,0,254.5833333,126.25,67.75,67.75,5.084687524,1.186666648,3.682690384,5.868440751,0.695238091,4.73009737,4.315774648,4.395502279,4.547947068,162.7100008,7.119999886,58.08928529,183.8007161,1.222857135,55.05428533,207.5435701,59.53000056,136.8792876,20.51840827,23.10255337,19.84622659,19.54978709,22.13574316,19.04821964,14.90817086,12.98397937,9.337872891,18.93468753,26.85500018,22.80729416,28.92841129,27.86750015,27.53142967,23.33864799,22.30785619,12.19546616,7.173437506,12.79833317,11.75963315,17.3057567,14.67845241,15.42498763,12.56161555,11.34993986,2.687473085,7.568173943,12.44054354,10.32084191,15.24419851,13.63574066,13.78240318,10.8770868,10.55092288,4.713570865,0.808549105,1,0.995612408,1,1,0.966295589,0.875965566,0.450550638,43.320768,-89.33189475,2019,WIH2
TX777/LH195,TXH3_2019,Y,11.265,822.1573885,0,0,215.5,79,67,66.5,1.71448275,0.072857141,3.656594302,9.095434564,0.409285716,1.207678571,5.355850783,1.246142852,1.574419343,49.71999974,0.50999999,52.00785631,328.2121388,0.592857139,9.661428571,146.4478573,6.531428533,47.51499965,15.42805705,20.52131135,18.76898834,18.57032559,21.42349659,18.85281525,20.14881361,21.03072751,19.84089234,18.45000007,25.76428577,24.43254944,27.27586732,31.09000002,32.37866099,32.72435205,34.04471448,34.98200776,6.826206914,10.35000004,10.67963154,14.78766739,18.65857179,21.85071427,21.02442735,21.79614282,22.6049739,7.457816468,11.1589152,10.85119479,13.46630403,16.91193677,19.11412105,18.84765314,19.77807102,20.01419559,0.749667494,1,0.945308164,1,1,1,1,0.999698925,30.546318,-96.4329965,2019,TXH3
B73/MO17,KSH1_2018,N,15.525,774.5637145,19.75,6.25,229,110,65,64,0.123225804,1.309000027,2.835063753,1.245921432,6.190769489,0.847777789,5.121826591,3.691923017,0.576771715,3.819999933,13.09000027,33.35999966,37.39923182,6.190769489,7.630000105,140.8584615,22.1515381,17.82230777,23.1370286,19.20606413,23.76917973,25.01946837,21.72317813,23.99633906,18.76579115,18.12170014,19.24157322,22.75709664,20.771,27.08892973,34.13484851,36.79923102,35.27700868,33.17677556,30.51957897,31.48973893,3.915806478,6.778999925,10.75682887,16.60383588,18.26846137,18.37008543,18.87125761,16.15291204,15.043086,8.255034949,8.267600828,11.90551203,16.73972083,17.84021903,17.73256873,17.54545708,15.43757555,15.43621363,0.847615199,0.789999991,1,1,1,1,1,0.970122947,37.810107,-100.775188,2018,KSH1
B14A/MO17,NYH3_2018,N,22.135,754.6767026,0,19,176.5,81,77,74.5,4.152903213,0.855714253,1.333281551,1.973054112,19.58384622,4.14286014,1.827699262,3.76173812,1.90156246,128.7399996,5.989999771,17.49230713,69.9676929,40.09153858,44.76538462,69.41461665,34.65000019,57.30153882,20.64383799,23.73438372,20.91517994,21.34827616,15.57480097,18.28181198,18.59806785,13.9987834,13.21485935,12.82806446,24.72714315,24.74142799,27.59651287,28.68307664,28.50629367,27.06434367,24.34345721,20.06623908,1.452258048,10.48999977,13.10088293,14.82547593,19.13846159,17.45270631,15.13507682,13.07327349,8.10410419,4.113027627,10.74522894,11.82730489,13.73068126,15.93834835,15.05075648,13.50240047,11.64767513,8.352187515,0.351670502,1,0.973040659,0.995029228,1,0.992439429,0.946636381,0.843044516,42.7261605,-76.6556765,2018,NYH3
TX714/PHZ51,IAH2_2017,Y,17.7,731.1212129,0,2,229,110,65,64,2.991935476,4.003749907,5.594154361,1.824159742,2.965909053,1.138616173,3.544395797,5.525860929,3.224964342,92.74999976,32.02999926,86.83999968,64.74363607,5.880909015,11.03545466,133.6850016,39.36636487,98.02272796,18.91811151,22.03083944,18.39067038,21.91300981,21.59707026,21.00058551,18.76246256,16.50136756,14.56336975,16.70258062,25.25375009,21.16444029,28.78792803,31.34295403,31.03890899,27.79230679,26.54138994,25.01808603,3.836129038,9.060000002,9.836484062,14.72352594,17.1804546,18.00485339,15.61890002,13.9478747,12.25710857,5.884356407,10.52058178,9.325556586,14.19611432,16.29393371,16.57150033,14.05801276,12.73803514,11.57992501,0.659274195,1,0.882113053,1,1,1,1,0.976890029,42.06582876,-94.72050129,2017,IAH2
TX951/LH195,WIH2_2016,Y,32.7,832.8088463,0,5,277,142.5,70,68.5,2.185483832,6.563333432,3.447094458,4.124693788,6.707159024,6.158880111,5.945293137,1.654273513,4.758742445,67.74999878,39.38000059,44.45545418,149.2718189,18.91272705,63.86318129,228.7613642,17.11772738,143.1609097,20.07161814,17.64681498,20.48120554,20.03716075,21.00097141,18.73971629,16.31911952,14.94670844,10.3303759,18.34677419,27.65666644,25.59626749,27.3504729,29.44640147,29.15349181,26.70938079,24.21329019,20.37268081,4.840000014,15.2516667,12.43660419,15.21846351,16.18390156,17.81047537,15.29826924,12.0891497,9.537770322,6.76617685,13.67923016,11.77429452,13.6256578,15.0809804,15.56950508,13.35737665,11.10536848,8.849967039,0.729688939,1,1,1,1,0.998061418,0.979766622,0.886131912,43.32649075,-89.33882925,2016,WIH2
PHW52/PHM49,INH1_2019,Y,27.57,873.7413368,0,2,222.75,111.75,64,62.5,4.638124973,1.291666667,4.254883356,1.873002707,7.542143106,0.579848493,2.745608418,1.194209184,2.037834084,148.4199991,7.75,53.11714339,53.83785783,14.64785763,6.669285808,98.22214476,12.45785718,61.58714233,19.82387961,19.183822,19.33565513,20.5079362,16.64856858,22.30931036,17.46113557,15.79330395,12.43542766,23.34687504,26.15000025,24.44131608,31.06458042,27.9682139,28.43625549,27.60941131,25.59340811,22.91422815,11.29093746,15.88166634,14.27159151,19.40569109,18.2715475,15.1189393,15.69895629,13.38685715,10.33005226,10.62626718,13.2428989,11.86638398,17.27971266,15.26406297,14.09359416,13.93027737,12.23653025,10.46761426,0.918526784,1,1,1,1,0.999060374,0.966691327,0.86252861,40.477063,-87.00020175,2019,INH1
PHW52/PHN82,TXH1_2015,N,13.55,756.2213249,0,2,176.5,67.5,72,69.5,2.435333351,0.886666695,4.529386736,2.992210444,0,5.407499953,3.236240411,4.528416659,2.205666663,73.06000052,5.320000172,54.16999972,113.7899998,0,59.48249948,89.11249819,24.54499996,66.1699999,13.38128519,15.80308406,13.73749678,19.48289484,22.46598899,19.96463979,19.54848583,19.57031498,18.03135075,19.61999995,26.26833312,25.8489028,26.4780255,30.37177098,28.79539756,31.9014052,33.48070828,34.35516661,6.122333375,12.74499997,15.39155332,13.69439061,15.83385423,15.9580683,20.41172374,21.45270844,23.93220836,7.516768444,12.28221354,13.06030889,12.7550996,15.35592881,14.67426974,18.11040569,19.30603111,20.37775841,0.822428569,1,0.992325397,0.994092815,1,1,1,0.999431249,30.54708625,-96.43393475,2015,TXH1
F42/OH43,NYH3_2020,Y,14.6,714.3878048,0,12.5,246.5,117.5,66,64.5,4.422257993,0,1.373865683,3.203515064,6.161458224,3.578657229,2.247619776,1.339995863,2.270768823,137.0899978,0,18.69000064,113.6731244,12.19749978,37.86125033,87.74812532,17.041875,68.54562519,20.94560956,21.78233427,21.55267425,20.63825651,19.18147684,18.87690393,17.75633085,13.93943947,11.5316014,14.59225801,27.97729172,23.60945411,27.89842024,28.17958339,28.76829368,26.51617347,21.47489044,18.12990527,2.644717742,15.68266662,11.3508871,15.53912014,16.43281273,17.50013456,14.53010818,10.52921434,6.891416056,5.000434995,14.04753459,10.70035646,14.11697706,14.42792892,15.19886376,13.03509367,9.604727821,7.356101809,0.471947005,1,0.969562211,0.99553941,1,0.989555914,0.903066166,0.764418635,42.73227475,-76.6513705,2020,NYH3
B73/MO17,ILH1_2016,N,14.15,720.1801384,0,2,240,121.5,71.5,70,2.976905237,4.388409027,2.266536067,5.61207631,2.384848472,3.596551307,3.312350719,4.357499975,4.793790319,93.71999985,46.35499933,33.46068128,180.4177266,4.628863606,41.73386359,104.1413657,28.32431801,148.2020453,18.82488241,16.77241452,21.32061235,20.18653607,20.74234538,18.07981042,18.8666989,17.85818253,16.07680721,18.05081144,19.20204525,23.0422997,29.42292662,27.90308728,26.97317812,29.60218573,29.15938829,28.17592877,4.960040295,8.531272602,10.4507586,17.10049505,15.99717794,16.84881478,19.41054858,18.84383108,17.09740687,6.781235125,7.969267807,10.17119166,15.41614171,14.29579798,14.15384892,16.51995977,16.04951253,14.84458937,0.666766271,0.897956159,0.946860721,1,1,1,1,0.999883117,40.0607245,-88.2338815,2016,ILH1
B14A/H95,MIH1_2019,N,16.6,753.6469545,6,3,160.25,69.25,62.5,56.5,3.720322615,6.189999878,7.0818969,2.961916884,8.70871786,0.913986013,1.817216317,4.468053866,4.013250907,115.3300011,49.51999903,106.8900002,93.8269235,16.81999984,10.80615383,84.36076873,63.3192304,120.886153,19.31986936,19.65939665,18.51979106,21.00444556,17.01540622,20.04742627,16.96863927,12.02893287,10.87568864,17.60709666,21.67250037,22.690749,28.9340566,30.56538516,27.94921954,26.00654686,21.50260694,17.46530245,6.210322559,10.31875008,12.21847794,16.86604701,18.743333,15.85306519,14.00590995,11.32576155,7.161163464,6.876773896,9.314382636,10.39761731,15.10453275,16.86261297,14.19391073,12.58553183,10.00606366,7.511656803,0.696382483,1,0.995173883,1,1,0.988904737,0.895422602,0.709438731,42.70789125,-84.4706665,2019,MIH1
B73/PHZ51,KSH1_2016,N,14.63333333,772.7402021,0,2,185,75,87.33333333,87.33333333,0.381562503,5.593749881,9.031136959,3.981909994,0,0.897724769,5.011421387,3.322424253,5.670073263,12.2100001,44.74999905,140.9509078,148.5090918,0,8.374091108,139.438637,19.93454552,175.7722711,18.43315426,14.04582843,18.34613738,20.88446512,22.70328743,20.59441801,18.34986672,18.15379387,17.32510191,19.15124996,21.70124984,22.33901244,27.19377063,36.31272689,35.17540036,32.01078432,33.85633352,30.76895891,2.130625044,11.46499991,9.568238579,14.2621368,21.58727247,22.04353923,20.78061301,22.71134866,19.49139311,6.3158573,9.667291017,9.626890379,13.35418843,19.56599107,19.14397536,18.06824645,19.12054732,17.03744615,0.741573662,1,0.921279778,0.986042268,0.991287871,0.998977631,0.993550002,1,39.14480675,-96.62898225,2016,KSH1
B37/H95,NYH2_2019,Y,21.66,703.8328859,2.3,3.9,240.2,129.2,70.8,70.4,3.722580618,3.873333404,3.775457026,3.802397661,4.637142726,4.204990808,3.398979968,2.823191607,3.703221173,115.3999992,34.86000064,60.3757139,137.1514286,9.274285453,51.14714244,162.2557133,52.58999984,112.9585706,17.9818517,20.79040337,20.47381334,20.12131004,17.75572211,20.43491569,15.89805393,11.9646884,8.550151526,16.21290321,21.91111098,21.50181499,26.85703989,26.63857151,27.37846155,23.54873757,18.10625893,13.03721199,5.322258069,10.30000003,10.29481231,15.55148496,16.86547597,15.01097073,12.10049902,6.865122249,3.164741908,6.134411308,9.414033746,9.284856483,13.53502553,13.97316997,13.53140509,10.78045964,7.367712917,4.9030616,0.665391704,1,0.983534167,1,1,0.983842121,0.777563161,0.485846779,42.73221403,-76.65248675,2019,NYH2
B14A/OH43,SDH1_2015,N,26.65,620.4232827,0,0.5,149.5,90,78.5,75,1.890000034,2.68444448,2.847212523,0.928406021,1.08916667,1.213193166,1.12388612,3.994558873,0.570569385,58.59000105,24.16000032,33.86000057,31.14874977,1.720000006,12.77624983,39.02562428,27.90249949,17.65812508,21.16446504,23.3864585,24.03054242,23.94878495,21.74335716,21.42490048,20.60212775,16.27746828,15.18579983,19.04290341,22.5888888,27.20826416,30.46229654,29.54760476,31.86073879,31.47770382,29.48664523,24.89733582,4.208709664,8.468888919,11.69082143,14.25969647,14.29062517,16.06534098,14.02269822,14.11578116,6.942900096,6.807516906,9.210660666,12.27390437,14.67606113,14.18888263,15.81431879,15.00552731,14.17539039,9.834808296,0.77025346,0.983690483,1,1,1,0.983472358,0.961069402,0.950039755,44.208745,-102.928745,2015,SDH1
LH195/LH82,ONH1_2015,Y,35.25,704.090323,0,0,237.5,122.5,88.5,89,1.605625002,2.296315821,1.411426091,1.973297954,0.512941169,3.436769168,2.641035405,1.799953816,2.360571209,51.38000005,43.63000059,20.30117703,73.50294104,0.81882352,40.73352947,103.9364728,19.58470627,71.14882509,18.02169462,20.4737019,23.34007091,22.64543997,20.24065375,18.07254412,18.60447299,14.22755231,12.21920895,9.771562532,12.63473691,23.7578119,26.83441686,29.90941261,27.46928249,26.11972075,22.82201755,18.35250846,-0.327500018,2.045263152,11.01347606,13.31919887,17.43313718,16.50329302,14.06775752,11.69572195,7.013714688,2.851211725,4.201400589,10.67713105,12.77399982,15.76589753,14.15032606,12.63577386,10.48249806,7.379159901,0.167098218,0.403345874,0.957007131,0.991950294,1,0.994472794,0.939113043,0.772366561,43.49741975,-80.44806025,2015,ONH1
LH195/PHZ51,NEH3_2015,N,15.2,757.8303065,0,0,229,110,64.25,63.75,3.231250057,0.918000031,0.565093977,1.286692195,3.19749999,1.391136354,0.258061221,1.474667183,0.155891338,103.4000018,4.590000153,6.150000095,39.04749978,4.720000029,15.30249989,11.17999983,14.52874985,4.648125023,21.79127574,25.69442635,22.86725485,21.82271665,15.26317632,20.59079,20.06412842,16.27968968,13.53861776,24.28750017,32.64599991,30.58771447,32.67731329,28.91593772,29.87238656,30.80707127,25.39031645,21.32018275,9.278749934,13.0079998,13.8828633,15.7826582,17.05531204,14.62710229,13.18313307,8.87540479,3.334017086,10.46257825,15.28330691,14.45465852,16.22005678,15.0938879,14.496454,14.53020136,10.90039565,7.851747396,0.909587052,1,1,1,1,0.965712824,0.862507779,0.80953931,41.15824525,-101.9872958,2015,NEH3
TX714/PHZ51,NYH2_2017,Y,17.7,731.1212129,0,2,229,110,65,64,4.985806354,2.593333337,3.453715005,5.89688957,0.948070192,3.208418109,2.379655727,2.694333021,3.397972982,154.559997,23.34000003,55.2357889,222.9889478,1.763157895,41.81263091,117.7794744,23.637895,104.1910535,18.91896409,18.22902181,21.62310913,19.28169434,21.2024166,18.91678159,16.97406986,13.88043676,9.439494818,16.54903238,19.80111122,22.34881997,25.65461899,27.16105275,25.3148988,23.28803047,24.25146582,18.24460841,5.239677404,10.2422222,10.55939387,15.21770316,15.87359667,14.84504335,11.5614249,11.15398494,7.352427253,6.267898103,8.570747831,9.793885142,12.80097944,13.68904673,12.46138399,10.55155578,10.87663924,7.688896934,0.638917053,1,1,1,1,0.981507475,0.966916282,0.722284214,42.73248125,-76.65275025,2017,NYH2
F42/MO17,TXH2_2020,N,13.825,738.522528,0,2,194.41,71.95,72.25,69,2.284333333,0,4.621906019,2.982124861,1.655000005,6.689114015,2.894056698,2.615892851,2.528400138,68.53,0,55.88714266,111.3664289,1.655000005,70.91857161,82.98143064,12.87071426,76.16571382,13.91343843,13.3863348,15.08661116,19.80328892,19.03358821,19.2160028,19.61198116,21.5690046,17.9190584,20.02266652,27.17999992,26.59088772,26.49063582,29.80749984,29.13094588,32.17534358,33.00407163,34.57616138,6.794333295,17.20400028,15.22554111,13.60666406,17.96904786,16.63267817,20.78659354,19.79317827,24.13923583,7.901247141,14.27292515,13.36557264,12.73068931,16.08957262,15.12192719,18.39831967,18.39239984,20.46927813,0.821357143,1,0.992404768,0.99375244,1,1,1,0.999043315,30.53825625,-96.42790225,2020,TXH2
B73/PHN82,OHH1_2015,N,16.4,785.8265853,0,3,236,118,64.5,63,4.820000016,2.056666652,1.801667061,2.430255425,2.070588264,2.75488235,3.664772063,1.623969288,1.874022108,149.4200005,12.33999991,20.27235275,82.00588303,2.23529414,26.29176468,128.0200007,12.16764697,57.18411674,17.71339239,20.831882,20.85048625,20.93566426,20.28419298,19.59839119,17.66236547,17.23782846,14.83481447,16.95064511,28.03666687,26.64173705,29.01382079,31.07970569,30.59522857,27.99762273,26.69097183,23.34659959,5.9283871,15.42166694,14.66308043,16.74801267,19.23764672,18.74322206,16.69895781,13.90980629,10.26308727,6.580773377,14.04730329,13.19467995,15.08203889,17.16864649,16.69143216,14.53513226,12.92347397,10.29932856,0.672569122,1,1,1,1,1,0.994932126,0.947361455,39.855785,-83.66477375,2015,OHH1
PHG80/PHZ51,DEH1_2016,Y,19.55,681.5645814,0,4,260.5,127,77,74.5,2.701875035,7.431818214,3.891344367,3.01543569,5.358105985,2.453055546,7.028031294,2.624318106,3.1968602,86.46000111,81.75000036,66.39499953,101.6163622,13.33454524,24.02227264,188.3231781,15.05272682,98.58045408,18.33047433,10.1000462,19.40971708,21.02938559,18.25055452,17.64652011,18.94468483,17.7865103,16.44449792,18.09,16.60090897,19.90208421,27.67646738,27.79681775,28.9030859,31.91379825,31.21812112,30.57169607,5.529687506,9.93090907,10.11289786,16.8589893,18.02106052,19.78800518,21.90881045,21.62957593,20.16127331,6.825577378,7.645605865,8.606637786,14.43603228,14.98401645,16.37610101,18.85541374,18.37748956,17.3477875,0.726328134,0.729318176,0.990929859,1,1,1,1,1,38.6482025,-75.44606,2016,DEH1
F42/H95,ARH2_2016,N,13.4,731.1212129,0.5,2,213.5,122.5,66.5,64,5.780937422,12.26500018,3.712120208,7.0222886,1.105000019,0.295568184,1.931287914,1.454696927,6.280835692,184.9899975,73.59000111,50.67409075,233.2059098,2.210000038,2.364545475,51.29727264,7.656817956,194.7059064,17.76457119,17.22719622,20.14058537,19.80644481,18.88262117,19.79738723,18.69440654,19.88854878,15.60714355,21.02781257,25.69833342,24.88224707,27.55747889,33.1628785,33.38017045,32.40728063,33.71248445,31.37684753,8.517187547,14.13833332,13.26693003,16.75834882,22.79151535,23.21522755,22.56353312,22.95024234,22.3752492,8.626308124,12.37618007,11.75818796,14.46644855,19.89189903,20.24263088,19.43024202,20.23735303,18.81126952,0.958649555,1,1,1,1,1,1,1,35.838614,-90.66530155,2016,ARH2
B73/MO17,NYS1_2020,Y,14.7,718.2493605,0,5,274,145,69,69,4.422257993,0,1.465106888,3.112730419,5.226388772,3.791500035,2.252145842,1.205606062,2.258500008,137.0899978,0,18.69000064,111.7083327,11.12166643,40.23500037,81.04333365,12.37166667,67.75500025,20.93932216,21.78258165,21.50902141,20.73125831,19.36904918,18.75308368,18.06102422,15.18229782,12.07034185,14.51129027,27.91833337,23.80048522,27.65661692,28.12555557,28.75518193,26.95460769,22.41267031,19.20822226,2.574516131,15.64333328,11.50500006,15.28648379,16.42583349,17.59142435,15.02631586,10.71009203,7.777611178,4.955392842,14.00347271,10.82536169,13.9247866,14.40689442,15.2259098,13.37336426,9.961154016,7.871549184,0.467914747,1,0.970676975,0.994134504,1,0.998779762,0.945742115,0.836474207,42.7322645,-76.651743,2020,NYS1
PHB47/PHZ51,ONH2_2017,N,19.45,898.7770896,0.75,16,250.25,105,38,38,3.566774253,5.816000056,0.640467161,2.602850346,0.276190468,0.553043346,1.774150425,1.832219351,2.40528059,110.5700018,58.16000056,8.999047586,96.02571482,0.552380936,6.918571438,78.70857161,24.06619065,72.98142847,18.8542372,16.74867072,24.21291039,19.37094181,21.19715784,20.84705237,17.61151759,14.253685,9.927824707,15.7532257,18.68899984,23.40262829,26.34974997,26.59380949,26.86065013,24.57225317,22.91748616,20.00596815,5.764838726,10.96000004,12.03359118,16.18007827,16.63301581,15.91920336,13.14574071,11.27177775,10.10650586,6.141928302,8.38660306,10.68394655,13.52521671,13.7753985,13.64998718,11.58821465,10.41552723,9.107414304,0.598502303,0.966571423,1,1,1,0.999084662,0.956230826,0.8300025,42.45293025,-81.8827315,2017,ONH2
W10005_0107/PHB47,WIH2_2016,N,18.2,774.2419182,0,2,260,131.5,60.5,60,2.185483832,6.563333432,3.447094458,4.124693788,6.707159024,6.158880111,5.945293137,1.654273513,4.758742445,67.74999878,39.38000059,44.45545418,149.2718189,18.91272705,63.86318129,228.7613642,17.11772738,143.1609097,20.07161814,17.64681498,20.48120554,20.03716075,21.00097141,18.73971629,16.31911952,14.94670844,10.3303759,18.34677419,27.65666644,25.59626749,27.3504729,29.44640147,29.15349181,26.70938079,24.21329019,20.37268081,4.840000014,15.2516667,12.43660419,15.21846351,16.18390156,17.81047537,15.29826924,12.0891497,9.537770322,6.76617685,13.67923016,11.77429452,13.6256578,15.0809804,15.56950508,13.35737665,11.10536848,8.849967039,0.729688939,1,1,1,1,0.998061418,0.979766622,0.886131912,43.32649075,-89.33882925,2016,WIH2
LH74/PHN82,NYH3_2019,N,23,745.9238431,0,1.5,214.5,104.5,74,74,3.722580618,3.873333404,3.769554008,3.757958966,6.56821411,3.88506864,3.604603585,1.929858492,3.709694332,115.3999992,34.86000064,61.04857108,135.2235714,13.13642822,47.6607138,172.5314276,35.27499978,112.0914282,17.9818517,20.79040337,20.53458356,20.20586531,15.56107187,20.47665645,15.7702462,13.42945136,8.802352299,16.21290321,21.91111098,21.5613082,26.8770008,26.27928579,27.19863099,23.33754175,19.77308355,13.39834902,5.322258069,10.30000003,10.31609792,15.50927174,17.62488075,14.92700095,12.00041282,8.027538821,3.378330702,6.134411308,9.414033746,9.318517767,13.52970479,14.11503311,13.40897889,10.69134109,8.327220554,5.109082433,0.665391704,1,0.983452189,1,1,0.970435943,0.837841689,0.510564168,42.7321756,-76.65345463,2019,NYH3
PHG80/PHZ51,GAH2_2017,N,17.7,731.1212129,0,2,229,110,65,64,5.215806507,2.59000005,0.877047008,6.976424555,36.66571527,11.68990473,2.766634194,6.717714339,5.237281131,161.6900017,18.13000035,10.98809533,219.4985743,69.630002,116.6428568,77.55666748,33.5885717,162.3557151,18.59375843,20.97986943,21.98193589,18.54567619,14.33990901,17.7663424,19.78523868,18.86354985,17.57616326,25.93516134,24.17571449,30.47339418,29.31252372,29.52904774,29.72980419,32.72601502,32.10511542,30.76784952,12.17225799,9.938571385,16.15324828,18.06353156,20.43476164,19.51114297,21.20992787,20.86352373,19.95543778,11.90954616,10.38538115,15.45655397,15.75249851,16.98190469,16.63412837,18.90169131,18.47155665,17.41241638,0.999631335,0.985714285,1,1,1,1,1,1,33.727145,-83.29821525,2017,GAH2
LH212HT/LH195,DEH1_2016,Y,22.65,713.7442122,3,1.5,265,130,76.5,76,2.701875035,7.431818214,3.891344367,3.01543569,5.358105985,2.453055546,7.028031294,2.624318106,3.1968602,86.46000111,81.75000036,66.39499953,101.6163622,13.33454524,24.02227264,188.3231781,15.05272682,98.58045408,18.33047433,10.1000462,19.40971708,21.02938559,18.25055452,17.64652011,18.94468483,17.7865103,16.44449792,18.09,16.60090897,19.90208421,27.67646738,27.79681775,28.9030859,31.91379825,31.21812112,30.57169607,5.529687506,9.93090907,10.11289786,16.8589893,18.02106052,19.78800518,21.90881045,21.62957593,20.16127331,6.825577378,7.645605865,8.606637786,14.43603228,14.98401645,16.37610101,18.85541374,18.37748956,17.3477875,0.726328134,0.729318176,0.990929859,1,1,1,1,1,38.6482025,-75.44606,2016,DEH1
PB80/PHZ51,WIH2_2015,N,28.06666667,821.2241792,0,0,264.3333333,148,65,64,3.126774188,2.655000041,4.103605878,5.336067251,1.868823528,3.142847566,3.066358713,6.463272165,3.426278957,96.92999983,15.93000025,53.58117651,186.0694135,5.435882344,36.03705852,132.4747064,52.80117733,103.4994124,19.63646212,20.57311455,21.5892617,21.07111177,18.36300238,19.20517036,18.54583572,13.68038168,11.37476292,15.6409678,24.97666677,26.11823115,28.09529077,27.51588227,27.91298604,26.4469062,23.95331443,17.63645543,3.355806466,13.62666686,13.88922494,15.17788174,17.2276475,16.92946091,13.73434519,12.63733902,6.343913375,5.370860554,11.93138906,12.65256426,14.04290221,14.43586033,14.57588984,12.76646014,11.49482956,7.023163717,0.588214292,1,1,1,1,0.979783322,0.914260835,0.715230077,43.3264485,-89.33359975,2015,WIH2
LH212HT/LH195,MNH1_2016,Y,22.55,731.1212129,0,2,229,110,70,68.5,2.893225764,0.170000008,5.030425272,6.121705224,6.438583227,6.210954471,8.179238718,7.617170889,9.394742846,89.68999869,1.190000057,67.79499967,212.8530004,13.67999972,65.11499918,295.599999,62.20750045,287.315495,17.89673604,26.28611401,18.122652,20.29948324,15.80941307,17.87578139,16.93568638,15.29315111,12.15008877,17.5148386,25.45428576,24.53269911,27.63337014,28.14450006,28.70269129,27.15887183,24.8505404,22.53032632,6.338387108,9.824285678,13.68155402,15.81410535,17.82425013,18.42635015,16.92976579,13.57123889,11.50456607,6.871134867,10.90204251,11.6566452,13.98369248,15.05511886,15.68076391,14.22086787,11.86153057,10.26982602,0.734527645,1,1,1,1,0.999952477,0.98729881,0.936092645,44.06646925,-93.533648,2016,MNH1
W10005_0107/PHB47,INH1_2015,Y,12.95,711.8134344,0,1,204.5,94,64,64.5,2.968064535,5.608750075,2.401797478,2.620596579,1.049062505,3.048312443,3.454130844,1.332533481,1.484370975,92.01000059,44.8700006,26.44312483,85.12437463,1.715625018,30.48312443,116.5724995,9.316249996,45.68062523,19.44608656,13.59046638,21.88315593,21.65689439,20.60130358,19.73326552,18.77560381,17.99738388,15.64927463,15.67580632,21.0562501,27.44396829,29.52449332,32.66781175,30.16981242,28.17317586,28.46934151,25.5406298,3.004516139,13.05249977,15.22068343,16.62214482,19.56843758,18.02818774,16.71489706,16.46563638,12.56847521,5.360930658,9.9438759,13.725819,15.26696414,18.11812466,16.1828721,14.63810214,14.67667849,11.95902497,0.609504607,1,1,1,1,1,1,0.986081101,40.477075,-87.000205,2015,INH1
B14A/MO17,NCH1_2016,Y,14.25,731.1212129,9.5,10.5,222.5,130.5,65,64,2.901562452,3.125714166,7.137907935,4.683034439,4.3177271,0.863030289,5.226283407,5.104181825,4.507668668,92.84999847,21.87999916,91.86318315,160.7736342,8.497726928,8.495454409,139.9318182,26.12772732,139.7377287,16.36857818,22.27138465,15.49498623,18.72849078,21.8793198,21.8664799,18.529992,18.05675722,17.32656161,20.86125001,25.58571407,25.68946269,27.1054564,30.20318166,31.0559697,32.42423852,33.59766701,33.26035177,7.692187494,8.212857212,14.27003911,16.07300028,18.02681784,18.80169681,21.2796372,22.62190931,22.7218182,8.383421821,10.43985322,12.46468669,13.95599298,16.17160042,16.99727481,18.83160592,19.980567,19.86697781,0.913761163,1,1,1,1,1,1,1,35.30015175,-77.57127825,2016,NCH1
PHG39/PHN82,GAH1_2017,N,17.7,731.1212129,0,2,229,110,65,64,1.929687474,5.730000019,0.343252103,3.449286585,2.107618968,4.586772466,5.884115127,3.462793619,5.790337869,61.74999917,45.84000015,4.185237975,115.4628578,3.161428452,44.24761888,164.3961923,18.00285697,179.500474,16.80249013,20.13732326,20.17342047,19.27076224,21.20480144,16.6798163,18.15858085,19.37517402,17.73704587,23.5584375,24.76124978,28.73884546,29.02932191,29.79031757,30.11825943,30.88468736,33.04158726,32.39466959,8.654999979,9.073749959,13.81601286,15.94569083,16.85142871,20.07059283,21.0580027,22.24365102,22.03411694,9.935165979,10.3201674,13.6844889,14.81363998,15.5596332,17.10789698,17.95959829,19.61349988,19.1980032,0.8834375,1,1,1,1,1,1,1,31.50794425,-83.55854475,2017,GAH1
B37/H95,IAH2_2019,Y,23.2,733.0519907,4,0.5,235.5,111.5,65,64,1.624999978,4.994666719,7.633826981,4.023414549,10.53523836,1.22350002,2.763567443,7.261517829,4.773321835,51.99999928,74.92000079,126.7292866,144.3807149,31.60571507,12.2350002,103.2057142,58.23357121,145.3535721,19.40078695,15.59915857,17.73377221,20.37141966,18.69170743,21.11460887,19.04896103,16.46108124,13.94542613,15.78031255,14.78666655,21.30773964,26.90560141,30.4667857,29.3667858,27.70213024,26.0789087,24.69893011,1.823749996,4.276000045,9.222208134,15.06467224,19.71440506,18.17542877,16.74212177,15.32632928,13.45358666,5.188982368,5.371381143,9.150668224,13.41851256,17.10626668,15.79657396,14.44283917,13.04517908,11.92357614,0.546495539,0.532857125,0.866155154,0.998157434,1,1,1,0.956872449,42.06583499,-94.72067796,2019,IAH2
W10004_0216/PHZ51,SDH1_2015,N,17.2,638.443876,0,7,190,116,74,74,1.890000034,2.68444448,2.847212523,0.928406021,1.08916667,1.213193166,1.12388612,3.994558873,0.570569385,58.59000105,24.16000032,33.86000057,31.14874977,1.720000006,12.77624983,39.02562428,27.90249949,17.65812508,21.16446504,23.3864585,24.03054242,23.94878495,21.74335716,21.42490048,20.60212775,16.27746828,15.18579983,19.04290341,22.5888888,27.20826416,30.46229654,29.54760476,31.86073879,31.47770382,29.48664523,24.89733582,4.208709664,8.468888919,11.69082143,14.25969647,14.29062517,16.06534098,14.02269822,14.11578116,6.942900096,6.807516906,9.210660666,12.27390437,14.67606113,14.18888263,15.81431879,15.00552731,14.17539039,9.834808296,0.77025346,0.983690483,1,1,1,0.983472358,0.961069402,0.950039755,44.208745,-102.928745,2015,SDH1
PHG39/TX205,ONH2_2017,N,24.4,823.1549571,0,2,251,129.5,58.5,57,3.566774253,5.816000056,0.640467161,2.602850346,0.276190468,0.553043346,1.774150425,1.832219351,2.40528059,110.5700018,58.16000056,8.999047586,96.02571482,0.552380936,6.918571438,78.70857161,24.06619065,72.98142847,18.8542372,16.74867072,24.21291039,19.37094181,21.19715784,20.84705237,17.61151759,14.253685,9.927824707,15.7532257,18.68899984,23.40262829,26.34974997,26.59380949,26.86065013,24.57225317,22.91748616,20.00596815,5.764838726,10.96000004,12.03359118,16.18007827,16.63301581,15.91920336,13.14574071,11.27177775,10.10650586,6.141928302,8.38660306,10.68394655,13.52521671,13.7753985,13.64998718,11.58821465,10.41552723,9.107414304,0.598502303,0.966571423,1,1,1,0.999084662,0.956230826,0.8300025,42.45293025,-81.8827315,2017,ONH2
PHN11_OH43_0001/PHB47,OHH1_2017,Y,15.05,719.5365458,0,2,229,110,65,64,4.401935447,12.29571451,4.299880116,6.252045262,18.36299991,4.892395558,3.195317293,3.431958172,3.794688752,136.4599988,86.0700016,53.63949916,223.8204996,40.86499989,50.26800107,124.097,30.99400014,115.4320013,19.0647902,19.03427505,21.00226491,20.15032754,19.69555429,18.89580098,18.69837911,16.0400155,13.85510684,20.47903239,25.43142836,25.24002704,27.25803818,28.09541678,28.73270468,26.30456447,24.69395371,24.25720733,8.011935501,13.44999967,12.59882409,15.91673102,16.75358336,18.39824095,14.97688189,13.11535887,11.81284403,8.407228033,12.106522,11.63721293,13.8931373,14.6377479,15.63224373,13.07252875,11.66012039,11.13333271,0.85352535,1,1,1,1,0.996926048,1,0.96495674,39.855785,-83.66477375,2017,OHH1
PHP02/PHB47,ARH1_2016,N,16.1,797.4112524,0,3.5,184,110.5,67,64.5,12.62656226,6.052222146,7.859593922,4.411032368,3.769999921,0.095833332,1.834913509,2.950363528,2.931715563,404.0499923,54.46999931,101.1431819,160.496816,7.539999843,0.824999988,46.86636396,14.75181764,90.88318244,16.40757677,14.40289243,17.41332625,19.31399891,17.48165414,22.15918181,19.7781726,18.25208951,17.22596404,20.37124979,20.08666674,25.25253507,26.30445415,29.50681779,32.27019592,33.22074717,33.17606868,32.75999986,8.53968759,10.04999993,14.84655054,15.67568893,20.10318184,20.90335237,23.01320039,23.46584116,23.35664232,8.376579132,8.623890092,12.4075181,13.38568101,16.80499981,18.57005087,20.09384313,20.24603027,19.89808151,0.932198657,0.999841266,1,1,1,1,1,1,34.72952,-90.7603555,2016,ARH1
W10004_0216/PHZ51,NYH2_2016,N,17.5,731.1212129,0.5,2,205.5,110,85,77,2.034516133,1.030000001,1.88805842,0.867300396,1.140952366,2.326450204,3.376451109,4.287746575,3.208572451,63.07000011,12.36000001,22.4085716,34.4438095,2.622857094,25.59095225,116.65619,31.75809508,97.82571426,19.21240982,23.35584625,23.40556822,22.17883586,23.94456446,21.25361649,17.18897092,16.17245816,13.35906413,14.04935483,18.68749992,27.50851283,26.23633728,28.78071431,29.31692664,28.41638555,26.44500865,23.15297547,1.686774175,4.439999988,12.92699036,12.85534504,13.89476193,15.65588736,16.863818,13.58818034,10.55762265,4.511298309,6.607155497,12.88765676,12.33330427,13.7996272,14.74166699,14.82295673,12.66050813,10.26842414,0.447315667,0.804761906,0.999400038,0.994542932,1,0.999880088,0.994843294,0.949842165,42.726117,-76.655339,2016,NYH2
F42/OH43,INH1_2020,Y,25.635,665.4747659,1,2,221.15,113.35,64,62,2.63064515,6.092222161,2.380905542,2.638028789,0.629411796,2.977235278,3.349803369,1.095052516,1.575144189,81.54999965,54.82999945,26.35000017,86.90176377,0.755294155,29.77235278,114.9176474,7.60117643,48.41470517,19.12040675,14.46862051,21.68340347,21.75389977,20.24839053,19.66959435,18.78188958,18.00828299,15.45076636,15.20677414,20.6899999,27.1104927,29.42650107,32.0752936,30.36388222,28.15834081,28.66782236,25.41333794,2.934193564,11.51555562,15.17811918,16.46944194,19.37588254,18.23752946,16.66734055,16.5683672,12.52337519,5.193705795,9.337664252,13.54219901,15.16026165,17.73146127,16.3694037,14.61167179,14.83949529,11.90095499,0.576025338,0.994801587,1,1,1,1,1,0.975702381,40.4787965,-86.9895995,2020,INH1
B14A/OH43,NYH3_2019,Y,28.4,744.6366578,0,5.5,259,132.5,74.5,74.5,3.722580618,3.873333404,3.769554008,3.757958966,6.56821411,3.88506864,3.604603585,1.929858492,3.709694332,115.3999992,34.86000064,61.04857108,135.2235714,13.13642822,47.6607138,172.5314276,35.27499978,112.0914282,17.9818517,20.79040337,20.53458356,20.20586531,15.56107187,20.47665645,15.7702462,13.42945136,8.802352299,16.21290321,21.91111098,21.5613082,26.8770008,26.27928579,27.19863099,23.33754175,19.77308355,13.39834902,5.322258069,10.30000003,10.31609792,15.50927174,17.62488075,14.92700095,12.00041282,8.027538821,3.378330702,6.134411308,9.414033746,9.318517767,13.52970479,14.11503311,13.40897889,10.69134109,8.327220554,5.109082433,0.665391704,1,0.983452189,1,1,0.970435943,0.837841689,0.510564168,42.7321756,-76.65345463,2019,NYH3
PHB47/PHZ51,MOH1_2_2020,N,15.725,731.1212129,0.5,0.5,252,105,53.5,53,2.765624954,8.119999743,10.23533287,1.900197364,6.862941181,7.496322061,3.61617108,2.901626778,3.303786197,88.49999854,40.59999871,96.12411712,56.39411764,8.455882353,68.01117661,117.8082348,21.52705885,101.3270584,18.75466287,21.25211372,22.58999711,20.28617166,20.64270943,17.48834951,18.15902921,17.2011884,14.69335169,22.18656257,30.76999931,28.84882905,30.74339714,30.90558787,31.2308437,28.74780649,29.21697892,24.17436303,12.23093753,19.21800041,17.30516703,20.0610583,19.70343171,21.50444419,18.15153395,17.40346693,12.7162556,10.41798935,16.99399986,15.18178367,17.42227064,17.30450979,18.37429674,15.5665539,15.53509051,11.41105442,0.936383936,1,1,1,1,1,0.996694042,0.965786214,38.8958275,-92.2071575,2020,MOH1
CG119/CG108,GAH1_2019,N,13.765,523.0477198,12,0,145,65,52.5,51,4.224827643,1.980000006,1.908236784,2.106472486,0,0.090714284,5.691865924,1.473428559,3.045620547,122.5200016,17.82000005,22.37999977,72.04999958,0,0.725714275,156.5528547,7.367142797,92.8692846,16.4500471,17.48633936,17.40259385,20.9384506,22.51147406,21.84430948,17.66714436,19.76491442,19.71139218,21.20655165,22.58666695,26.81574745,29.5228407,35.04273814,35.70196446,32.62270198,33.62814315,33.36893722,7.214827602,8.595555623,14.04498416,14.47543411,19.21654783,20.58464301,20.89661115,21.78014287,21.253149,8.370628681,9.274220075,12.91642218,14.40044999,18.67726543,19.28313207,18.63395398,19.63555568,19.18049021,0.90216748,0.984365085,1,1,1,1,1,1,31.50582525,-83.55515025,2019,GAH1
CG119/CG108,IAH3_2019,N,17.85,720.823731,0.5,1.5,190.5,105,65,64,2.879677419,8.325833271,8.514982687,3.930253796,0.537380945,2.3054841,2.306432914,9.350841805,5.38576807,89.26999998,99.90999925,122.1842849,140.4857139,1.612142835,22.50785688,97.56999955,77.30999979,164.0414292,18.1142604,18.14433392,18.34133211,20.20102762,20.30083813,21.10542726,19.14151731,15.03963484,12.83068274,16.60032246,18.1858333,22.24543073,27.09611601,28.60416662,30.1634999,27.59661349,25.62734982,23.13272506,3.497096781,6.015833348,10.94521806,15.70806976,18.18130992,18.44873807,15.55405048,14.14793364,12.04513443,5.803122395,7.048807354,9.977529243,13.7421048,15.43701566,16.36698878,13.8976006,12.43400485,10.94701098,0.634539169,0.718095232,0.926337681,1,1,1,0.9932483,0.897879883,41.97593131,-92.24310603,2019,IAH3
W10005_0107/PHB47,ONH1_2016,Y,24.25,658.3952472,0,4,196,107.5,81.5,78.5,1.979032247,2.105714291,0.92181366,1.439738287,4.720833318,2.435439396,4.62931563,1.31185227,2.043303741,61.34999967,29.48000008,13.31600007,60.28400005,10.99249999,28.54150001,172.0475013,11.37649985,61.38049932,20.24883872,21.56727634,23.77365349,22.41142308,19.3081847,20.61473607,17.12813691,15.31534219,11.6349499,10.49290321,16.47999988,25.01561457,25.51466922,28.22516696,27.99415914,27.31356147,24.49017951,20.3886015,-0.735806467,3.753571405,10.93050922,11.61184699,15.55325019,14.71775745,15.07244109,12.71620509,9.185787659,3.269306411,5.688768484,11.09209761,11.56175859,14.2216101,13.76399544,13.57642435,11.5133866,8.776899495,0.291105988,0.684668367,0.99891379,0.988093962,1,0.998165816,0.971212584,0.877977401,43.4997965,-80.451125,2016,ONH1
B37/MO17,GAH2_2016,N,12,731.1212129,0,2,258,211,58,51,1.486129045,0,7.316392826,2.079782856,1.718421064,1.264671045,2.43256314,4.61773679,3.235456168,46.07000041,0,60.50999928,55.97210474,3.436842128,10.11736836,67.31736801,23.15894711,100.2847377,20.21189387,22.87583466,19.10112302,21.34036575,17.85876091,19.83818451,18.50479945,15.9975398,17.29687983,27.80677426,30.50400009,32.06010812,34.2138269,34.93842035,34.86282896,34.62455114,33.33373696,32.80003392,13.8351613,16.55600014,19.35906305,20.32019684,22.9621054,21.76434208,22.04984942,22.29670187,20.14649938,13.32566871,15.60302283,17.72531793,18.78372546,20.36638125,19.89190838,19.9091667,19.70080105,18.42340329,1,1,1,1,1,1,1,1,33.717295,-83.3110275,2016,GAH2
PHW52/PHM49,NYH3_2018,Y,23.975,691.0253928,0,1.5,182.5,81.5,74,71.5,4.152903213,0.855714253,1.333281551,1.973054112,19.58384622,4.14286014,1.827699262,3.76173812,1.90156246,128.7399996,5.989999771,17.49230713,69.9676929,40.09153858,44.76538462,69.41461665,34.65000019,57.30153882,20.64383799,23.73438372,20.91517994,21.34827616,15.57480097,18.28181198,18.59806785,13.9987834,13.21485935,12.82806446,24.72714315,24.74142799,27.59651287,28.68307664,28.50629367,27.06434367,24.34345721,20.06623908,1.452258048,10.48999977,13.10088293,14.82547593,19.13846159,17.45270631,15.13507682,13.07327349,8.10410419,4.113027627,10.74522894,11.82730489,13.73068126,15.93834835,15.05075648,13.50240047,11.64767513,8.352187515,0.351670502,1,0.973040659,0.995029228,1,0.992439429,0.946636381,0.843044516,42.7261605,-76.6556765,2018,NYH3
B14A/H95,GAH1_2017,N,14.2,745.2802504,0,2,175,85,60,60.5,1.929687474,5.730000019,0.343252103,3.449286585,2.107618968,4.586772466,5.884115127,3.462793619,5.790337869,61.74999917,45.84000015,4.185237975,115.4628578,3.161428452,44.24761888,164.3961923,18.00285697,179.500474,16.80249013,20.13732326,20.17342047,19.27076224,21.20480144,16.6798163,18.15858085,19.37517402,17.73704587,23.5584375,24.76124978,28.73884546,29.02932191,29.79031757,30.11825943,30.88468736,33.04158726,32.39466959,8.654999979,9.073749959,13.81601286,15.94569083,16.85142871,20.07059283,21.0580027,22.24365102,22.03411694,9.935165979,10.3201674,13.6844889,14.81363998,15.5596332,17.10789698,17.95959829,19.61349988,19.1980032,0.8834375,1,1,1,1,1,1,1,31.50794425,-83.55854475,2017,GAH1
B37/H95,GAH2_2020,N,15.725,734.339176,18.5,28,221.75,115,64.5,61,4.57387094,0.441111114,8.353941854,2.596292498,5.733571683,2.103095203,2.179001438,2.485142878,3.918548365,141.7899991,3.970000029,91.39071568,80.77428585,11.41500051,18.92785683,57.71499962,12.42571439,121.4749993,20.66171874,23.27184486,17.58943298,19.5164109,18.75300796,20.35385684,20.26001561,17.11426864,16.01109332,24.32935487,22.81222216,27.25049476,29.76903398,31.23452386,32.73428517,34.13891635,33.4245718,31.64458511,9.683548431,7.437777784,15.07002369,18.41195949,20.46821458,20.95039675,21.2406723,21.91714281,20.83905522,10.34437265,8.95024402,13.55540875,16.15181668,17.85136922,18.84234096,19.40061188,19.58004094,18.23728962,0.993479262,1,1,1,1,1,1,1,33.72355555,-83.30265185,2020,GAH2
B37/OH43,NYH2_2017,Y,17.7,731.1212129,0,2,229,110,65,64,4.985806354,2.593333337,3.453715005,5.89688957,0.948070192,3.208418109,2.379655727,2.694333021,3.397972982,154.559997,23.34000003,55.2357889,222.9889478,1.763157895,41.81263091,117.7794744,23.637895,104.1910535,18.91896409,18.22902181,21.62310913,19.28169434,21.2024166,18.91678159,16.97406986,13.88043676,9.439494818,16.54903238,19.80111122,22.34881997,25.65461899,27.16105275,25.3148988,23.28803047,24.25146582,18.24460841,5.239677404,10.2422222,10.55939387,15.21770316,15.87359667,14.84504335,11.5614249,11.15398494,7.352427253,6.267898103,8.570747831,9.793885142,12.80097944,13.68904673,12.46138399,10.55155578,10.87663924,7.688896934,0.638917053,1,1,1,1,0.981507475,0.966916282,0.722284214,42.73248125,-76.65275025,2017,NYH2
F42/H95,INH1_2016,N,19.65,724.6852867,6.5,5.5,279.5,136.5,63,62.5,3.034516148,1.382857186,3.106568823,3.966270256,3.500454469,6.752636371,3.451172643,3.198528118,3.024422797,94.07000059,9.680000305,31.26000059,138.8759105,3.500454469,67.52636371,113.8927274,21.6654544,92.62590972,17.63328649,23.97511796,20.66441577,20.1236558,19.9706746,19.39149484,18.14527656,15.98533716,14.62820237,18.74516109,26.31142807,27.84898846,28.12893417,28.20272714,29.14504538,29.16779001,27.95564941,27.07739093,7.950322636,11.69428553,16.31817922,16.10606538,16.8522731,18.34872752,18.58889605,17.50284626,15.03841012,7.677100472,11.91689015,14.24288378,14.4184555,14.68521604,15.7994256,15.9329094,14.92238151,13.51734692,0.852649763,1,1,1,1,1,1,0.996102814,40.4787595,-86.98982,2016,INH1
B97/PHB47,NYH3_2015,N,16.75,731.1212129,0,19,249,120.5,68,68.5,4.268387075,0,1.234803629,3.315485905,3.744705864,3.708743319,2.034738589,2.091907533,2.160160663,132.3199993,0,17.66999944,111.4647067,9.843529393,38.42352946,75.35117763,21.49235322,65.37235311,20.95885717,21.76160183,22.01003167,20.47654391,19.37507164,18.84800849,18.09954582,14.25866518,12.17165493,15.21516129,28.41399994,23.9726608,27.94852153,28.22411762,29.00645443,26.88612691,22.65429039,19.02039094,3.206451565,16.00799999,11.62235867,15.61032629,16.7502941,17.72633694,14.88804443,11.60832066,7.356588233,5.349626667,14.38734971,10.95773449,14.17183136,14.61937489,15.41213998,13.31670354,10.34569698,7.707711279,0.504331792,1,0.97267375,0.996219796,1,0.995345527,0.95775528,0.812032548,42.7233625,-76.6555945,2015,NYH3
CG119/CG108,INH1_2020,N,16.6075,680.116498,1.25,1.5,182.35,88.875,58,55.5,2.63064515,6.092222161,2.380905542,2.638028789,0.629411796,2.977235278,3.349803369,1.095052516,1.575144189,81.54999965,54.82999945,26.35000017,86.90176377,0.755294155,29.77235278,114.9176474,7.60117643,48.41470517,19.12040675,14.46862051,21.68340347,21.75389977,20.24839053,19.66959435,18.78188958,18.00828299,15.45076636,15.20677414,20.6899999,27.1104927,29.42650107,32.0752936,30.36388222,28.15834081,28.66782236,25.41333794,2.934193564,11.51555562,15.17811918,16.46944194,19.37588254,18.23752946,16.66734055,16.5683672,12.52337519,5.193705795,9.337664252,13.54219901,15.16026165,17.73146127,16.3694037,14.61167179,14.83949529,11.90095499,0.576025338,0.994801587,1,1,1,1,1,0.975702381,40.4787965,-86.9895995,2020,INH1
PHB47/PHN82,DEH1_2017,Y,21.4,700.2287673,0,2,225.5,109,67.5,68,2.917187458,6.201428686,3.00780289,3.517983876,1.211428521,1.632751291,5.214259368,11.31934688,4.882730708,93.34999865,43.4100008,45.34571489,126.7790489,1.268571377,15.48333303,157.8533328,69.24809492,151.3147631,17.05647962,17.73228645,20.71096481,19.57386043,19.15556694,20.88592809,18.21237176,18.15756056,16.58607394,20.26624998,24.66142872,21.72245043,26.82298965,30.35071437,30.31148162,30.69555299,28.43090921,27.29702356,9.32593758,14.19571427,10.68752201,16.75855213,19.906349,19.88150788,21.21690322,18.72144455,17.91444491,8.690479953,12.08402314,9.787934269,14.12431868,17.15482568,17.14050735,17.94790556,15.63546309,14.74613823,0.907287956,1,0.959736116,1,1,1,1,1,38.67025825,-75.4333645,2017,DEH1
B37/OH43,ARH2_2016,N,12.85,731.1212129,0,1,190.5,112.5,65.5,61,5.780937422,12.26500018,3.712120208,7.0222886,1.105000019,0.295568184,1.931287914,1.454696927,6.280835692,184.9899975,73.59000111,50.67409075,233.2059098,2.210000038,2.364545475,51.29727264,7.656817956,194.7059064,17.76457119,17.22719622,20.14058537,19.80644481,18.88262117,19.79738723,18.69440654,19.88854878,15.60714355,21.02781257,25.69833342,24.88224707,27.55747889,33.1628785,33.38017045,32.40728063,33.71248445,31.37684753,8.517187547,14.13833332,13.26693003,16.75834882,22.79151535,23.21522755,22.56353312,22.95024234,22.3752492,8.626308124,12.37618007,11.75818796,14.46644855,19.89189903,20.24263088,19.43024202,20.23735303,18.81126952,0.958649555,1,1,1,1,1,1,1,35.838614,-90.66530155,2016,ARH2
PHW52/PHN82,ONH2_2016,N,21.85,711.8134344,0,4.5,223,98,75,72.5,1.435483875,1.740833327,1.463802716,3.022687524,0.150999999,1.134659085,3.046446673,1.693503778,2.765116665,44.50000012,20.88999993,18.84600039,117.1590009,0.150999999,12.25349994,101.0444998,13.16149993,84.26899996,19.72563927,22.19747464,21.68954048,21.77365896,18.98664827,19.92678304,16.69906166,15.68152671,12.9072029,14.10741935,17.58083336,26.00758685,26.04894451,27.78099985,28.79287246,28.2480382,25.9224786,23.75348014,4.257419363,7.13166666,15.03828811,14.1477789,17.72699971,17.33924119,18.24672102,15.95494667,14.17526013,5.131346137,6.986841243,12.85116395,12.65171997,14.84296497,15.26027205,15.31782021,13.26534606,11.67621189,0.511244241,0.799851209,1,1,1,1,1,0.975829282,42.4530035,-81.88279875,2016,ONH2
LH74/PHN82,ARH2_2018,N,14.395,731.1212129,0.5,2,155,84.5,66.5,61,4.523124937,5.877777735,3.202210455,3.225384198,0.461428574,5.0703967,1.707251537,1.546976178,1.915506911,144.739998,52.89999962,46.32285666,103.4992844,0.461428574,45.6335703,42.68714207,7.346428526,59.38071425,17.7541087,19.6455271,19.52097147,20.05684428,23.80737271,19.97823453,19.1297214,18.25489796,18.05597286,19.61875001,21.92000008,22.77345622,28.90718296,31.9800005,30.98396799,32.84130907,33.56595603,31.90391706,8.73406262,10.34777779,11.28771296,17.85430307,18.706429,19.75547635,22.48266054,23.2605133,21.25223495,8.305601359,9.423215554,10.22107903,15.52009327,17.35232514,17.37984482,19.61861005,20.2782542,18.53689778,0.857433028,1,0.994106717,0.995975764,1,1,1,1,35.674241,-90.0749725,2018,ARH2
B73/PHM49,NCH1_2015,Y,18.15,731.1212129,0,0,230,129,65,64,3.0140625,9.692856925,3.043308324,7.00027835,0,3.411347986,2.886716411,10.31533332,6.56176467,96.44999999,67.84999847,47.46470581,233.8535261,0,30.12176424,80.44058821,53.94764695,203.4147048,18.56641886,18.5514961,20.38733283,17.18369043,24.39251002,21.03629604,20.30189304,17.27178406,15.58503138,22.38312501,24.94999995,23.18034629,27.40244989,31.82117664,31.76743482,33.30845927,33.22968591,31.16039845,8.592187501,12.50999982,10.48535005,18.40286831,19.92058833,21.46261411,22.34001137,22.61282364,21.92468694,9.285127697,11.46773529,10.15801447,14.99239002,17.87088248,18.60652477,19.71826945,19.84422869,18.53531879,0.955334819,1,0.995809598,1,1,1,1,1,35.29657708,-77.5664625,2015,NCH1
PHB47/PHZ51,ONH1_2015,Y,27.5,716.3185827,0,0.5,260,145,86.5,86.5,1.605625002,2.296315821,1.411426091,1.973297954,0.512941169,3.436769168,2.641035405,1.799953816,2.360571209,51.38000005,43.63000059,20.30117703,73.50294104,0.81882352,40.73352947,103.9364728,19.58470627,71.14882509,18.02169462,20.4737019,23.34007091,22.64543997,20.24065375,18.07254412,18.60447299,14.22755231,12.21920895,9.771562532,12.63473691,23.7578119,26.83441686,29.90941261,27.46928249,26.11972075,22.82201755,18.35250846,-0.327500018,2.045263152,11.01347606,13.31919887,17.43313718,16.50329302,14.06775752,11.69572195,7.013714688,2.851211725,4.201400589,10.67713105,12.77399982,15.76589753,14.15032606,12.63577386,10.48249806,7.379159901,0.167098218,0.403345874,0.957007131,0.991950294,1,0.994472794,0.939113043,0.772366561,43.49741975,-80.44806025,2015,ONH1
B73/PHM49,KSH1_2015,N,16.25,742.0622874,0,2,229,110,85,82,0.688124985,3.518749885,2.537239536,4.634326915,6.340784251,4.013516285,5.753010874,3.95559662,1.81791271,22.01999953,28.14999908,47.40176476,147.1705882,9.165882307,38.18235242,161.646473,23.74705871,56.35529401,19.48910828,20.34062409,19.21958791,21.30664108,18.00351726,18.80818483,18.60066932,17.86718078,18.78253622,17.69406253,22.96750021,19.85221485,29.31892792,29.11705877,31.41670577,31.16760655,30.50505886,29.96204923,3.297187492,8.938749969,8.792561365,16.998743,18.09705929,19.84989561,20.1377744,20.03282345,17.06836811,6.184738542,9.476230158,8.381520189,15.38816616,15.61697663,17.65547515,17.65556265,17.32458654,15.75670183,0.6778125,1,0.850138809,1,1,1,1,0.98304554,39.21641775,-96.60482225,2015,KSH1
CG119/CG108,MOH1_2_2018,N,16.96666667,731.1212129,0.333333333,13.66666667,180,80.66666667,47.33333333,45.66666667,4.419032262,0.120000001,6.56660792,4.995913726,0,0.865952386,4.867908623,7.318145406,3.629241153,136.9900001,0.840000004,71.60142667,150.6285707,0,7.793571472,145.6157139,39.85928573,112.0157138,18.39395777,18.46565301,20.1607481,20.70593221,19.87326009,21.97749135,18.06982858,17.46468943,16.31914076,19.5254839,22.76714298,27.16554273,29.60936822,31.6271427,32.32420578,29.51628185,29.85375934,27.04843165,7.99741943,14.14714282,16.43732974,18.81172612,21.79964249,20.71007941,19.44316189,19.21155699,15.91814144,7.992986492,11.1555316,14.00535673,16.26359619,18.7133926,18.51714259,16.54699664,16.60044059,13.86670431,0.872361758,1,1,1,1,1,1,0.995607144,38.89555425,-92.20964575,2018,MOH1
B73/PHZ51,OHH1_2016,Y,17.65,756.2213249,0,23,296,140,65,64,4.328064465,1.776000023,3.915145208,2.580740659,3.890757626,4.17049496,5.079069289,3.957741935,3.614594814,134.1699984,8.880000114,44.70363614,85.9177286,9.330454675,39.94818193,160.1854537,27.69772666,110.1186362,18.3437644,22.24283047,20.73146956,20.35982518,19.15233416,18.82824642,16.72048491,17.98730955,14.71797893,19.63580645,29.63200035,26.56953589,28.59263588,29.59106055,30.69283836,29.21689182,28.27188687,26.30588322,8.120967747,16.89599972,14.9739129,16.70528562,18.30318191,19.74443426,18.9160149,15.44500838,13.40262461,8.117657052,15.32722009,13.17028057,14.81678154,15.96857054,17.23303236,16.11713161,14.21502474,12.5845871,0.859331788,1,1,1,1,1,0.999172078,0.989049277,39.860924,-83.6755995,2016,OHH1
PHW52/PHM49,IAH3_2017,Y,17.7,731.1212129,0,2,229,110,65,64,4.153750014,4.476666673,3.404720357,2.207347727,0.783636364,2.628276904,1.892687593,2.328876272,1.794257086,132.9200004,67.1500001,54.03954627,78.33863542,1.567272728,28.02681865,71.85545488,19.05045461,54.69545453,16.14493189,17.75127989,18.89303832,22.07985964,20.54923199,20.99384486,19.81852315,17.22919489,15.64326955,15.84312499,15.5066665,21.42652578,27.714982,28.45522753,29.90074383,27.6545798,25.64720852,25.13760955,4.41906251,4.141333344,9.782295063,13.56526933,16.05901469,16.6123348,14.8096002,12.74600627,11.28191352,5.818880471,5.62230391,9.387130072,13.2881535,14.4256186,15.3843105,13.65871261,11.89796048,11.29223634,0.568604913,0.570380948,0.879734313,1,1,1,1,0.979205627,41.9758706,-92.24318881,2017,IAH3
2369/LH123HT,NYH2_2017,N,19.6,731.7648055,0,21,288.5,149,77.5,77.5,4.985806354,2.593333337,3.453715005,5.89688957,0.948070192,3.208418109,2.379655727,2.694333021,3.397972982,154.559997,23.34000003,55.2357889,222.9889478,1.763157895,41.81263091,117.7794744,23.637895,104.1910535,18.91896409,18.22902181,21.62310913,19.28169434,21.2024166,18.91678159,16.97406986,13.88043676,9.439494818,16.54903238,19.80111122,22.34881997,25.65461899,27.16105275,25.3148988,23.28803047,24.25146582,18.24460841,5.239677404,10.2422222,10.55939387,15.21770316,15.87359667,14.84504335,11.5614249,11.15398494,7.352427253,6.267898103,8.570747831,9.793885142,12.80097944,13.68904673,12.46138399,10.55155578,10.87663924,7.688896934,0.638917053,1,1,1,1,0.981507475,0.966916282,0.722284214,42.73248125,-76.65275025,2017,NYH2
W10005_0107/PHB47,MOH1_2015,N,13.85,731.1212129,0,5.5,180,80,72,71,3.914838722,3.002727248,2.7038834,5.646226268,2.268750012,1.183333344,4.736744086,1.740401796,3.666491943,121.3600004,33.02999973,34.41999933,178.8712478,5.868750036,10.6500001,140.2618746,11.88312507,113.6612502,18.81846694,18.88703156,16.92919735,21.70591481,15.72154266,19.94530069,18.47422179,20.12873028,17.02653892,18.28451609,18.00181831,23.77805456,28.93028285,29.85593748,31.76118019,30.42140763,28.58050013,28.43143147,5.857096827,7.500000065,15.21487777,17.6487962,21.67281234,21.45979159,20.28182538,17.09899995,17.28669369,7.068544315,7.302193139,11.97142579,15.39796361,17.76437491,18.61048589,17.380694,14.99182695,15.05317439,0.723283405,0.814935086,1,1,1,1,1,1,38.8965375,-92.20800417,2015,MOH1
PHN11_OH43_0001/PHB47,MNH1_2016,Y,20.2,731.1212129,0,2,229,110,71,69.5,2.893225764,0.170000008,5.030425272,6.121705224,6.438583227,6.210954471,8.179238718,7.617170889,9.394742846,89.68999869,1.190000057,67.79499967,212.8530004,13.67999972,65.11499918,295.599999,62.20750045,287.315495,17.89673604,26.28611401,18.122652,20.29948324,15.80941307,17.87578139,16.93568638,15.29315111,12.15008877,17.5148386,25.45428576,24.53269911,27.63337014,28.14450006,28.70269129,27.15887183,24.8505404,22.53032632,6.338387108,9.824285678,13.68155402,15.81410535,17.82425013,18.42635015,16.92976579,13.57123889,11.50456607,6.871134867,10.90204251,11.6566452,13.98369248,15.05511886,15.68076391,14.22086787,11.86153057,10.26982602,0.734527645,1,1,1,1,0.999952477,0.98729881,0.936092645,44.06646925,-93.533648,2016,MNH1
PHN11_PHW65_0323/LH195,ONH1_2015,Y,35.6,720.823731,0,0,270,150,95,92,1.605625002,2.296315821,1.411426091,1.973297954,0.512941169,3.436769168,2.641035405,1.799953816,2.360571209,51.38000005,43.63000059,20.30117703,73.50294104,0.81882352,40.73352947,103.9364728,19.58470627,71.14882509,18.02169462,20.4737019,23.34007091,22.64543997,20.24065375,18.07254412,18.60447299,14.22755231,12.21920895,9.771562532,12.63473691,23.7578119,26.83441686,29.90941261,27.46928249,26.11972075,22.82201755,18.35250846,-0.327500018,2.045263152,11.01347606,13.31919887,17.43313718,16.50329302,14.06775752,11.69572195,7.013714688,2.851211725,4.201400589,10.67713105,12.77399982,15.76589753,14.15032606,12.63577386,10.48249806,7.379159901,0.167098218,0.403345874,0.957007131,0.991950294,1,0.994472794,0.939113043,0.772366561,43.49741975,-80.44806025,2015,ONH1
B97/PHB47,WIH2_2016,Y,18.9,796.7676598,0,12.5,272,133,62,61,2.185483832,6.563333432,3.447094458,4.124693788,6.707159024,6.158880111,5.945293137,1.654273513,4.758742445,67.74999878,39.38000059,44.45545418,149.2718189,18.91272705,63.86318129,228.7613642,17.11772738,143.1609097,20.07161814,17.64681498,20.48120554,20.03716075,21.00097141,18.73971629,16.31911952,14.94670844,10.3303759,18.34677419,27.65666644,25.59626749,27.3504729,29.44640147,29.15349181,26.70938079,24.21329019,20.37268081,4.840000014,15.2516667,12.43660419,15.21846351,16.18390156,17.81047537,15.29826924,12.0891497,9.537770322,6.76617685,13.67923016,11.77429452,13.6256578,15.0809804,15.56950508,13.35737665,11.10536848,8.849967039,0.729688939,1,1,1,1,0.998061418,0.979766622,0.886131912,43.32649075,-89.33882925,2016,WIH2
PHN11_PHW65_0323/LH195,ONH1_2017,N,34.6,638.443876,0,3.5,260,130,83,82.5,4.42290319,4.904999876,1.545173221,3.420435244,1.695375006,2.594700004,1.855534774,1.54565171,2.383111348,137.1099989,49.04999876,23.52600009,140.8034994,5.378000009,36.46150006,95.23350107,29.85300009,72.44250006,18.65662235,17.08545341,23.10813164,20.12586768,18.11232318,19.44819915,16.33652997,11.62209215,7.957733996,13.94322577,18.20700026,22.35689536,24.80045755,25.17183321,25.2296929,22.79396283,22.13957367,13.29532023,3.578387066,9.706999969,10.10387851,14.12185296,14.82349991,13.63261195,10.3904862,9.847475595,3.166289439,4.958212412,8.025894563,9.659097931,11.97096233,12.35740613,11.98311106,9.953455995,10.0654016,5.273375752,0.439723498,0.877642858,1,1,1,0.972410901,0.840292505,0.515578473,43.49546,-80.42596875,2017,ONH1
LH195/PHZ51,NYH3_2020,Y,17.7,731.1212129,0,3,258,134,65,64,4.422257993,0,1.373865683,3.203515064,6.161458224,3.578657229,2.247619776,1.339995863,2.270768823,137.0899978,0,18.69000064,113.6731244,12.19749978,37.86125033,87.74812532,17.041875,68.54562519,20.94560956,21.78233427,21.55267425,20.63825651,19.18147684,18.87690393,17.75633085,13.93943947,11.5316014,14.59225801,27.97729172,23.60945411,27.89842024,28.17958339,28.76829368,26.51617347,21.47489044,18.12990527,2.644717742,15.68266662,11.3508871,15.53912014,16.43281273,17.50013456,14.53010818,10.52921434,6.891416056,5.000434995,14.04753459,10.70035646,14.11697706,14.42792892,15.19886376,13.03509367,9.604727821,7.356101809,0.471947005,1,0.969562211,0.99553941,1,0.989555914,0.903066166,0.764418635,42.73227475,-76.6513705,2020,NYH3
CG44/CGR01,MOH1_2_2020,N,16.46,731.1212129,0,0,188.6,84,49,48,2.765624954,8.119999743,10.23533287,1.900197364,6.862941181,7.496322061,3.61617108,2.901626778,3.303786197,88.49999854,40.59999871,96.12411712,56.39411764,8.455882353,68.01117661,117.8082348,21.52705885,101.3270584,18.75466287,21.25211372,22.58999711,20.28617166,20.64270943,17.48834951,18.15902921,17.2011884,14.69335169,22.18656257,30.76999931,28.84882905,30.74339714,30.90558787,31.2308437,28.74780649,29.21697892,24.17436303,12.23093753,19.21800041,17.30516703,20.0610583,19.70343171,21.50444419,18.15153395,17.40346693,12.7162556,10.41798935,16.99399986,15.18178367,17.42227064,17.30450979,18.37429674,15.5665539,15.53509051,11.41105442,0.936383936,1,1,1,1,1,0.996694042,0.965786214,38.8958275,-92.2071575,2020,MOH1
B14A/H95,ONH1_2017,Y,33.55,637.1566908,0,7,255,110,82.5,82,4.42290319,4.904999876,1.545173221,3.420435244,1.695375006,2.594700004,1.855534774,1.54565171,2.383111348,137.1099989,49.04999876,23.52600009,140.8034994,5.378000009,36.46150006,95.23350107,29.85300009,72.44250006,18.65662235,17.08545341,23.10813164,20.12586768,18.11232318,19.44819915,16.33652997,11.62209215,7.957733996,13.94322577,18.20700026,22.35689536,24.80045755,25.17183321,25.2296929,22.79396283,22.13957367,13.29532023,3.578387066,9.706999969,10.10387851,14.12185296,14.82349991,13.63261195,10.3904862,9.847475595,3.166289439,4.958212412,8.025894563,9.659097931,11.97096233,12.35740613,11.98311106,9.953455995,10.0654016,5.273375752,0.439723498,0.877642858,1,1,1,0.972410901,0.840292505,0.515578473,43.49546,-80.42596875,2017,ONH1
B14A/H95,ARH2_2018,N,15.045,731.1212129,0,2,204.5,97,67,64,4.523124937,5.877777735,3.202210455,3.225384198,0.461428574,5.0703967,1.707251537,1.546976178,1.915506911,144.739998,52.89999962,46.32285666,103.4992844,0.461428574,45.6335703,42.68714207,7.346428526,59.38071425,17.7541087,19.6455271,19.52097147,20.05684428,23.80737271,19.97823453,19.1297214,18.25489796,18.05597286,19.61875001,21.92000008,22.77345622,28.90718296,31.9800005,30.98396799,32.84130907,33.56595603,31.90391706,8.73406262,10.34777779,11.28771296,17.85430307,18.706429,19.75547635,22.48266054,23.2605133,21.25223495,8.305601359,9.423215554,10.22107903,15.52009327,17.35232514,17.37984482,19.61861005,20.2782542,18.53689778,0.857433028,1,0.994106717,0.995975764,1,1,1,1,35.674241,-90.0749725,2018,ARH2
W10001_0022/PHB47,GAH1_2016,N,13.65,790.3317336,8.5,14,185,85,55.5,55,6.466250051,4.395000041,0.566421492,2.549627568,3.17469698,5.859943136,4.096967014,2.330999996,2.476261007,206.9200016,35.16000032,6.21000006,86.0200003,9.52409094,52.42727233,105.6731797,11.65499998,76.76409122,15.95696127,18.25385642,20.33100053,20.74024209,20.01064868,19.54302735,19.38198769,19.26953352,18.21451922,23.62687498,22.98249984,28.56134937,29.4983659,33.37075638,32.62719045,33.25026907,34.51499955,33.94928126,11.29749997,10.47000009,15.64744728,16.2846205,20.78287862,20.61269551,21.56927107,22.51809092,22.40467728,10.53971422,9.962440438,14.36481163,15.11313475,19.02952924,18.56859265,19.26668195,20.34390963,19.99415841,0.993928569,1,1,1,1,1,1,1,31.5079175,-83.55854775,2016,GAH1
PHW52/PHN82,MIH1_2018,Y,26.75,674.4850626,0,2,204.5,89.5,65.5,63,5.012258064,1.858571376,2.303311915,3.259516918,0,1.604151199,2.926198314,4.215530212,2.830074039,155.38,13.00999963,29.79071396,101.4421425,0,18.16214306,122.3414291,36.1057143,85.34142821,19.78619528,22.4124418,25.08845985,20.26124585,21.4032747,19.63779009,17.59687557,14.64655727,11.33533343,19.08258061,24.4042857,26.50594484,29.85917276,29.20761908,28.94024759,27.00181445,23.87253837,17.74080494,7.633548365,11.57000004,11.5577044,16.90410614,16.77238059,17.0588351,14.06431329,11.77329027,6.160183734,7.985580948,11.08545818,11.96011996,15.51317333,15.06763476,15.11768347,13.15911947,11.00371024,6.94989994,0.750656678,0.993928569,1,1,1,0.982067155,0.951173414,0.716707841,42.689234,-84.49755575,2018,MIH1
B73/MO17,OHH1_2018,Y,16.75,721.4673236,0,2,267,127,61.5,64,3.056774178,9.537500136,1.922452157,2.385565957,3.342142727,1.8544286,3.625787622,3.100846839,2.007798001,94.75999951,76.30000108,21.73714328,80.43785755,3.342142727,18.544286,121.7649994,22.15357072,61.29071423,19.31095449,14.64635724,20.72885596,20.94366931,19.27592959,20.95649317,17.99811894,17.37176276,15.4204415,15.33419351,20.99500024,26.65036435,28.81994394,32.41071347,30.66092864,28.53085842,26.94730604,24.73435724,3.376129027,12.14624989,14.55931522,16.57316253,19.49428545,18.47499986,17.24720124,15.03980618,12.05347394,5.35712311,9.832246518,13.13485159,14.9051591,17.95401161,16.59941793,15.03822312,13.39555861,11.48513665,0.534285712,0.926785712,1,1,1,1,0.999125,0.970735544,39.85688825,-83.671225,2018,OHH1
B37/H95,IAH3_2017,Y,17.7,731.1212129,0,2,229,110,65,64,4.153750014,4.476666673,3.404720357,2.207347727,0.783636364,2.628276904,1.892687593,2.328876272,1.794257086,132.9200004,67.1500001,54.03954627,78.33863542,1.567272728,28.02681865,71.85545488,19.05045461,54.69545453,16.14493189,17.75127989,18.89303832,22.07985964,20.54923199,20.99384486,19.81852315,17.22919489,15.64326955,15.84312499,15.5066665,21.42652578,27.714982,28.45522753,29.90074383,27.6545798,25.64720852,25.13760955,4.41906251,4.141333344,9.782295063,13.56526933,16.05901469,16.6123348,14.8096002,12.74600627,11.28191352,5.818880471,5.62230391,9.387130072,13.2881535,14.4256186,15.3843105,13.65871261,11.89796048,11.29223634,0.568604913,0.570380948,0.879734313,1,1,1,1,0.979205627,41.9758706,-92.24318881,2017,IAH3
CG60/LH162,INH1_2016,N,15.25,592.7488002,23.5,28,204,111,57,54.5,3.034516148,1.382857186,3.106568823,3.966270256,3.500454469,6.752636371,3.451172643,3.198528118,3.024422797,94.07000059,9.680000305,31.26000059,138.8759105,3.500454469,67.52636371,113.8927274,21.6654544,92.62590972,17.63328649,23.97511796,20.66441577,20.1236558,19.9706746,19.39149484,18.14527656,15.98533716,14.62820237,18.74516109,26.31142807,27.84898846,28.12893417,28.20272714,29.14504538,29.16779001,27.95564941,27.07739093,7.950322636,11.69428553,16.31817922,16.10606538,16.8522731,18.34872752,18.58889605,17.50284626,15.03841012,7.677100472,11.91689015,14.24288378,14.4184555,14.68521604,15.7994256,15.9329094,14.92238151,13.51734692,0.852649763,1,1,1,1,1,1,0.996102814,40.4787595,-86.98982,2016,INH1
B73/MO17,ARH2_2017,N,17.7,731.1212129,0,2,229,110,65,64,2.789999995,15.83285686,4.776016413,2.853949028,1.142500003,5.651818152,3.905948255,2.4430325,4.688621725,89.27999985,110.829998,61.6427269,88.95863769,3.003181826,52.42863608,105.2449988,13.33772746,145.3472735,17.14489296,19.09436907,20.93439511,19.65670258,19.84409681,19.1211903,18.81176407,19.65259997,17.546866,23.65656266,24.55142866,25.38541455,28.9612549,32.40098458,30.84565692,31.84241473,32.83627249,30.20087953,12.07343751,12.16142872,12.7110645,18.0477898,21.78734854,20.24410098,21.87781566,22.25639174,20.26112908,10.83878158,11.22094165,11.88579938,15.62584547,19.09416656,17.54487895,18.8103181,19.27693671,17.25265116,0.991674107,1,0.97315368,1,1,1,1,1,35.67418125,-90.0752695,2017,ARH2
B14A/OH43,ONH2_2015,Y,24.6,726.6160645,0,0,282.5,149,78,78.5,1.876451608,4.282666683,1.928005431,1.58261263,10.80264742,1.923208582,3.114388399,4.294901914,2.356388962,58.16999984,64.24000025,23.61999965,57.22470651,21.60529484,21.1552944,115.5017658,31.56294079,72.1164696,18.95380112,18.76709785,21.17743809,22.45418875,20.04103015,18.4543581,18.45373918,15.80078253,13.34539525,11.17387095,14.38466663,23.91200153,26.61279381,30.15176526,27.65053462,26.77986929,25.87464046,20.7920557,2.006774224,5.636000033,13.64950245,15.64688346,19.32647026,18.51812829,16.74694623,15.4972221,11.03054456,3.742938436,5.617129505,11.53065914,13.52353119,16.78542678,15.13421866,13.95153495,13.1846932,9.37660249,0.276970043,0.589690475,0.985132406,1,1,1,0.993019959,0.931831119,42.45408625,-81.8816065,2015,ONH2
PHW52/PHM49,NYH2_2019,N,22.35,682.8517666,0,0,225.5,116.5,74,74,3.722580618,3.873333404,3.775457026,3.802397661,4.637142726,4.204990808,3.398979968,2.823191607,3.703221173,115.3999992,34.86000064,60.3757139,137.1514286,9.274285453,51.14714244,162.2557133,52.58999984,112.9585706,17.9818517,20.79040337,20.47381334,20.12131004,17.75572211,20.43491569,15.89805393,11.9646884,8.550151526,16.21290321,21.91111098,21.50181499,26.85703989,26.63857151,27.37846155,23.54873757,18.10625893,13.03721199,5.322258069,10.30000003,10.29481231,15.55148496,16.86547597,15.01097073,12.10049902,6.865122249,3.164741908,6.134411308,9.414033746,9.284856483,13.53502553,13.97316997,13.53140509,10.78045964,7.367712917,4.9030616,0.665391704,1,0.983534167,1,1,0.983842121,0.777563161,0.485846779,42.73221403,-76.65248675,2019,NYH2
TX777/LH195,NEH4_2015,N,14.8,793.5496967,0,2,270,135,65,60,2.821875036,0,3.668207424,2.0125769,1.951249957,2.654893884,1.684158262,0.190010425,1.166079967,90.30000114,0,33.89000034,59.04687595,1.951249957,28.04999942,59.1787506,1.401875056,35.09749981,18.84220009,27.31064491,20.41342533,20.52862815,19.03072298,18.81303122,18.33826559,17.15407273,12.68489203,24.01437524,30.79399948,29.66091772,30.90712841,30.81250072,28.65153035,29.50292414,26.73776808,20.93262179,13.35843744,15.59799976,18.4981335,19.26878801,20.26031268,17.34358901,16.24316685,11.04417556,7.09840123,11.80342709,15.44887437,16.14310254,17.09436255,17.53736601,15.18702607,15.25106182,11.88303257,8.618375536,0.931774556,1,1,1,1,0.97284651,0.984144349,0.784438609,41.16732275,-96.41663225,2015,NEH4
LH195/PHN37,ONH2_2016,Y,19.55,738.8443243,0,1.5,245.5,109,74,70.5,1.435483875,1.740833327,1.463802716,3.022687524,0.150999999,1.134659085,3.046446673,1.693503778,2.765116665,44.50000012,20.88999993,18.84600039,117.1590009,0.150999999,12.25349994,101.0444998,13.16149993,84.26899996,19.72563927,22.19747464,21.68954048,21.77365896,18.98664827,19.92678304,16.69906166,15.68152671,12.9072029,14.10741935,17.58083336,26.00758685,26.04894451,27.78099985,28.79287246,28.2480382,25.9224786,23.75348014,4.257419363,7.13166666,15.03828811,14.1477789,17.72699971,17.33924119,18.24672102,15.95494667,14.17526013,5.131346137,6.986841243,12.85116395,12.65171997,14.84296497,15.26027205,15.31782021,13.26534606,11.67621189,0.511244241,0.799851209,1,1,1,1,1,0.975829282,42.4530035,-81.88279875,2016,ONH2
LH195/PHZ51,MOH2_2015,N,14.6,731.1212129,0,0.25,238.75,120,73.75,72.5,3.914838722,3.534545422,2.891676029,5.446623968,2.505882375,1.1137255,5.068586465,0.980448186,4.011119538,121.3600004,38.87999964,35.23176398,173.6929392,5.011764751,10.0235295,148.9223525,6.487058864,124.3447057,19.08701148,18.12534948,17.16717858,21.59629129,16.88945411,20.34516158,18.32895435,19.90608894,16.95494386,18.756129,18.24727275,23.87322904,29.02836507,30.59176479,31.93248319,30.27285599,28.73220747,28.34062618,6.152580692,8.059091026,15.30129973,17.80114352,21.94705907,21.39261428,20.17023127,17.40519331,17.20941189,7.288196993,7.58478923,12.05891064,15.51775091,18.26941193,18.66254873,17.2518739,15.21359182,14.97078901,0.75554147,0.814935086,1,1,1,1,1,1,38.89807917,-92.2079,2015,MOH2
PHW52/PHN82,IAH4_2015,Y,18.15,734.9827686,0,0.5,238,122,65,64,1.42451612,4.854615514,2.513668144,6.351127419,5.46999979,2.154687441,1.85099418,0.335758934,4.064770202,44.15999973,63.11000168,35.58999979,218.2399999,10.93999958,20.30812445,58.48687407,2.377500039,125.1143763,19.83997888,19.28772805,16.02270398,20.69822917,17.27718186,21.35831173,20.17303565,19.59360772,15.6142427,15.83032262,16.78769229,22.26164163,27.88725423,29.37999988,31.52784708,28.69895342,30.18404469,25.46833276,2.473548389,5.024615425,13.48280789,16.59868734,20.37374985,19.78628468,17.37298211,16.89515858,12.68514048,5.318693913,6.228847238,10.78291245,14.47529064,16.87687486,17.66054739,15.18141656,15.71210426,12.05907357,0.585391697,0.659230777,0.98994413,1,1,1,1,0.952600636,41.19970961,-91.49362406,2015,IAH4
LH198/PHZ51,TXH1_2016,N,9.95,722.1109162,0,2,216,76,69.5,69.5,1.633666698,16.13999993,0.99702422,4.719865603,0.129393939,3.277272727,13.06232457,0.703636358,1.017125621,49.01000094,112.9799995,14.5313639,177.3549991,0.33090909,36.05,378.0672674,3.179999969,30.53454577,13.9726292,10.72874144,17.88940951,17.80076093,20.55685321,19.77792414,17.90480363,20.8338604,20.14326093,22.32500016,23.95000022,24.48309256,26.40498513,28.5388636,28.63545455,30.12870319,34.35404525,35.58838723,6.034666632,13.33571414,9.675379644,13.12758779,15.78530267,16.33764454,20.13902853,23.08186362,24.00118421,8.473379033,11.29783551,10.5045992,12.46111665,14.43681279,14.72204148,17.12368238,20.53225114,20.87599038,0.915869048,1,0.972225207,1,1,1,1,1,30.54708625,-96.43393475,2016,TXH1
B37/MO17,IAH3_2019,Y,25.35,672.5542847,22.5,6,245.5,136,65,64,2.879677419,8.325833271,8.514982687,3.930253796,0.537380945,2.3054841,2.306432914,9.350841805,5.38576807,89.26999998,99.90999925,122.1842849,140.4857139,1.612142835,22.50785688,97.56999955,77.30999979,164.0414292,18.1142604,18.14433392,18.34133211,20.20102762,20.30083813,21.10542726,19.14151731,15.03963484,12.83068274,16.60032246,18.1858333,22.24543073,27.09611601,28.60416662,30.1634999,27.59661349,25.62734982,23.13272506,3.497096781,6.015833348,10.94521806,15.70806976,18.18130992,18.44873807,15.55405048,14.14793364,12.04513443,5.803122395,7.048807354,9.977529243,13.7421048,15.43701566,16.36698878,13.8976006,12.43400485,10.94701098,0.634539169,0.718095232,0.926337681,1,1,1,0.9932483,0.897879883,41.97593131,-92.24310603,2019,IAH3
PHW52/PHM49,NCH1_2017,Y,17.7,731.1212129,0,2,229,110,65,64,5.929354779,4.097142833,0.297958702,3.860588722,6.673809642,5.437090039,2.513672686,1.67758051,4.140460835,183.8099982,28.67999983,4.023333254,115.8195228,10.90952401,51.84571517,65.15761944,9.68857149,128.3542859,16.84796118,19.66078799,22.20077414,19.20396089,15.77249108,20.54839894,18.7994723,19.26606379,16.40835168,26.07000006,23.57857159,28.17011276,29.72614366,31.01404729,30.48814813,32.54721675,31.95695904,30.43138246,13.64064524,11.25142826,15.69757802,18.87536398,22.57674573,19.84793622,22.28039625,21.2748593,20.81350234,12.56442422,10.48784987,14.26665949,16.36044911,18.79940835,17.21144066,19.38557496,18.57336573,17.65269876,0.998329492,1,1,1,1,1,1,1,35.29663725,-77.5668065,2017,NCH1
LH74/PHN82,GAH1_2017,N,13.3,698.941582,0,2.5,150,75,60,60,1.929687474,5.730000019,0.343252103,3.449286585,2.107618968,4.586772466,5.884115127,3.462793619,5.790337869,61.74999917,45.84000015,4.185237975,115.4628578,3.161428452,44.24761888,164.3961923,18.00285697,179.500474,16.80249013,20.13732326,20.17342047,19.27076224,21.20480144,16.6798163,18.15858085,19.37517402,17.73704587,23.5584375,24.76124978,28.73884546,29.02932191,29.79031757,30.11825943,30.88468736,33.04158726,32.39466959,8.654999979,9.073749959,13.81601286,15.94569083,16.85142871,20.07059283,21.0580027,22.24365102,22.03411694,9.935165979,10.3201674,13.6844889,14.81363998,15.5596332,17.10789698,17.95959829,19.61349988,19.1980032,0.8834375,1,1,1,1,1,1,1,31.50794425,-83.55854475,2017,GAH1
WF9/H95,ARH1_2017,Y,17.7,731.1212129,0,2,229,110,65,64,3.058125025,3.532857077,9.871688678,6.405160528,0.516363615,5.988171668,5.119232493,3.102318153,5.34158356,97.86000079,24.72999954,132.0327285,211.6218184,0.569545432,54.36818138,136.8913653,16.08272713,165.5890903,17.13974981,16.55343887,20.38424011,18.76225527,22.81364793,19.06964508,19.53553475,19.77193111,17.12972935,24.60906261,23.96000045,24.77057006,28.06605652,30.35469691,31.5146664,31.30577636,32.78459133,30.91587993,11.9175,14.17857156,11.8445801,17.60850246,18.97249995,21.30615642,21.39979275,22.50533316,21.62237538,11.1639709,11.77578055,11.22655186,14.97537354,16.74359516,18.41041141,18.33049426,19.54768126,18.22457608,1,1,1,1,1,1,1,1,34.7272515,-90.76032575,2017,ARH1
PHG80/PHZ51,IAH1_2015,Y,20.25,696.3672116,0,1,283,148.5,65,64,1.566451638,2.213076954,8.402418557,1.323463692,0.084411761,2.297359398,2.93999255,2.37101191,2.732793763,48.56000078,28.7700004,122.1399999,43.52999979,0.168823523,22.82352863,100.1182349,16.67000003,83.81294001,20.43214903,18.85811498,14.63317728,22.31276759,19.14227258,22.20806523,19.83862588,18.33763158,15.0581957,16.08774191,16.64538457,21.84697853,28.7334183,30.26852911,31.30747052,29.05105531,29.39636272,24.66946357,1.839032284,4.865384661,13.12892854,16.86768962,20.05941139,18.05705196,16.3929614,15.43749916,11.17229855,5.447129731,6.098188577,10.48240964,14.99632473,17.16639266,16.72884186,14.96924927,14.77137221,11.30644361,0.593087559,0.682994502,0.988452545,1,1,0.997626801,1,0.896934674,41.9980952,-93.69336973,2015,IAH1
PHW52/PHN82,NCH1_2019,N,17.7,731.1212129,0,2,229,110,65,64,2.191129027,0,0.107342031,4.775073233,0.466011907,4.533660718,6.24100048,2.370892844,2.941295675,67.92499983,0,1.347142833,143.4146411,0.94178571,36.26928575,165.0100003,13.54249993,91.02821354,18.69452832,25.30126673,21.77382428,19.07893176,22.56876209,20.7892765,19.22903807,18.96679552,16.71087377,25.69580629,28.76666609,32.29891346,30.08294473,33.3002377,33.83080339,32.75741781,32.04927549,30.79691829,13.34274195,12.19133326,19.06280588,18.61089734,20.56851188,21.23558053,21.08131414,19.9046464,19.77832645,12.18436683,13.33597385,17.64216348,16.39126772,18.88342746,19.44075481,18.8247811,17.98080212,17.31161093,1,1,1,1,1,1,1,1,35.67010175,-78.510504,2019,NCH1
B14A/H95,MIH1_2017,Y,25.6,664.1875807,0,5,101.5,56,66.5,67.5,2.651290334,1.642500043,0.365195355,3.685889798,0.022982455,0.462972321,1.745768067,1.924198947,6.215848807,82.19000036,13.14000034,4.417894763,131.6678931,0.068947365,5.871578781,77.40789432,25.15789459,187.919471,20.75480046,19.52619267,24.47429891,19.89055103,21.94334328,22.12060477,17.47908742,14.76431364,9.641321864,18.99677434,22.1187501,26.44652255,27.49693157,27.7329823,27.82492569,25.37386911,24.10071042,20.63989867,5.961290348,11.91874993,11.36318641,16.0503933,16.08877179,14.96255052,12.27657104,9.93890341,8.936309075,7.303217139,10.01258026,11.86785018,14.06113521,14.11607898,13.75096176,11.67659513,10.59348898,9.148775778,0.770126733,1,1,1,1,0.999072621,0.949278334,0.816440377,42.68116575,-84.49434125,2017,MIH1
CG60/LH162,GAH1_2015,N,13.5,753.6469545,0,27,145,55,48,49,4.231249915,0,5.95843649,3.852603143,2.594000032,2.429925956,4.217759372,2.225466652,2.667397826,135.3999973,0,82.56599903,137.5619979,4.851333332,21.8693336,117.5779999,11.12733326,82.68933261,16.59936112,21.58269278,19.11661296,20.61616366,14.5260024,17.86473659,19.792993,19.1551459,18.46432438,25.43281227,26.81500022,26.00854227,27.82657943,29.9603331,30.57562955,31.8228303,33.58693334,33.75221527,12.50374998,10.5999999,12.24448314,13.90452364,20.76811106,20.25348139,20.64254904,22.17719986,22.29090342,11.85447967,11.72664631,11.94062668,13.41492991,17.36422208,17.41455547,18.23714923,19.83066815,19.89653894,0.988973219,1,1,1,1,1,1,1,31.505771,-83.555095,2015,GAH1
TX714/TX779,NCH1_2020,N,20.925,712.457027,3,0,235.9375,125.3125,65,64,3.811250031,6.583749771,1.870150701,7.593384547,0.8842857,2.636686467,3.330713381,6.121142871,7.323433169,121.960001,52.66999817,29.28357046,255.9407139,2.652857099,23.48571392,94.03142862,30.32857149,227.0264283,17.79310012,18.2030313,21.90311614,16.62410426,22.73441878,20.97653859,20.54309533,18.15988809,15.65141399,21.6678125,23.21999979,23.34870433,27.04964214,28.2173808,30.95634976,33.07043217,33.2972859,31.24656685,8.082812505,11.53125006,9.51933213,18.09668861,18.19142909,20.58560522,22.1124513,22.85800005,21.91055295,8.88590596,10.34544598,9.896418393,14.69404398,15.249625,17.76881847,19.50312724,19.99035698,18.5620876,0.935200903,1,0.995619773,1,1,1,1,1,35.30009892,-77.57131746,2020,NCH1
PHG29/PHG47,OHH1_2017,N,14.8,751.072584,0,2,229,110,65,64,4.401935447,12.29571451,4.299880116,6.252045262,18.36299991,4.892395558,3.195317293,3.431958172,3.794688752,136.4599988,86.0700016,53.63949916,223.8204996,40.86499989,50.26800107,124.097,30.99400014,115.4320013,19.0647902,19.03427505,21.00226491,20.15032754,19.69555429,18.89580098,18.69837911,16.0400155,13.85510684,20.47903239,25.43142836,25.24002704,27.25803818,28.09541678,28.73270468,26.30456447,24.69395371,24.25720733,8.011935501,13.44999967,12.59882409,15.91673102,16.75358336,18.39824095,14.97688189,13.11535887,11.81284403,8.407228033,12.106522,11.63721293,13.8931373,14.6377479,15.63224373,13.07252875,11.66012039,11.13333271,0.85352535,1,1,1,1,0.996926048,1,0.96495674,39.855785,-83.66477375,2017,OHH1
B73/PHZ51,NEH1_2015,N,14.15,794.1932893,0,2,260,130,65,55,2.959062506,0.753999996,4.745632833,2.187040691,0.179999996,3.601448917,1.548000793,0.057812502,1.589214364,94.69000018,3.769999981,46.84999943,63.50812512,0.239999995,39.12187557,55.49499987,0.586250016,47.85812447,19.07194562,25.84699936,20.00593662,19.96245842,20.96463704,17.86296284,18.31175333,17.30405645,12.3794141,23.74906254,30.51399994,29.13009987,30.74148671,30.73750019,28.43858622,29.13031746,26.88374984,20.12342532,13.19218739,15.46999989,18.04036499,19.18092822,19.11281252,17.33248289,15.92131484,11.1533021,6.525200269,11.64481375,15.25955733,15.68336601,16.96891106,16.93845514,15.07345461,14.95183393,12.01070089,8.15887847,0.924598212,1,1,1,1,0.96969665,0.982957588,0.758540943,41.290979,-96.41664325,2015,NEH1
LH195/PHZ51,MNH1_2015,Y,16.85,740.1315095,1,7.5,241,127,77,76,2.676451665,6.10285713,1.587216104,4.707726326,2.093823531,4.685775359,5.935015669,2.223261507,2.198788145,82.97000162,42.71999991,19.59000013,155.007059,3.965294123,52.23235247,227.0947085,20.90117698,67.40117758,19.81693462,15.87546921,21.62818458,20.65236193,17.21434565,21.12123323,17.7408483,14.5374504,12.06297535,17.43387093,22.63000025,27.28921799,28.46423671,28.36529418,28.07899716,26.14089523,24.73259507,17.90095705,4.567419307,13.73428563,14.30007362,16.89716897,18.65411764,16.19745995,14.75643511,13.57280729,6.634647692,6.2838161,10.87437977,13.26905608,14.87023808,15.64114514,14.35392043,12.99006372,12.46836687,7.55733068,0.722983866,1,1,1,1,0.977703003,0.878626049,0.721229646,44.07038575,-93.53519625,2015,MNH1
B73/MO17,WIH2_2015,Y,36.5,754.9341397,0,0,261.5,150,65,64,3.126774188,2.655000041,4.103605878,5.336067251,1.868823528,3.142847566,3.066358713,6.463272165,3.426278957,96.92999983,15.93000025,53.58117651,186.0694135,5.435882344,36.03705852,132.4747064,52.80117733,103.4994124,19.63646212,20.57311455,21.5892617,21.07111177,18.36300238,19.20517036,18.54583572,13.68038168,11.37476292,15.6409678,24.97666677,26.11823115,28.09529077,27.51588227,27.91298604,26.4469062,23.95331443,17.63645543,3.355806466,13.62666686,13.88922494,15.17788174,17.2276475,16.92946091,13.73434519,12.63733902,6.343913375,5.370860554,11.93138906,12.65256426,14.04290221,14.43586033,14.57588984,12.76646014,11.49482956,7.023163717,0.588214292,1,1,1,1,0.979783322,0.914260835,0.715230077,43.3264485,-89.33359975,2015,WIH2
F42/H95,IAH1_2017,Y,17.7,731.1212129,0,2,229,110,65,64,3.40562493,4.965384584,4.756276119,1.833606587,3.814090996,2.221484887,3.670808328,1.81325484,2.347473118,108.9799978,64.54999959,71.28272616,63.78727258,4.177727374,22.83863677,118.9068186,13.7622725,72.03681816,16.19865167,17.41178014,18.84198651,22.07722619,19.57094626,20.6423577,19.65334879,19.12382584,16.87809105,17.11343735,15.37846162,22.95951679,28.09807267,26.50742381,30.27960591,29.79948923,26.92834941,26.37674051,5.413125027,4.923076978,11.46549016,14.16962528,11.61757578,16.65775237,16.66504091,13.38757222,12.41510662,6.530778339,5.768563812,10.45370215,13.71965113,11.94783378,15.64262598,15.39964617,12.71239892,12.1737806,0.629988832,0.555054952,0.946458762,1,1,1,1,0.998130952,41.19924609,-91.49402296,2017,IAH1
B73/PHM49,DEH1_2017,N,17.7,731.1212129,0,2,229,110,65,64,2.917187458,6.201428686,3.00780289,3.517983876,1.211428521,1.632751291,5.214259368,11.31934688,4.882730708,93.34999865,43.4100008,45.34571489,126.7790489,1.268571377,15.48333303,157.8533328,69.24809492,151.3147631,17.05647962,17.73228645,20.71096481,19.57386043,19.15556694,20.88592809,18.21237176,18.15756056,16.58607394,20.26624998,24.66142872,21.72245043,26.82298965,30.35071437,30.31148162,30.69555299,28.43090921,27.29702356,9.32593758,14.19571427,10.68752201,16.75855213,19.906349,19.88150788,21.21690322,18.72144455,17.91444491,8.690479953,12.08402314,9.787934269,14.12431868,17.15482568,17.14050735,17.94790556,15.63546309,14.74613823,0.907287956,1,0.959736116,1,1,1,1,1,38.67025825,-75.4333645,2017,DEH1
CG44/CGR01,TXH1-Early_2018,N,10.25,713.1006196,0,2,209.5,60,72,62,2.442333295,0.87833333,4.91741256,2.91095925,1.112321411,5.987347663,3.094033648,2.445309502,2.573656677,73.26999886,5.269999981,55.2178573,113.3721426,4.449285643,64.36357035,86.72785865,13.67714274,77.357857,13.4988633,14.49154552,13.92485348,19.6618496,19.390827,19.64184359,19.38410293,21.21373351,18.01258323,19.68933331,26.95833333,25.66614373,26.56996845,30.24238085,29.14372996,31.91805433,33.2644762,34.51160554,6.357666679,15.03999996,15.13755815,13.69055459,18.24071415,16.44843436,20.63070323,20.50154739,23.97494014,7.613570572,13.40715604,12.87528071,12.79536137,16.34410207,15.0664779,18.21233438,18.75919739,20.40606275,0.821476194,1,0.991620595,0.99408643,1,1,1,0.999013392,30.546318,-96.4329965,2018,TXH1-Early
LH212HT/LH195,ILH1_2015,Y,12.1,768.4495847,0,0.5,270,125,73.5,73,4.343437491,1.296153843,7.654899739,5.34311295,3.674999952,2.467291633,4.647268051,0.712819956,1.951907909,138.9899997,16.84999996,99.86750055,177.342501,7.349999905,22.2056247,144.0256246,5.039375113,60.06187434,19.4076893,20.21820178,17.58012378,22.59231729,17.35775694,20.12242863,18.79551315,20.37165926,16.80998738,15.69375022,16.27615364,23.81483975,28.77428317,30.28249967,31.91701372,28.65899596,28.4854072,27.09877011,2.916875011,4.602307732,13.93389792,16.26044709,20.47749984,20.41381959,17.79543547,15.77196732,14.62672175,5.339800043,5.921635642,11.53105666,14.7484369,17.37999976,18.17178164,15.31569586,14.44648847,13.36421336,0.599162964,0.636840646,1,1,1,1,1,0.99828125,40.05982425,-88.23397575,2015,ILH1
PHW52/PHM49,NYH3_2019,Y,24.95,718.2493605,2,3,221.5,100,79,78,3.722580618,3.873333404,3.769554008,3.757958966,6.56821411,3.88506864,3.604603585,1.929858492,3.709694332,115.3999992,34.86000064,61.04857108,135.2235714,13.13642822,47.6607138,172.5314276,35.27499978,112.0914282,17.9818517,20.79040337,20.53458356,20.20586531,15.56107187,20.47665645,15.7702462,13.42945136,8.802352299,16.21290321,21.91111098,21.5613082,26.8770008,26.27928579,27.19863099,23.33754175,19.77308355,13.39834902,5.322258069,10.30000003,10.31609792,15.50927174,17.62488075,14.92700095,12.00041282,8.027538821,3.378330702,6.134411308,9.414033746,9.318517767,13.52970479,14.11503311,13.40897889,10.69134109,8.327220554,5.109082433,0.665391704,1,0.983452189,1,1,0.970435943,0.837841689,0.510564168,42.7321756,-76.65345463,2019,NYH3
F42/MO17,GAH1_2018,N,14.395,739.3591984,18,7,225,105,60.5,59.5,4.231249915,1.934999943,5.575464231,3.801027214,1.067857163,3.256190501,3.932246866,3.816857059,2.685023025,135.3999973,11.60999966,76.79571342,135.0185695,1.516428607,29.30571451,107.1921429,19.08428529,83.23571379,16.89130574,18.83037901,19.9789379,20.32622599,17.16636637,17.47509449,19.98058203,18.77657547,18.35496912,25.6268748,28.56500022,25.46428012,27.96417186,30.5753573,30.54857133,31.9994497,33.07128549,33.68336431,12.70062498,14.46999963,11.35988473,14.27301998,20.47928579,20.42444427,20.68398901,21.82542842,22.30905548,11.99291119,13.91639365,11.33534042,13.63652225,17.52732154,17.4865078,18.33967815,19.36985553,19.8838857,0.988973219,1,1,1,1,1,1,1,31.50582525,-83.55515025,2018,GAH1
F42/H95,MIH1_2018,Y,23.85,671.9106921,3,1.5,222.5,102.5,65,60.5,5.012258064,1.858571376,2.303311915,3.259516918,0,1.604151199,2.926198314,4.215530212,2.830074039,155.38,13.00999963,29.79071396,101.4421425,0,18.16214306,122.3414291,36.1057143,85.34142821,19.78619528,22.4124418,25.08845985,20.26124585,21.4032747,19.63779009,17.59687557,14.64655727,11.33533343,19.08258061,24.4042857,26.50594484,29.85917276,29.20761908,28.94024759,27.00181445,23.87253837,17.74080494,7.633548365,11.57000004,11.5577044,16.90410614,16.77238059,17.0588351,14.06431329,11.77329027,6.160183734,7.985580948,11.08545818,11.96011996,15.51317333,15.06763476,15.11768347,13.15911947,11.00371024,6.94989994,0.750656678,0.993928569,1,1,1,0.982067155,0.951173414,0.716707841,42.689234,-84.49755575,2018,MIH1
PHP02/PHB47,NEH4_2017,N,12.95,810.9266974,6.5,2.5,81,34.5,65,64,4.590322548,9.024000108,0.479867887,3.811963874,0.538484848,1.684924238,2.267850047,4.65714279,3.86350146,142.299999,90.24000108,5.110000134,117.465454,1.615454544,15.13454541,79.63181698,32.59999953,117.4254543,19.43913734,17.21531701,24.1724839,20.95919975,19.50871722,19.21508163,18.90739129,17.69743939,15.39985704,20.62225799,19.52599983,28.59420128,30.06742287,31.22545445,32.42712118,28.61649727,28.47933405,26.83248677,7.519354824,9.509000063,13.57084537,16.75424147,19.44181835,20.40977276,17.16375472,15.74751643,13.71007622,8.50655754,8.450389052,13.62685976,15.58817353,17.34314748,18.36849178,14.97842881,14.34457974,12.87682879,0.797626729,0.881249991,1,1,1,1,1,0.994264069,41.162,-96.409,2017,NEH4
B37/MO17,TXH3_2020,N,9.555,1796.910587,0,2,231.14,91.44,61.5,59.5,3.45875001,5.345714297,0.996479651,4.090893152,11.37176514,0.055555557,3.334418123,0.880352915,2.226110039,110.6800003,37.42000008,12.08058808,124.9758839,22.74353027,0.450000013,88.32823513,3.714117541,69.00941121,15.8034201,18.34009743,21.30541133,19.40762275,20.16580067,20.62125497,19.02899565,16.94703156,18.75160362,25.77062485,24.00285694,27.63577502,29.95402965,30.19186265,32.38063702,33.36328143,35.03835301,35.63206825,14.19906271,12.24428552,13.92062761,17.60156859,18.33921522,21.14142164,21.88591696,25.71364726,24.34760913,12.60372436,11.20425028,13.29865333,15.96364287,16.27361839,18.69618421,19.4144726,21.47019646,20.81901077,0.989866069,1,1,1,1,0.99995416,0.999321567,0.998827006,30.53869475,-96.4274175,2020,TXH3
PHP02/PHB47,DEH1_2017,Y,20.55,697.6543968,0,2,229,122.5,63,63,2.917187458,6.201428686,3.00780289,3.517983876,1.211428521,1.632751291,5.214259368,11.31934688,4.882730708,93.34999865,43.4100008,45.34571489,126.7790489,1.268571377,15.48333303,157.8533328,69.24809492,151.3147631,17.05647962,17.73228645,20.71096481,19.57386043,19.15556694,20.88592809,18.21237176,18.15756056,16.58607394,20.26624998,24.66142872,21.72245043,26.82298965,30.35071437,30.31148162,30.69555299,28.43090921,27.29702356,9.32593758,14.19571427,10.68752201,16.75855213,19.906349,19.88150788,21.21690322,18.72144455,17.91444491,8.690479953,12.08402314,9.787934269,14.12431868,17.15482568,17.14050735,17.94790556,15.63546309,14.74613823,0.907287956,1,0.959736116,1,1,1,1,1,38.67025825,-75.4333645,2017,DEH1
PHB47/PHN82,NYH3_2020,Y,14.4,741.4186947,0,3.5,230,105.5,64.5,64.5,4.422257993,0,1.373865683,3.203515064,6.161458224,3.578657229,2.247619776,1.339995863,2.270768823,137.0899978,0,18.69000064,113.6731244,12.19749978,37.86125033,87.74812532,17.041875,68.54562519,20.94560956,21.78233427,21.55267425,20.63825651,19.18147684,18.87690393,17.75633085,13.93943947,11.5316014,14.59225801,27.97729172,23.60945411,27.89842024,28.17958339,28.76829368,26.51617347,21.47489044,18.12990527,2.644717742,15.68266662,11.3508871,15.53912014,16.43281273,17.50013456,14.53010818,10.52921434,6.891416056,5.000434995,14.04753459,10.70035646,14.11697706,14.42792892,15.19886376,13.03509367,9.604727821,7.356101809,0.471947005,1,0.969562211,0.99553941,1,0.989555914,0.903066166,0.764418635,42.73227475,-76.6513705,2020,NYH3
B37/MO17,TXH1-Late_2018,N,11.25,756.8649175,0,2,247.5,85,62.5,61,3.579375003,7.22999986,0.880950212,3.393996506,5.74642872,3.619146949,3.455600496,0.428285708,2.278709721,114.5400001,43.37999916,11.7107143,109.309285,11.49285744,35.41714406,87.15857094,2.141428539,70.64000136,15.18905504,16.98149872,20.4111462,19.99876216,15.81608334,20.1152116,19.58230121,16.39417859,18.61523184,25.42156261,25.48166672,24.9240565,29.86096768,30.55928573,31.11103384,33.47173554,33.67857067,35.62923946,13.73406251,14.7233332,12.14174484,16.97683375,21.17380969,19.92907914,21.60030195,24.8844286,24.53525352,12.24876106,12.9546326,11.47321097,15.6369769,17.86869493,17.49319399,19.34856645,20.63058471,20.90474588,0.995234379,0.961607144,1,1,1,0.999944236,0.999152383,0.999033412,30.546318,-96.4329965,2018,TXH1-Late
F42/OH43,INH1_2015,N,17.9,679.6338035,0,6,225,98,68,67,2.968064535,5.608750075,2.401797478,2.620596579,1.049062505,3.048312443,3.454130844,1.332533481,1.484370975,92.01000059,44.8700006,26.44312483,85.12437463,1.715625018,30.48312443,116.5724995,9.316249996,45.68062523,19.44608656,13.59046638,21.88315593,21.65689439,20.60130358,19.73326552,18.77560381,17.99738388,15.64927463,15.67580632,21.0562501,27.44396829,29.52449332,32.66781175,30.16981242,28.17317586,28.46934151,25.5406298,3.004516139,13.05249977,15.22068343,16.62214482,19.56843758,18.02818774,16.71489706,16.46563638,12.56847521,5.360930658,9.9438759,13.725819,15.26696414,18.11812466,16.1828721,14.63810214,14.67667849,11.95902497,0.609504607,1,1,1,1,1,1,0.986081101,40.477075,-87.000205,2015,INH1
PB80/PHZ51,NCH1_2017,N,18.05,731.1212129,0.5,2,240.5,110,65,64,5.929354779,4.097142833,0.297958702,3.860588722,6.673809642,5.437090039,2.513672686,1.67758051,4.140460835,183.8099982,28.67999983,4.023333254,115.8195228,10.90952401,51.84571517,65.15761944,9.68857149,128.3542859,16.84796118,19.66078799,22.20077414,19.20396089,15.77249108,20.54839894,18.7994723,19.26606379,16.40835168,26.07000006,23.57857159,28.17011276,29.72614366,31.01404729,30.48814813,32.54721675,31.95695904,30.43138246,13.64064524,11.25142826,15.69757802,18.87536398,22.57674573,19.84793622,22.28039625,21.2748593,20.81350234,12.56442422,10.48784987,14.26665949,16.36044911,18.79940835,17.21144066,19.38557496,18.57336573,17.65269876,0.998329492,1,1,1,1,1,1,1,35.29663725,-77.5668065,2017,NCH1
B37/OH43,MNH1_2018,N,22.15111111,703.6612612,0,2,243.5555556,116.8888889,64.66666667,61,2.793871032,5.664285694,1.881383508,4.66962568,0.280777779,5.314848416,5.503097756,4.902593174,1.744490341,86.61000198,39.64999986,19.66333312,156.0266671,0.653333338,61.18466587,207.3246693,42.5680015,52.61600056,18.68617175,18.6483766,23.22190313,20.23498137,21.88409551,21.20453879,17.43849101,14.02805899,11.47763682,18.24580648,23.51142883,30.49568208,28.40295697,27.67288871,27.88288382,26.24424925,23.489937,17.2954947,6.62290317,13.35285704,16.1020056,17.07111629,16.25377796,15.7901465,14.83515609,12.42970144,6.347470975,7.12789267,11.15082684,15.42136783,14.91719499,14.1582049,14.10491894,13.08066536,11.20324133,7.126560519,0.79756912,1,1,1,1,0.978734696,0.910102722,0.699884152,44.07044721,-93.53494127,2018,MNH1
PHN11_PHW65_0323/LH195,MOH1_2_2018,N,18.975,731.1212129,0,2,222,106.25,55.5,55.25,4.419032262,0.120000001,6.56660792,4.995913726,0,0.865952386,4.867908623,7.318145406,3.629241153,136.9900001,0.840000004,71.60142667,150.6285707,0,7.793571472,145.6157139,39.85928573,112.0157138,18.39395777,18.46565301,20.1607481,20.70593221,19.87326009,21.97749135,18.06982858,17.46468943,16.31914076,19.5254839,22.76714298,27.16554273,29.60936822,31.6271427,32.32420578,29.51628185,29.85375934,27.04843165,7.99741943,14.14714282,16.43732974,18.81172612,21.79964249,20.71007941,19.44316189,19.21155699,15.91814144,7.992986492,11.1555316,14.00535673,16.26359619,18.7133926,18.51714259,16.54699664,16.60044059,13.86670431,0.872361758,1,1,1,1,1,1,0.995607144,38.89555425,-92.20964575,2018,MOH1
B37/MO17,NYH2_2019,Y,20.5,703.4467303,2.5,4,227.75,118.25,69.75,69.5,3.722580618,3.873333404,3.775457026,3.802397661,4.637142726,4.204990808,3.398979968,2.823191607,3.703221173,115.3999992,34.86000064,60.3757139,137.1514286,9.274285453,51.14714244,162.2557133,52.58999984,112.9585706,17.9818517,20.79040337,20.47381334,20.12131004,17.75572211,20.43491569,15.89805393,11.9646884,8.550151526,16.21290321,21.91111098,21.50181499,26.85703989,26.63857151,27.37846155,23.54873757,18.10625893,13.03721199,5.322258069,10.30000003,10.29481231,15.55148496,16.86547597,15.01097073,12.10049902,6.865122249,3.164741908,6.134411308,9.414033746,9.284856483,13.53502553,13.97316997,13.53140509,10.78045964,7.367712917,4.9030616,0.665391704,1,0.983534167,1,1,0.983842121,0.777563161,0.485846779,42.73221403,-76.65248675,2019,NYH2
LH198/PHZ51,NYH1_2017,N,16.75,731.1212129,0,2.5,242.5,123.5,76.5,74,4.758709581,4.139999986,2.953024942,5.715506232,4.320872878,2.701732063,2.616328443,1.022630585,3.614268439,147.519997,37.25999987,45.12618999,219.9223815,11.26857107,35.6957141,128.4247627,13.30476207,110.8900009,18.97444351,17.81005277,22.0763727,19.38397475,18.56141379,19.22534974,16.71382568,13.43506643,9.037548332,17.06967752,20.23333359,22.7745171,25.66488699,26.70396817,25.32691524,23.26007272,23.96840526,17.61119819,5.964193534,10.19,10.93717632,15.20362294,16.36293638,14.60656728,11.31793404,11.56685323,6.669544781,6.641127344,8.727253675,10.15270493,12.79474615,13.71935226,12.37567782,10.45035179,10.9124923,7.239151369,0.685760371,1,1,1,1,0.982493678,0.953634339,0.701363064,42.72880835,-76.6515625,2017,NYH1
F42/MO17,TXH1_2016,N,9.65,695.0800263,0,2,218.5,82.5,71,71,1.633666698,16.13999993,0.99702422,4.719865603,0.129393939,3.277272727,13.06232457,0.703636358,1.017125621,49.01000094,112.9799995,14.5313639,177.3549991,0.33090909,36.05,378.0672674,3.179999969,30.53454577,13.9726292,10.72874144,17.88940951,17.80076093,20.55685321,19.77792414,17.90480363,20.8338604,20.14326093,22.32500016,23.95000022,24.48309256,26.40498513,28.5388636,28.63545455,30.12870319,34.35404525,35.58838723,6.034666632,13.33571414,9.675379644,13.12758779,15.78530267,16.33764454,20.13902853,23.08186362,24.00118421,8.473379033,11.29783551,10.5045992,12.46111665,14.43681279,14.72204148,17.12368238,20.53225114,20.87599038,0.915869048,1,0.972225207,1,1,1,1,1,30.54708625,-96.43393475,2016,TXH1
PHG29/PHG47,IAH2_2017,N,13.3,727.2596572,0,6,208,93.5,65,64,2.991935476,4.003749907,5.594154361,1.824159742,2.965909053,1.138616173,3.544395797,5.525860929,3.224964342,92.74999976,32.02999926,86.83999968,64.74363607,5.880909015,11.03545466,133.6850016,39.36636487,98.02272796,18.91811151,22.03083944,18.39067038,21.91300981,21.59707026,21.00058551,18.76246256,16.50136756,14.56336975,16.70258062,25.25375009,21.16444029,28.78792803,31.34295403,31.03890899,27.79230679,26.54138994,25.01808603,3.836129038,9.060000002,9.836484062,14.72352594,17.1804546,18.00485339,15.61890002,13.9478747,12.25710857,5.884356407,10.52058178,9.325556586,14.19611432,16.29393371,16.57150033,14.05801276,12.73803514,11.57992501,0.659274195,1,0.882113053,1,1,1,1,0.976890029,42.06582876,-94.72050129,2017,IAH2
LH74/PHN82,NEH2_2018,Y,14.6,769.7367699,0,2,259,108.5,65,64,1.223548393,0.707272736,4.763911635,2.422660693,9.359230876,1.187769238,2.22139935,1.060615372,2.655643509,37.93000019,7.780000091,61.58923048,72.52538565,18.71846175,11.03461544,72.02230704,6.795384554,82.07230774,19.8632896,17.86074517,17.24350838,22.63499015,18.62862352,21.21286184,19.62237806,18.45252819,16.56870138,17.6919355,17.47909086,23.04657186,30.81178887,30.82346183,31.15499996,29.41523597,30.138927,26.57117624,3.026129,6.979090886,13.86801705,18.31582591,19.94076905,19.05673485,17.52505525,17.69200753,12.69636803,6.275299993,6.965919572,11.10889174,16.66188215,17.38211544,17.1119836,15.61857368,16.09025205,12.68735507,0.68033411,0.762240243,1,1,1,0.996687975,0.997695055,0.910447978,41.38042275,-96.55988375,2018,NEH2
F42/H95,WIH1_2020,Y,19.9,700.2287673,0.5,0,277.5,142.5,75,74,1.598387111,6.507143004,4.413520471,5.455426438,9.576153682,6.848251811,1.847198819,1.302442385,3.233674973,49.55000043,91.10000205,54.05307698,191.9769218,14.76999958,75.33076992,75.52923148,17.19923096,99.29769339,20.3303612,17.70938441,19.63774696,21.71928057,19.47191414,18.08778093,19.52506722,17.02277317,12.74244368,13.80935484,15.78214281,24.71870171,28.0331271,31.3961547,28.17125902,26.95535567,26.2427393,20.06715065,1.332903252,5.150000061,13.25869882,14.90724568,18.80923077,17.63741262,14.66820073,13.00544381,8.429758508,4.404075426,5.920121855,11.73838603,13.88054584,17.12955683,14.95247276,13.30208011,12.63591888,8.588509069,0.46481566,0.623010193,1,1,1,0.987099279,0.934776512,0.808464704,43.05505505,-89.52853825,2020,WIH1
CG60/LH162,ARH1_2017,N,23,528.3895385,0,2,161.25,94.6,58,58,3.058125025,3.532857077,9.871688678,6.405160528,0.516363615,5.988171668,5.119232493,3.102318153,5.34158356,97.86000079,24.72999954,132.0327285,211.6218184,0.569545432,54.36818138,136.8913653,16.08272713,165.5890903,17.13974981,16.55343887,20.38424011,18.76225527,22.81364793,19.06964508,19.53553475,19.77193111,17.12972935,24.60906261,23.96000045,24.77057006,28.06605652,30.35469691,31.5146664,31.30577636,32.78459133,30.91587993,11.9175,14.17857156,11.8445801,17.60850246,18.97249995,21.30615642,21.39979275,22.50533316,21.62237538,11.1639709,11.77578055,11.22655186,14.97537354,16.74359516,18.41041141,18.33049426,19.54768126,18.22457608,1,1,1,1,1,1,1,1,34.7272515,-90.76032575,2017,ARH1
F42/MO17,SDH1_2015,N,23.7,620.4232827,0.5,2,174,93,74.5,66.5,1.890000034,2.68444448,2.847212523,0.928406021,1.08916667,1.213193166,1.12388612,3.994558873,0.570569385,58.59000105,24.16000032,33.86000057,31.14874977,1.720000006,12.77624983,39.02562428,27.90249949,17.65812508,21.16446504,23.3864585,24.03054242,23.94878495,21.74335716,21.42490048,20.60212775,16.27746828,15.18579983,19.04290341,22.5888888,27.20826416,30.46229654,29.54760476,31.86073879,31.47770382,29.48664523,24.89733582,4.208709664,8.468888919,11.69082143,14.25969647,14.29062517,16.06534098,14.02269822,14.11578116,6.942900096,6.807516906,9.210660666,12.27390437,14.67606113,14.18888263,15.81431879,15.00552731,14.17539039,9.834808296,0.77025346,0.983690483,1,1,1,0.983472358,0.961069402,0.950039755,44.208745,-102.928745,2015,SDH1
B73/MO17,INH1_2016,N,19.75,664.8311733,24.5,23.5,268.5,143,65,63,3.034516148,1.382857186,3.106568823,3.966270256,3.500454469,6.752636371,3.451172643,3.198528118,3.024422797,94.07000059,9.680000305,31.26000059,138.8759105,3.500454469,67.52636371,113.8927274,21.6654544,92.62590972,17.63328649,23.97511796,20.66441577,20.1236558,19.9706746,19.39149484,18.14527656,15.98533716,14.62820237,18.74516109,26.31142807,27.84898846,28.12893417,28.20272714,29.14504538,29.16779001,27.95564941,27.07739093,7.950322636,11.69428553,16.31817922,16.10606538,16.8522731,18.34872752,18.58889605,17.50284626,15.03841012,7.677100472,11.91689015,14.24288378,14.4184555,14.68521604,15.7994256,15.9329094,14.92238151,13.51734692,0.852649763,1,1,1,1,1,1,0.996102814,40.4787595,-86.98982,2016,INH1
B73/TX779,TXH2_2019,Y,11.245,799.3291584,0,0,221,80,69,67.5,1.71448275,0.072857141,3.656594302,9.095434564,0.409285716,1.207678571,5.355850783,1.246142852,1.574419343,49.71999974,0.50999999,52.00785631,328.2121388,0.592857139,9.661428571,146.4478573,6.531428533,47.51499965,15.42805705,20.52131135,18.76898834,18.57032559,21.42349659,18.85281525,20.14881361,21.03072751,19.84089234,18.45000007,25.76428577,24.43254944,27.27586732,31.09000002,32.37866099,32.72435205,34.04471448,34.98200776,6.826206914,10.35000004,10.67963154,14.78766739,18.65857179,21.85071427,21.02442735,21.79614282,22.6049739,7.457816468,11.1589152,10.85119479,13.46630403,16.91193677,19.11412105,18.84765314,19.77807102,20.01419559,0.749667494,1,0.945308164,1,1,1,1,0.999698925,30.546318,-96.4329965,2019,TXH2
LH74/PHN82,IAH2_2019,Y,20.3,716.9621753,0.5,0,206,95,65,64,1.624999978,4.994666719,7.633826981,4.023414549,10.53523836,1.22350002,2.763567443,7.261517829,4.773321835,51.99999928,74.92000079,126.7292866,144.3807149,31.60571507,12.2350002,103.2057142,58.23357121,145.3535721,19.40078695,15.59915857,17.73377221,20.37141966,18.69170743,21.11460887,19.04896103,16.46108124,13.94542613,15.78031255,14.78666655,21.30773964,26.90560141,30.4667857,29.3667858,27.70213024,26.0789087,24.69893011,1.823749996,4.276000045,9.222208134,15.06467224,19.71440506,18.17542877,16.74212177,15.32632928,13.45358666,5.188982368,5.371381143,9.150668224,13.41851256,17.10626668,15.79657396,14.44283917,13.04517908,11.92357614,0.546495539,0.532857125,0.866155154,0.998157434,1,1,1,0.956872449,42.06583499,-94.72067796,2019,IAH2
F42/MO17,OHH1_2016,N,18.55,707.308286,0,43,276.5,133.5,65,64,4.328064465,1.776000023,3.915145208,2.580740659,3.890757626,4.17049496,5.079069289,3.957741935,3.614594814,134.1699984,8.880000114,44.70363614,85.9177286,9.330454675,39.94818193,160.1854537,27.69772666,110.1186362,18.3437644,22.24283047,20.73146956,20.35982518,19.15233416,18.82824642,16.72048491,17.98730955,14.71797893,19.63580645,29.63200035,26.56953589,28.59263588,29.59106055,30.69283836,29.21689182,28.27188687,26.30588322,8.120967747,16.89599972,14.9739129,16.70528562,18.30318191,19.74443426,18.9160149,15.44500838,13.40262461,8.117657052,15.32722009,13.17028057,14.81678154,15.96857054,17.23303236,16.11713161,14.21502474,12.5845871,0.859331788,1,1,1,1,1,0.999172078,0.989049277,39.860924,-83.6755995,2016,OHH1
PHW52/PHM49,IAH1_2019,Y,24.85,695.7236189,0,0,200,94.5,65,64,8.157187574,0.75333335,7.315577374,1.144389074,0.212857144,0.731688293,3.103679801,5.185721735,4.918979992,261.0300024,4.5200001,87.30642721,32.26642813,0.212857144,8.04857122,121.5035704,46.39999972,147.9399989,18.01904646,22.72114833,18.53868323,20.84617194,19.20093738,21.91428985,16.4832458,14.23349405,11.00878768,22.30999994,27.52999973,24.52617789,31.4481278,28.63047609,29.47870132,27.11002697,25.00731411,20.46577188,10.93062501,14.96333329,14.91684483,20.02766766,18.36452364,16.34071412,15.67686671,13.06746994,9.592819484,10.11779152,13.58137929,12.09039624,17.73903178,15.5681627,15.08353594,13.70818638,12.14295105,9.387875541,0.879263394,1,1,1,1,0.994329881,0.928985237,0.797752907,41.1992562,-91.4941418,2019,IAH1
B14A/H95,GAH2_2017,Y,17.15,749.7853988,5,2,223.5,119.5,55.5,56,5.215806507,2.59000005,0.877047008,6.976424555,36.66571527,11.68990473,2.766634194,6.717714339,5.237281131,161.6900017,18.13000035,10.98809533,219.4985743,69.630002,116.6428568,77.55666748,33.5885717,162.3557151,18.59375843,20.97986943,21.98193589,18.54567619,14.33990901,17.7663424,19.78523868,18.86354985,17.57616326,25.93516134,24.17571449,30.47339418,29.31252372,29.52904774,29.72980419,32.72601502,32.10511542,30.76784952,12.17225799,9.938571385,16.15324828,18.06353156,20.43476164,19.51114297,21.20992787,20.86352373,19.95543778,11.90954616,10.38538115,15.45655397,15.75249851,16.98190469,16.63412837,18.90169131,18.47155665,17.41241638,0.999631335,0.985714285,1,1,1,1,1,1,33.727145,-83.29821525,2017,GAH2
F42/OH43,MIH1_2017,N,27.6,635.8695056,0,4.5,104.5,53.5,63.5,64,2.651290334,1.642500043,0.365195355,3.685889798,0.022982455,0.462972321,1.745768067,1.924198947,6.215848807,82.19000036,13.14000034,4.417894763,131.6678931,0.068947365,5.871578781,77.40789432,25.15789459,187.919471,20.75480046,19.52619267,24.47429891,19.89055103,21.94334328,22.12060477,17.47908742,14.76431364,9.641321864,18.99677434,22.1187501,26.44652255,27.49693157,27.7329823,27.82492569,25.37386911,24.10071042,20.63989867,5.961290348,11.91874993,11.36318641,16.0503933,16.08877179,14.96255052,12.27657104,9.93890341,8.936309075,7.303217139,10.01258026,11.86785018,14.06113521,14.11607898,13.75096176,11.67659513,10.59348898,9.148775778,0.770126733,1,1,1,1,0.999072621,0.949278334,0.816440377,42.68116575,-84.49434125,2017,MIH1
PHG80/PHZ51,OHH1_2015,Y,16.9,754.9341397,0,0,282,119.5,64,62,4.820000016,2.056666652,1.801667061,2.430255425,2.070588264,2.75488235,3.664772063,1.623969288,1.874022108,149.4200005,12.33999991,20.27235275,82.00588303,2.23529414,26.29176468,128.0200007,12.16764697,57.18411674,17.71339239,20.831882,20.85048625,20.93566426,20.28419298,19.59839119,17.66236547,17.23782846,14.83481447,16.95064511,28.03666687,26.64173705,29.01382079,31.07970569,30.59522857,27.99762273,26.69097183,23.34659959,5.9283871,15.42166694,14.66308043,16.74801267,19.23764672,18.74322206,16.69895781,13.90980629,10.26308727,6.580773377,14.04730329,13.19467995,15.08203889,17.16864649,16.69143216,14.53513226,12.92347397,10.29932856,0.672569122,1,1,1,1,1,0.994932126,0.947361455,39.855785,-83.66477375,2015,OHH1
CG119/CG108,WIH2_2016,Y,15.45,805.7779564,0,21,241,131,56.5,56.5,2.185483832,6.563333432,3.447094458,4.124693788,6.707159024,6.158880111,5.945293137,1.654273513,4.758742445,67.74999878,39.38000059,44.45545418,149.2718189,18.91272705,63.86318129,228.7613642,17.11772738,143.1609097,20.07161814,17.64681498,20.48120554,20.03716075,21.00097141,18.73971629,16.31911952,14.94670844,10.3303759,18.34677419,27.65666644,25.59626749,27.3504729,29.44640147,29.15349181,26.70938079,24.21329019,20.37268081,4.840000014,15.2516667,12.43660419,15.21846351,16.18390156,17.81047537,15.29826924,12.0891497,9.537770322,6.76617685,13.67923016,11.77429452,13.6256578,15.0809804,15.56950508,13.35737665,11.10536848,8.849967039,0.729688939,1,1,1,1,0.998061418,0.979766622,0.886131912,43.32649075,-89.33882925,2016,WIH2
B14A/H95,MOH1_2_2020,N,16.16,731.1212129,0.4,1.4,232,103.4,58.6,57,2.765624954,8.119999743,10.23533287,1.900197364,6.862941181,7.496322061,3.61617108,2.901626778,3.303786197,88.49999854,40.59999871,96.12411712,56.39411764,8.455882353,68.01117661,117.8082348,21.52705885,101.3270584,18.75466287,21.25211372,22.58999711,20.28617166,20.64270943,17.48834951,18.15902921,17.2011884,14.69335169,22.18656257,30.76999931,28.84882905,30.74339714,30.90558787,31.2308437,28.74780649,29.21697892,24.17436303,12.23093753,19.21800041,17.30516703,20.0610583,19.70343171,21.50444419,18.15153395,17.40346693,12.7162556,10.41798935,16.99399986,15.18178367,17.42227064,17.30450979,18.37429674,15.5665539,15.53509051,11.41105442,0.936383936,1,1,1,1,1,0.996694042,0.965786214,38.8958275,-92.2071575,2020,MOH1
TX714/TX779,IAH4_2017,Y,26,744.6366578,0,2,241,127.5,76,70,3.054193612,4.63857133,5.654282844,2.356146022,0.145000003,0.823262634,3.029939984,2.506485397,3.022032747,94.68000197,32.46999931,92.55000019,79.81000018,0.290000005,7.931363713,110.0431818,17.65818187,91.79227275,19.60434628,22.37855189,18.81628808,21.46940114,22.42332305,21.26952374,19.1513695,15.94205759,15.34138578,17.83935482,25.21428544,21.76755785,28.88340452,30.88984893,30.99338411,28.30609907,26.26622464,25.93438806,4.952580655,10.13999993,10.24708413,15.02150207,17.47128796,18.07608078,15.80662465,13.87026602,12.51354651,6.575243948,10.82301274,9.649960621,14.3656457,16.22810104,16.57398155,14.36597852,12.57546566,12.06214068,0.727396317,1,0.910082199,1,1,1,1,0.987168831,41.99455432,-93.69030947,2017,IAH4
W10004_0216/PHZ51,NEH3_2015,N,20.05,722.7545088,0,1,229,110,65,64,3.231250057,0.918000031,0.565093977,1.286692195,3.19749999,1.391136354,0.258061221,1.474667183,0.155891338,103.4000018,4.590000153,6.150000095,39.04749978,4.720000029,15.30249989,11.17999983,14.52874985,4.648125023,21.79127574,25.69442635,22.86725485,21.82271665,15.26317632,20.59079,20.06412842,16.27968968,13.53861776,24.28750017,32.64599991,30.58771447,32.67731329,28.91593772,29.87238656,30.80707127,25.39031645,21.32018275,9.278749934,13.0079998,13.8828633,15.7826582,17.05531204,14.62710229,13.18313307,8.87540479,3.334017086,10.46257825,15.28330691,14.45465852,16.22005678,15.0938879,14.496454,14.53020136,10.90039565,7.851747396,0.909587052,1,1,1,1,0.965712824,0.862507779,0.80953931,41.15824525,-101.9872958,2015,NEH3
PHG39/PHN82,TXH1-Early_2018,N,10.55,760.7264732,0,2,234,84,72,71,2.442333295,0.87833333,4.91741256,2.91095925,1.112321411,5.987347663,3.094033648,2.445309502,2.573656677,73.26999886,5.269999981,55.2178573,113.3721426,4.449285643,64.36357035,86.72785865,13.67714274,77.357857,13.4988633,14.49154552,13.92485348,19.6618496,19.390827,19.64184359,19.38410293,21.21373351,18.01258323,19.68933331,26.95833333,25.66614373,26.56996845,30.24238085,29.14372996,31.91805433,33.2644762,34.51160554,6.357666679,15.03999996,15.13755815,13.69055459,18.24071415,16.44843436,20.63070323,20.50154739,23.97494014,7.613570572,13.40715604,12.87528071,12.79536137,16.34410207,15.0664779,18.21233438,18.75919739,20.40606275,0.821476194,1,0.991620595,0.99408643,1,1,1,0.999013392,30.546318,-96.4329965,2018,TXH1-Early
B73/DK3IIH6,GAH1_2016,N,13.65,671.2670995,0,8,175,95,58,57.5,6.466250051,4.395000041,0.566421492,2.549627568,3.17469698,5.859943136,4.096967014,2.330999996,2.476261007,206.9200016,35.16000032,6.21000006,86.0200003,9.52409094,52.42727233,105.6731797,11.65499998,76.76409122,15.95696127,18.25385642,20.33100053,20.74024209,20.01064868,19.54302735,19.38198769,19.26953352,18.21451922,23.62687498,22.98249984,28.56134937,29.4983659,33.37075638,32.62719045,33.25026907,34.51499955,33.94928126,11.29749997,10.47000009,15.64744728,16.2846205,20.78287862,20.61269551,21.56927107,22.51809092,22.40467728,10.53971422,9.962440438,14.36481163,15.11313475,19.02952924,18.56859265,19.26668195,20.34390963,19.99415841,0.993928569,1,1,1,1,1,1,1,31.5079175,-83.55854775,2016,GAH1
LH212HT/LH195,OHH1_2016,N,18.2,731.1212129,0,52,284.5,136,65,64,4.328064465,1.776000023,3.915145208,2.580740659,3.890757626,4.17049496,5.079069289,3.957741935,3.614594814,134.1699984,8.880000114,44.70363614,85.9177286,9.330454675,39.94818193,160.1854537,27.69772666,110.1186362,18.3437644,22.24283047,20.73146956,20.35982518,19.15233416,18.82824642,16.72048491,17.98730955,14.71797893,19.63580645,29.63200035,26.56953589,28.59263588,29.59106055,30.69283836,29.21689182,28.27188687,26.30588322,8.120967747,16.89599972,14.9739129,16.70528562,18.30318191,19.74443426,18.9160149,15.44500838,13.40262461,8.117657052,15.32722009,13.17028057,14.81678154,15.96857054,17.23303236,16.11713161,14.21502474,12.5845871,0.859331788,1,1,1,1,1,0.999172078,0.989049277,39.860924,-83.6755995,2016,OHH1
F42/OH43,TXH3_2020,N,13.075,1253.074825,0,2,238.125,99.06,59.25,58.5,3.45875001,5.345714297,0.996479651,4.090893152,11.37176514,0.055555557,3.334418123,0.880352915,2.226110039,110.6800003,37.42000008,12.08058808,124.9758839,22.74353027,0.450000013,88.32823513,3.714117541,69.00941121,15.8034201,18.34009743,21.30541133,19.40762275,20.16580067,20.62125497,19.02899565,16.94703156,18.75160362,25.77062485,24.00285694,27.63577502,29.95402965,30.19186265,32.38063702,33.36328143,35.03835301,35.63206825,14.19906271,12.24428552,13.92062761,17.60156859,18.33921522,21.14142164,21.88591696,25.71364726,24.34760913,12.60372436,11.20425028,13.29865333,15.96364287,16.27361839,18.69618421,19.4144726,21.47019646,20.81901077,0.989866069,1,1,1,1,0.99995416,0.999321567,0.998827006,30.53869475,-96.4274175,2020,TXH3
W10005_0107/PHB47,GAH2_2016,N,12.2,731.1212129,0,2,250,208,50,49,1.486129045,0,7.316392826,2.079782856,1.718421064,1.264671045,2.43256314,4.61773679,3.235456168,46.07000041,0,60.50999928,55.97210474,3.436842128,10.11736836,67.31736801,23.15894711,100.2847377,20.21189387,22.87583466,19.10112302,21.34036575,17.85876091,19.83818451,18.50479945,15.9975398,17.29687983,27.80677426,30.50400009,32.06010812,34.2138269,34.93842035,34.86282896,34.62455114,33.33373696,32.80003392,13.8351613,16.55600014,19.35906305,20.32019684,22.9621054,21.76434208,22.04984942,22.29670187,20.14649938,13.32566871,15.60302283,17.72531793,18.78372546,20.36638125,19.89190838,19.9091667,19.70080105,18.42340329,1,1,1,1,1,1,1,1,33.717295,-83.3110275,2016,GAH2
PHB47/PHZ51,WIH1_2017,Y,17.03333333,723.1835706,0,2,255.1666667,117,75,76.16666667,3.894838602,1.694000003,3.49156578,6.251914317,26.29780264,12.3515148,1.782621048,1.031219451,2.019413967,120.7399967,16.94000003,60.77000046,238.2086357,55.48409002,148.2181776,77.27181808,11.13545426,60.74545419,17.96009764,21.56986256,18.71582301,20.73316127,19.69440102,19.58726141,19.1692292,15.69151392,12.21998586,16.03451621,20.2119998,20.22998088,26.71060266,27.00553033,27.16428033,24.80808837,24.03641879,21.845045,3.37838715,6.260000002,9.268565708,14.6662765,15.35575767,16.21109857,13.17589581,11.52521119,9.509429623,5.507434962,7.720411242,8.664602637,13.14891279,13.46068042,13.9043846,11.67856357,10.90146065,9.608265423,0.606900932,0.8735357,0.867893568,1,1,0.998220242,0.971647403,0.89569217,43.05668125,-89.5308135,2017,WIH1
B14A/H95,ILH1_2015,N,12.4,748.4982135,0,0,247.5,117.5,72.5,70.5,4.343437491,1.296153843,7.654899739,5.34311295,3.674999952,2.467291633,4.647268051,0.712819956,1.951907909,138.9899997,16.84999996,99.86750055,177.342501,7.349999905,22.2056247,144.0256246,5.039375113,60.06187434,19.4076893,20.21820178,17.58012378,22.59231729,17.35775694,20.12242863,18.79551315,20.37165926,16.80998738,15.69375022,16.27615364,23.81483975,28.77428317,30.28249967,31.91701372,28.65899596,28.4854072,27.09877011,2.916875011,4.602307732,13.93389792,16.26044709,20.47749984,20.41381959,17.79543547,15.77196732,14.62672175,5.339800043,5.921635642,11.53105666,14.7484369,17.37999976,18.17178164,15.31569586,14.44648847,13.36421336,0.599162964,0.636840646,1,1,1,1,1,0.99828125,40.05982425,-88.23397575,2015,ILH1
PHW52/PHN82,ARH2_2018,N,15.88,731.1212129,0,2,157.5,71.5,70.5,64,4.523124937,5.877777735,3.202210455,3.225384198,0.461428574,5.0703967,1.707251537,1.546976178,1.915506911,144.739998,52.89999962,46.32285666,103.4992844,0.461428574,45.6335703,42.68714207,7.346428526,59.38071425,17.7541087,19.6455271,19.52097147,20.05684428,23.80737271,19.97823453,19.1297214,18.25489796,18.05597286,19.61875001,21.92000008,22.77345622,28.90718296,31.9800005,30.98396799,32.84130907,33.56595603,31.90391706,8.73406262,10.34777779,11.28771296,17.85430307,18.706429,19.75547635,22.48266054,23.2605133,21.25223495,8.305601359,9.423215554,10.22107903,15.52009327,17.35232514,17.37984482,19.61861005,20.2782542,18.53689778,0.857433028,1,0.994106717,0.995975764,1,1,1,1,35.674241,-90.0749725,2018,ARH2
PB80/PHZ51,NEH3_2017,N,26.5,735.6263612,24.5,2,209.5,110.5,65,64,6.03471326,3.955444498,0.18882913,3.842009577,1.316296295,1.435570981,2.764433094,3.912023778,4.15136979,187.076111,38.21611161,1.987222274,117.8244439,3.948888885,12.8655555,93.99333183,27.38611089,126.3194449,18.53150537,21.70326166,24.15860034,20.80931081,18.66603313,19.02487726,18.75887595,17.51813417,15.15718003,20.20137986,23.21257118,30.13389904,30.13339279,32.06462927,32.76776237,28.39622898,27.87449379,27.0242909,7.908297486,10.26215086,15.17879712,16.87891665,20.62425956,20.98993062,16.95054818,15.08081369,13.75654417,8.47748899,10.0955543,14.95078719,15.67969265,18.3413362,18.75248222,14.77642402,13.79312874,13.00111339,0.783510626,0.953819441,1,1,1,1,1,0.993105158,41.162,-96.409,2017,NEH3
CG44/CGR01,WIH1_2016,N,16.6,778.1034739,0,3.75,231.25,119.25,66.75,67.25,2.076129018,1.94750002,4.430291291,4.068377178,0.606590927,8.204471101,6.520888551,7.285801826,4.413191112,64.35999957,23.37000024,50.66818307,153.9786358,1.017727305,87.41727302,222.4604529,58.95590957,134.9268184,19.92805462,20.9108026,19.53546339,20.65690042,18.97296773,19.76360502,17.50876714,15.21370917,12.23883056,16.70258062,17.57583312,27.08182728,26.49130857,27.22159082,28.35833875,27.6700069,25.1458901,22.98674642,3.327419363,4.990833327,14.04723809,14.47423798,17.58636334,16.7186736,17.17399145,14.32051147,12.5735533,5.875866612,6.419508974,12.98865398,12.92924289,14.50224274,14.72651534,14.55658067,12.23924581,10.7486024,0.621198161,0.7653869,1,1,1,0.999967803,0.998306277,0.970976554,43.05632525,-89.53194975,2016,WIH1
B97/PHB47,KSH1_2015,N,16.6,725.3288793,0,2,229,110,75,73,0.688124985,3.518749885,2.537239536,4.634326915,6.340784251,4.013516285,5.753010874,3.95559662,1.81791271,22.01999953,28.14999908,47.40176476,147.1705882,9.165882307,38.18235242,161.646473,23.74705871,56.35529401,19.48910828,20.34062409,19.21958791,21.30664108,18.00351726,18.80818483,18.60066932,17.86718078,18.78253622,17.69406253,22.96750021,19.85221485,29.31892792,29.11705877,31.41670577,31.16760655,30.50505886,29.96204923,3.297187492,8.938749969,8.792561365,16.998743,18.09705929,19.84989561,20.1377744,20.03282345,17.06836811,6.184738542,9.476230158,8.381520189,15.38816616,15.61697663,17.65547515,17.65556265,17.32458654,15.75670183,0.6778125,1,0.850138809,1,1,1,1,0.98304554,39.21641775,-96.60482225,2015,KSH1
B73/TX779,IAH3_2017,Y,28.9,711.1698417,0,2,229,110,65,64,4.153750014,4.476666673,3.404720357,2.207347727,0.783636364,2.628276904,1.892687593,2.328876272,1.794257086,132.9200004,67.1500001,54.03954627,78.33863542,1.567272728,28.02681865,71.85545488,19.05045461,54.69545453,16.14493189,17.75127989,18.89303832,22.07985964,20.54923199,20.99384486,19.81852315,17.22919489,15.64326955,15.84312499,15.5066665,21.42652578,27.714982,28.45522753,29.90074383,27.6545798,25.64720852,25.13760955,4.41906251,4.141333344,9.782295063,13.56526933,16.05901469,16.6123348,14.8096002,12.74600627,11.28191352,5.818880471,5.62230391,9.387130072,13.2881535,14.4256186,15.3843105,13.65871261,11.89796048,11.29223634,0.568604913,0.570380948,0.879734313,1,1,1,1,0.979205627,41.9758706,-92.24318881,2017,IAH3
W10005_0107/PHB47,IAH3_2017,Y,16.05,748.4982135,0,2,229,110,65,64,4.153750014,4.476666673,3.404720357,2.207347727,0.783636364,2.628276904,1.892687593,2.328876272,1.794257086,132.9200004,67.1500001,54.03954627,78.33863542,1.567272728,28.02681865,71.85545488,19.05045461,54.69545453,16.14493189,17.75127989,18.89303832,22.07985964,20.54923199,20.99384486,19.81852315,17.22919489,15.64326955,15.84312499,15.5066665,21.42652578,27.714982,28.45522753,29.90074383,27.6545798,25.64720852,25.13760955,4.41906251,4.141333344,9.782295063,13.56526933,16.05901469,16.6123348,14.8096002,12.74600627,11.28191352,5.818880471,5.62230391,9.387130072,13.2881535,14.4256186,15.3843105,13.65871261,11.89796048,11.29223634,0.568604913,0.570380948,0.879734313,1,1,1,1,0.979205627,41.9758706,-92.24318881,2017,IAH3
B37/MO17,KSH1_2016,N,14.3,778.7470665,0,2,180,100,93,93,0.381562503,5.593749881,9.031136959,3.981909994,0,0.897724769,5.011421387,3.322424253,5.670073263,12.2100001,44.74999905,140.9509078,148.5090918,0,8.374091108,139.438637,19.93454552,175.7722711,18.43315426,14.04582843,18.34613738,20.88446512,22.70328743,20.59441801,18.34986672,18.15379387,17.32510191,19.15124996,21.70124984,22.33901244,27.19377063,36.31272689,35.17540036,32.01078432,33.85633352,30.76895891,2.130625044,11.46499991,9.568238579,14.2621368,21.58727247,22.04353923,20.78061301,22.71134866,19.49139311,6.3158573,9.667291017,9.626890379,13.35418843,19.56599107,19.14397536,18.06824645,19.12054732,17.03744615,0.741573662,1,0.921279778,0.986042268,0.991287871,0.998977631,0.993550002,1,39.14480675,-96.62898225,2016,KSH1
B73/PHN82,MOH1_2016,N,16.95,731.1212129,0,2,242.5,105,59,57,2.465483877,8.058000231,0.264259377,6.282521268,1.94553035,9.25680559,4.358907121,3.354664451,5.453130527,76.43000019,40.29000115,2.879999995,172.8372758,4.262727369,83.20363667,125.2090916,21.13363606,168.2240918,20.2309363,16.93509369,22.49829557,20.20959989,18.68177986,19.21408964,18.0090922,17.17714413,15.87534947,21.83193548,27.56600037,27.88644765,31.21215235,30.25795442,31.2505745,30.57423065,29.80077912,28.25339236,10.073871,16.74400005,16.26474463,19.86215984,19.98371223,20.49117413,20.76153791,19.91431794,17.56318368,9.497798547,14.24343349,14.21296425,17.47336946,17.12232598,17.8699151,17.65104862,16.90998551,15.09561117,0.937315665,1,1,1,1,1,1,0.999442641,38.8955475,-92.2072025,2016,MOH1
F42/H95,MIH1_2017,N,24.8,691.2184706,0,11,109,59,67.5,68.5,2.651290334,1.642500043,0.365195355,3.685889798,0.022982455,0.462972321,1.745768067,1.924198947,6.215848807,82.19000036,13.14000034,4.417894763,131.6678931,0.068947365,5.871578781,77.40789432,25.15789459,187.919471,20.75480046,19.52619267,24.47429891,19.89055103,21.94334328,22.12060477,17.47908742,14.76431364,9.641321864,18.99677434,22.1187501,26.44652255,27.49693157,27.7329823,27.82492569,25.37386911,24.10071042,20.63989867,5.961290348,11.91874993,11.36318641,16.0503933,16.08877179,14.96255052,12.27657104,9.93890341,8.936309075,7.303217139,10.01258026,11.86785018,14.06113521,14.11607898,13.75096176,11.67659513,10.59348898,9.148775778,0.770126733,1,1,1,1,0.999072621,0.949278334,0.816440377,42.68116575,-84.49434125,2017,MIH1
TX714/TX779,GAH1_2018,Y,17.135,733.5025055,0,2,187.5,100,64.5,63,4.231249915,1.934999943,5.575464231,3.801027214,1.067857163,3.256190501,3.932246866,3.816857059,2.685023025,135.3999973,11.60999966,76.79571342,135.0185695,1.516428607,29.30571451,107.1921429,19.08428529,83.23571379,16.89130574,18.83037901,19.9789379,20.32622599,17.16636637,17.47509449,19.98058203,18.77657547,18.35496912,25.6268748,28.56500022,25.46428012,27.96417186,30.5753573,30.54857133,31.9994497,33.07128549,33.68336431,12.70062498,14.46999963,11.35988473,14.27301998,20.47928579,20.42444427,20.68398901,21.82542842,22.30905548,11.99291119,13.91639365,11.33534042,13.63652225,17.52732154,17.4865078,18.33967815,19.36985553,19.8838857,0.988973219,1,1,1,1,1,1,1,31.50582525,-83.55515025,2018,GAH1
B14A/MO17,ILH1_2018,N,5.625,76.65188068,0,2,205.5,97,65,60,4.93870967,7.677000022,2.588106254,5.605117571,0.281428576,3.456349163,4.202656593,1.004543384,2.183824858,153.0999998,76.77000022,33.4678576,176.7721435,0.281428576,32.73642816,135.7042854,6.586428666,67.2342849,18.91812334,19.3164753,20.10278531,22.12028957,18.91592986,20.16297878,19.11980649,19.09856314,16.2127272,15.99580652,18.50399971,25.32625123,29.19453127,30.85535676,31.83740471,28.20358558,28.86124239,26.43877647,3.618387117,7.573000085,14.94700907,16.75211974,20.46500043,20.0205478,17.14982155,16.71822788,13.95248539,5.629456993,7.587936205,12.64486739,15.17263993,17.66017859,17.94105007,14.82889519,14.97382886,12.85823928,0.640783421,0.72660713,1,1,1,1,1,0.984431123,40.06300125,-88.2291765,2018,ILH1
F42/MO17,MOH1_2015,N,15.3,731.1212129,0,0,222.5,105,76.5,72.5,3.914838722,3.002727248,2.7038834,5.646226268,2.268750012,1.183333344,4.736744086,1.740401796,3.666491943,121.3600004,33.02999973,34.41999933,178.8712478,5.868750036,10.6500001,140.2618746,11.88312507,113.6612502,18.81846694,18.88703156,16.92919735,21.70591481,15.72154266,19.94530069,18.47422179,20.12873028,17.02653892,18.28451609,18.00181831,23.77805456,28.93028285,29.85593748,31.76118019,30.42140763,28.58050013,28.43143147,5.857096827,7.500000065,15.21487777,17.6487962,21.67281234,21.45979159,20.28182538,17.09899995,17.28669369,7.068544315,7.302193139,11.97142579,15.39796361,17.76437491,18.61048589,17.380694,14.99182695,15.05317439,0.723283405,0.814935086,1,1,1,1,1,1,38.8965375,-92.20800417,2015,MOH1
B73/DK3IIH6,WIH1_2017,Y,17.7,731.1212129,0,2,229,110,65,64,3.894838602,1.694000003,3.49156578,6.251914317,26.29780264,12.3515148,1.782621048,1.031219451,2.019413967,120.7399967,16.94000003,60.77000046,238.2086357,55.48409002,148.2181776,77.27181808,11.13545426,60.74545419,17.96009764,21.56986256,18.71582301,20.73316127,19.69440102,19.58726141,19.1692292,15.69151392,12.21998586,16.03451621,20.2119998,20.22998088,26.71060266,27.00553033,27.16428033,24.80808837,24.03641879,21.845045,3.37838715,6.260000002,9.268565708,14.6662765,15.35575767,16.21109857,13.17589581,11.52521119,9.509429623,5.507434962,7.720411242,8.664602637,13.14891279,13.46068042,13.9043846,11.67856357,10.90146065,9.608265423,0.606900932,0.8735357,0.867893568,1,1,0.998220242,0.971647403,0.89569217,43.05668125,-89.5308135,2017,WIH1
B14A/OH43,OHH1_2017,Y,17.7,731.1212129,0,2,229,110,65,64,4.401935447,12.29571451,4.299880116,6.252045262,18.36299991,4.892395558,3.195317293,3.431958172,3.794688752,136.4599988,86.0700016,53.63949916,223.8204996,40.86499989,50.26800107,124.097,30.99400014,115.4320013,19.0647902,19.03427505,21.00226491,20.15032754,19.69555429,18.89580098,18.69837911,16.0400155,13.85510684,20.47903239,25.43142836,25.24002704,27.25803818,28.09541678,28.73270468,26.30456447,24.69395371,24.25720733,8.011935501,13.44999967,12.59882409,15.91673102,16.75358336,18.39824095,14.97688189,13.11535887,11.81284403,8.407228033,12.106522,11.63721293,13.8931373,14.6377479,15.63224373,13.07252875,11.66012039,11.13333271,0.85352535,1,1,1,1,0.996926048,1,0.96495674,39.855785,-83.66477375,2017,OHH1
PHB47/PHN82,INH1_2020,N,22.05,738.3294502,0.166666667,2,211.0333333,109.5,65,62.83333333,2.63064515,6.092222161,2.380905542,2.638028789,0.629411796,2.977235278,3.349803369,1.095052516,1.575144189,81.54999965,54.82999945,26.35000017,86.90176377,0.755294155,29.77235278,114.9176474,7.60117643,48.41470517,19.12040675,14.46862051,21.68340347,21.75389977,20.24839053,19.66959435,18.78188958,18.00828299,15.45076636,15.20677414,20.6899999,27.1104927,29.42650107,32.0752936,30.36388222,28.15834081,28.66782236,25.41333794,2.934193564,11.51555562,15.17811918,16.46944194,19.37588254,18.23752946,16.66734055,16.5683672,12.52337519,5.193705795,9.337664252,13.54219901,15.16026165,17.73146127,16.3694037,14.61167179,14.83949529,11.90095499,0.576025338,0.994801587,1,1,1,1,1,0.975702381,40.4787965,-86.9895995,2020,INH1
PHB47/PHZ51,IAH2_2017,Y,14.78333333,747.64009,0.333333333,18,226.1666667,103.1666667,65,64,2.991935476,4.003749907,5.594154361,1.824159742,2.965909053,1.138616173,3.544395797,5.525860929,3.224964342,92.74999976,32.02999926,86.83999968,64.74363607,5.880909015,11.03545466,133.6850016,39.36636487,98.02272796,18.91811151,22.03083944,18.39067038,21.91300981,21.59707026,21.00058551,18.76246256,16.50136756,14.56336975,16.70258062,25.25375009,21.16444029,28.78792803,31.34295403,31.03890899,27.79230679,26.54138994,25.01808603,3.836129038,9.060000002,9.836484062,14.72352594,17.1804546,18.00485339,15.61890002,13.9478747,12.25710857,5.884356407,10.52058178,9.325556586,14.19611432,16.29393371,16.57150033,14.05801276,12.73803514,11.57992501,0.659274195,1,0.882113053,1,1,1,1,0.976890029,42.06582876,-94.72050129,2017,IAH2
PHG29/PHG47,INH1_2020,Y,16.585,754.5479841,0,2,194,95.25,61,60,2.63064515,6.092222161,2.380905542,2.638028789,0.629411796,2.977235278,3.349803369,1.095052516,1.575144189,81.54999965,54.82999945,26.35000017,86.90176377,0.755294155,29.77235278,114.9176474,7.60117643,48.41470517,19.12040675,14.46862051,21.68340347,21.75389977,20.24839053,19.66959435,18.78188958,18.00828299,15.45076636,15.20677414,20.6899999,27.1104927,29.42650107,32.0752936,30.36388222,28.15834081,28.66782236,25.41333794,2.934193564,11.51555562,15.17811918,16.46944194,19.37588254,18.23752946,16.66734055,16.5683672,12.52337519,5.193705795,9.337664252,13.54219901,15.16026165,17.73146127,16.3694037,14.61167179,14.83949529,11.90095499,0.576025338,0.994801587,1,1,1,1,1,0.975702381,40.4787965,-86.9895995,2020,INH1
PHP02/PHB47,GAH1_2017,N,13.95,517.448464,0,1.5,155,70,57,56,1.929687474,5.730000019,0.343252103,3.449286585,2.107618968,4.586772466,5.884115127,3.462793619,5.790337869,61.74999917,45.84000015,4.185237975,115.4628578,3.161428452,44.24761888,164.3961923,18.00285697,179.500474,16.80249013,20.13732326,20.17342047,19.27076224,21.20480144,16.6798163,18.15858085,19.37517402,17.73704587,23.5584375,24.76124978,28.73884546,29.02932191,29.79031757,30.11825943,30.88468736,33.04158726,32.39466959,8.654999979,9.073749959,13.81601286,15.94569083,16.85142871,20.07059283,21.0580027,22.24365102,22.03411694,9.935165979,10.3201674,13.6844889,14.81363998,15.5596332,17.10789698,17.95959829,19.61349988,19.1980032,0.8834375,1,1,1,1,1,1,1,31.50794425,-83.55854475,2017,GAH1
PHG39/PHN82,ARH1_2018,N,22.85,540.0385649,0,2,187.5,104,63,58,6.807499945,4.709999936,2.627776375,4.735912158,3.619166647,6.960178526,4.330437569,0.796285741,3.374677434,217.8399982,32.96999955,35.48928591,145.2942843,5.831428528,62.51428531,109.7978577,4.003571561,104.6150005,17.99706709,21.70226043,20.05949982,19.52680112,21.59397623,17.99264813,18.0574776,19.33215022,18.30424355,21.07062507,24.31857109,24.02168934,29.45279857,31.73095224,30.70692423,32.5717108,33.29521443,31.83741963,10.26718749,12.03571429,12.70205088,18.67412083,19.99154783,20.64677572,22.90335213,23.23585706,21.28834102,9.223277534,11.01036775,11.27832322,16.11267445,17.86206546,17.6775748,19.72770382,20.19469271,18.54368809,0.945725441,1,1,1,1,1,1,1,34.729679,-90.7603455,2018,ARH1
LH74/PHN82,SDH1_2015,N,15.85,669.3363216,0,4,157.5,86,71.5,70,1.890000034,2.68444448,2.847212523,0.928406021,1.08916667,1.213193166,1.12388612,3.994558873,0.570569385,58.59000105,24.16000032,33.86000057,31.14874977,1.720000006,12.77624983,39.02562428,27.90249949,17.65812508,21.16446504,23.3864585,24.03054242,23.94878495,21.74335716,21.42490048,20.60212775,16.27746828,15.18579983,19.04290341,22.5888888,27.20826416,30.46229654,29.54760476,31.86073879,31.47770382,29.48664523,24.89733582,4.208709664,8.468888919,11.69082143,14.25969647,14.29062517,16.06534098,14.02269822,14.11578116,6.942900096,6.807516906,9.210660666,12.27390437,14.67606113,14.18888263,15.81431879,15.00552731,14.17539039,9.834808296,0.77025346,0.983690483,1,1,1,0.983472358,0.961069402,0.950039755,44.208745,-102.928745,2015,SDH1
B97/PHB47,ONH1_2015,Y,30.2,686.7133223,0,0.5,257.5,125,83,83.5,1.605625002,2.296315821,1.411426091,1.973297954,0.512941169,3.436769168,2.641035405,1.799953816,2.360571209,51.38000005,43.63000059,20.30117703,73.50294104,0.81882352,40.73352947,103.9364728,19.58470627,71.14882509,18.02169462,20.4737019,23.34007091,22.64543997,20.24065375,18.07254412,18.60447299,14.22755231,12.21920895,9.771562532,12.63473691,23.7578119,26.83441686,29.90941261,27.46928249,26.11972075,22.82201755,18.35250846,-0.327500018,2.045263152,11.01347606,13.31919887,17.43313718,16.50329302,14.06775752,11.69572195,7.013714688,2.851211725,4.201400589,10.67713105,12.77399982,15.76589753,14.15032606,12.63577386,10.48249806,7.379159901,0.167098218,0.403345874,0.957007131,0.991950294,1,0.994472794,0.939113043,0.772366561,43.49741975,-80.44806025,2015,ONH1
B37/H95,MOH1_2016,N,16.75,731.1212129,11.5,2,252.5,112.5,62,58,2.465483877,8.058000231,0.264259377,6.282521268,1.94553035,9.25680559,4.358907121,3.354664451,5.453130527,76.43000019,40.29000115,2.879999995,172.8372758,4.262727369,83.20363667,125.2090916,21.13363606,168.2240918,20.2309363,16.93509369,22.49829557,20.20959989,18.68177986,19.21408964,18.0090922,17.17714413,15.87534947,21.83193548,27.56600037,27.88644765,31.21215235,30.25795442,31.2505745,30.57423065,29.80077912,28.25339236,10.073871,16.74400005,16.26474463,19.86215984,19.98371223,20.49117413,20.76153791,19.91431794,17.56318368,9.497798547,14.24343349,14.21296425,17.47336946,17.12232598,17.8699151,17.65104862,16.90998551,15.09561117,0.937315665,1,1,1,1,1,1,0.999442641,38.8955475,-92.2072025,2016,MOH1
B73/DK3IIH6,DEH1_2017,Y,17.7,731.1212129,0,2,229,110,65,64,2.917187458,6.201428686,3.00780289,3.517983876,1.211428521,1.632751291,5.214259368,11.31934688,4.882730708,93.34999865,43.4100008,45.34571489,126.7790489,1.268571377,15.48333303,157.8533328,69.24809492,151.3147631,17.05647962,17.73228645,20.71096481,19.57386043,19.15556694,20.88592809,18.21237176,18.15756056,16.58607394,20.26624998,24.66142872,21.72245043,26.82298965,30.35071437,30.31148162,30.69555299,28.43090921,27.29702356,9.32593758,14.19571427,10.68752201,16.75855213,19.906349,19.88150788,21.21690322,18.72144455,17.91444491,8.690479953,12.08402314,9.787934269,14.12431868,17.15482568,17.14050735,17.94790556,15.63546309,14.74613823,0.907287956,1,0.959736116,1,1,1,1,1,38.67025825,-75.4333645,2017,DEH1
PHG39/PHN82,ILH1_2015,Y,11.8,724.0416941,0,0,252.5,122.5,70.5,69.5,4.343437491,1.296153843,7.654899739,5.34311295,3.674999952,2.467291633,4.647268051,0.712819956,1.951907909,138.9899997,16.84999996,99.86750055,177.342501,7.349999905,22.2056247,144.0256246,5.039375113,60.06187434,19.4076893,20.21820178,17.58012378,22.59231729,17.35775694,20.12242863,18.79551315,20.37165926,16.80998738,15.69375022,16.27615364,23.81483975,28.77428317,30.28249967,31.91701372,28.65899596,28.4854072,27.09877011,2.916875011,4.602307732,13.93389792,16.26044709,20.47749984,20.41381959,17.79543547,15.77196732,14.62672175,5.339800043,5.921635642,11.53105666,14.7484369,17.37999976,18.17178164,15.31569586,14.44648847,13.36421336,0.599162964,0.636840646,1,1,1,1,1,0.99828125,40.05982425,-88.23397575,2015,ILH1
B73/PHZ51,KSH1_2015,N,14.4,774.8855108,0,2,229,110,85,82,0.688124985,3.518749885,2.537239536,4.634326915,6.340784251,4.013516285,5.753010874,3.95559662,1.81791271,22.01999953,28.14999908,47.40176476,147.1705882,9.165882307,38.18235242,161.646473,23.74705871,56.35529401,19.48910828,20.34062409,19.21958791,21.30664108,18.00351726,18.80818483,18.60066932,17.86718078,18.78253622,17.69406253,22.96750021,19.85221485,29.31892792,29.11705877,31.41670577,31.16760655,30.50505886,29.96204923,3.297187492,8.938749969,8.792561365,16.998743,18.09705929,19.84989561,20.1377744,20.03282345,17.06836811,6.184738542,9.476230158,8.381520189,15.38816616,15.61697663,17.65547515,17.65556265,17.32458654,15.75670183,0.6778125,1,0.850138809,1,1,1,1,0.98304554,39.21641775,-96.60482225,2015,KSH1
LH74/PHN82,TXH1-Early_2018,N,10.15,745.9238431,0,2,225,85,72,69.5,2.442333295,0.87833333,4.91741256,2.91095925,1.112321411,5.987347663,3.094033648,2.445309502,2.573656677,73.26999886,5.269999981,55.2178573,113.3721426,4.449285643,64.36357035,86.72785865,13.67714274,77.357857,13.4988633,14.49154552,13.92485348,19.6618496,19.390827,19.64184359,19.38410293,21.21373351,18.01258323,19.68933331,26.95833333,25.66614373,26.56996845,30.24238085,29.14372996,31.91805433,33.2644762,34.51160554,6.357666679,15.03999996,15.13755815,13.69055459,18.24071415,16.44843436,20.63070323,20.50154739,23.97494014,7.613570572,13.40715604,12.87528071,12.79536137,16.34410207,15.0664779,18.21233438,18.75919739,20.40606275,0.821476194,1,0.991620595,0.99408643,1,1,1,0.999013392,30.546318,-96.4329965,2018,TXH1-Early
F42/H95,TXH1_2016,N,10.35,741.4186947,0,2,209.5,77.5,73,71,1.633666698,16.13999993,0.99702422,4.719865603,0.129393939,3.277272727,13.06232457,0.703636358,1.017125621,49.01000094,112.9799995,14.5313639,177.3549991,0.33090909,36.05,378.0672674,3.179999969,30.53454577,13.9726292,10.72874144,17.88940951,17.80076093,20.55685321,19.77792414,17.90480363,20.8338604,20.14326093,22.32500016,23.95000022,24.48309256,26.40498513,28.5388636,28.63545455,30.12870319,34.35404525,35.58838723,6.034666632,13.33571414,9.675379644,13.12758779,15.78530267,16.33764454,20.13902853,23.08186362,24.00118421,8.473379033,11.29783551,10.5045992,12.46111665,14.43681279,14.72204148,17.12368238,20.53225114,20.87599038,0.915869048,1,0.972225207,1,1,1,1,1,30.54708625,-96.43393475,2016,TXH1
W10004_0216/PHZ51,ILH1_2015,Y,12,747.8546209,0,2,285,152.5,70,69,4.343437491,1.296153843,7.654899739,5.34311295,3.674999952,2.467291633,4.647268051,0.712819956,1.951907909,138.9899997,16.84999996,99.86750055,177.342501,7.349999905,22.2056247,144.0256246,5.039375113,60.06187434,19.4076893,20.21820178,17.58012378,22.59231729,17.35775694,20.12242863,18.79551315,20.37165926,16.80998738,15.69375022,16.27615364,23.81483975,28.77428317,30.28249967,31.91701372,28.65899596,28.4854072,27.09877011,2.916875011,4.602307732,13.93389792,16.26044709,20.47749984,20.41381959,17.79543547,15.77196732,14.62672175,5.339800043,5.921635642,11.53105666,14.7484369,17.37999976,18.17178164,15.31569586,14.44648847,13.36421336,0.599162964,0.636840646,1,1,1,1,1,0.99828125,40.05982425,-88.23397575,2015,ILH1
LH82/PHB47,WIH1_2015,N,21.7,762.0136585,0,0,238,123,65,64,4.730000059,9.059999784,2.430610682,6.190059866,3.242812514,1.739310909,2.563222068,2.582604527,2.064862235,151.3600019,54.3599987,32.30062549,198.0887501,6.485625029,21.11437514,113.2525011,35.42937557,62.48000012,19.32367544,22.19104989,23.8972515,19.04105101,21.62804324,20.72553659,16.09255797,13.7227876,9.595561915,19.95718755,28.15000025,26.05326099,28.85932006,29.07385437,26.51056077,24.82739399,20.18089026,14.51549808,8.517187543,15.30499983,11.82802944,17.48783518,16.48010375,14.49615378,12.31509137,8.581945626,2.680440183,8.558350873,13.98301754,11.81015597,15.26183828,14.95581898,12.98753542,11.68123469,8.628108428,5.087550731,0.777276777,1,1,1,1,0.929186389,0.833919484,0.505939954,43.05511725,-89.528525,2015,WIH1
B14A/OH43,INH1_2018,Y,21.775,875.9939109,0,2,226.5,98,61.5,58,2.767096756,4.68454543,2.7337539,2.608245307,0.180000007,3.094468228,3.412660528,0.546071422,1.653962344,85.77999943,51.52999973,31.28214284,86.61642764,0.256428582,29.52071404,116.6621433,3.926428522,50.80214219,18.97651723,17.84080185,18.4751702,21.91502565,21.1577316,19.53552192,18.82147066,19.16946561,15.73843824,16.02451609,18.1199998,25.33039297,28.95851984,31.36964308,31.15694425,28.16765345,28.4284546,26.00206774,3.260645186,6.861818249,15.08608447,16.0398559,19.18499974,18.88806934,16.73005964,15.8360335,13.18834038,5.572938243,7.259226835,12.75390782,14.76719288,17.27732141,17.05840253,14.63863294,14.40004061,12.39915253,0.613732714,0.707012975,1,1,1,1,1,0.979968538,40.4787825,-86.9898145,2018,INH1
PHG39/TX205,ARH1_2017,N,14.95,685.4261371,0,2,201.95,99.05,71,71,3.058125025,3.532857077,9.871688678,6.405160528,0.516363615,5.988171668,5.119232493,3.102318153,5.34158356,97.86000079,24.72999954,132.0327285,211.6218184,0.569545432,54.36818138,136.8913653,16.08272713,165.5890903,17.13974981,16.55343887,20.38424011,18.76225527,22.81364793,19.06964508,19.53553475,19.77193111,17.12972935,24.60906261,23.96000045,24.77057006,28.06605652,30.35469691,31.5146664,31.30577636,32.78459133,30.91587993,11.9175,14.17857156,11.8445801,17.60850246,18.97249995,21.30615642,21.39979275,22.50533316,21.62237538,11.1639709,11.77578055,11.22655186,14.97537354,16.74359516,18.41041141,18.33049426,19.54768126,18.22457608,1,1,1,1,1,1,1,1,34.7272515,-90.76032575,2017,ARH1
B14A/H95,MOH1_1_2020,N,13.06666667,731.1212129,0.333333333,0.333333333,233.3333333,108.6666667,59,57.66666667,2.765624954,8.119999743,10.49656654,1.909885915,5.802857127,7.415295831,3.691475556,2.293301892,3.400930865,88.49999854,40.59999871,96.7978566,57.0957143,7.737142835,67.39857156,118.848571,17.52928566,104.715714,18.75466287,21.25211372,22.49923535,20.31658939,20.84622072,17.68630925,18.12476098,17.46293798,14.64158327,22.18656257,30.76999931,28.86546125,30.72469998,30.62226157,31.26253243,28.67352632,29.54480095,24.35225034,12.23093753,19.21800041,17.35636515,20.03188031,19.40511944,21.45309498,18.10676495,17.58972003,12.9136675,10.41798935,16.99399986,15.213465,17.3995364,17.01369051,18.36589209,15.51205264,15.80164337,11.56818364,0.936383936,1,1,1,1,1,0.995985623,0.962870504,38.8978375,-92.2070925,2020,MOH1
B73/PHN82,INH1_2018,Y,16.895,926.7733684,0,2,236,122,62,60.5,2.767096756,4.68454543,2.7337539,2.608245307,0.180000007,3.094468228,3.412660528,0.546071422,1.653962344,85.77999943,51.52999973,31.28214284,86.61642764,0.256428582,29.52071404,116.6621433,3.926428522,50.80214219,18.97651723,17.84080185,18.4751702,21.91502565,21.1577316,19.53552192,18.82147066,19.16946561,15.73843824,16.02451609,18.1199998,25.33039297,28.95851984,31.36964308,31.15694425,28.16765345,28.4284546,26.00206774,3.260645186,6.861818249,15.08608447,16.0398559,19.18499974,18.88806934,16.73005964,15.8360335,13.18834038,5.572938243,7.259226835,12.75390782,14.76719288,17.27732141,17.05840253,14.63863294,14.40004061,12.39915253,0.613732714,0.707012975,1,1,1,1,1,0.979968538,40.4787825,-86.9898145,2018,INH1
CG108/CGR03,SDH1_2015,N,14.15,630.077172,0.5,4.5,148.5,82,62,62,1.890000034,2.68444448,2.847212523,0.928406021,1.08916667,1.213193166,1.12388612,3.994558873,0.570569385,58.59000105,24.16000032,33.86000057,31.14874977,1.720000006,12.77624983,39.02562428,27.90249949,17.65812508,21.16446504,23.3864585,24.03054242,23.94878495,21.74335716,21.42490048,20.60212775,16.27746828,15.18579983,19.04290341,22.5888888,27.20826416,30.46229654,29.54760476,31.86073879,31.47770382,29.48664523,24.89733582,4.208709664,8.468888919,11.69082143,14.25969647,14.29062517,16.06534098,14.02269822,14.11578116,6.942900096,6.807516906,9.210660666,12.27390437,14.67606113,14.18888263,15.81431879,15.00552731,14.17539039,9.834808296,0.77025346,0.983690483,1,1,1,0.983472358,0.961069402,0.950039755,44.208745,-102.928745,2015,SDH1
TX779/LH195,WIH2_2020,N,21.52142857,704.6419738,0.5,0.071428571,277.5714286,162,84.92857143,82.07142857,1.142258063,7.375000167,3.772605813,4.528143625,15.91411821,3.015240613,2.848395651,6.559665308,3.073983535,35.40999997,73.75000167,42.96999988,163.850588,31.01764819,33.16764674,117.7699986,59.84176376,94.45823468,20.73953056,16.04352899,21.23354675,21.58093245,19.01370295,17.88573252,19.32013515,13.57540027,12.27254504,13.56999995,18.91099977,26.0938683,28.2322475,29.46647072,27.75422455,27.09322103,24.80509675,19.00189054,0.762580661,9.396999884,13.99892158,14.99589118,17.7452939,17.49807463,14.22893102,13.29211059,7.459399134,4.176897214,8.107987139,12.68677404,14.02444379,15.66411489,14.70790633,13.20588953,12.26960615,7.833960257,0.443168195,0.881928567,1,1,1,0.990384734,0.880973437,0.780679991,43.294786,-89.383968,2020,WIH2
B73/MO17,SDH1_2015,N,25.75,607.5514304,0,5,168.5,87,65,64.5,1.890000034,2.68444448,2.847212523,0.928406021,1.08916667,1.213193166,1.12388612,3.994558873,0.570569385,58.59000105,24.16000032,33.86000057,31.14874977,1.720000006,12.77624983,39.02562428,27.90249949,17.65812508,21.16446504,23.3864585,24.03054242,23.94878495,21.74335716,21.42490048,20.60212775,16.27746828,15.18579983,19.04290341,22.5888888,27.20826416,30.46229654,29.54760476,31.86073879,31.47770382,29.48664523,24.89733582,4.208709664,8.468888919,11.69082143,14.25969647,14.29062517,16.06534098,14.02269822,14.11578116,6.942900096,6.807516906,9.210660666,12.27390437,14.67606113,14.18888263,15.81431879,15.00552731,14.17539039,9.834808296,0.77025346,0.983690483,1,1,1,0.983472358,0.961069402,0.950039755,44.208745,-102.928745,2015,SDH1
PB80/PHZ51,ONH2_2017,N,22.1,906.8219973,0,1.5,248.5,124.5,45.5,43.5,3.566774253,5.816000056,0.640467161,2.602850346,0.276190468,0.553043346,1.774150425,1.832219351,2.40528059,110.5700018,58.16000056,8.999047586,96.02571482,0.552380936,6.918571438,78.70857161,24.06619065,72.98142847,18.8542372,16.74867072,24.21291039,19.37094181,21.19715784,20.84705237,17.61151759,14.253685,9.927824707,15.7532257,18.68899984,23.40262829,26.34974997,26.59380949,26.86065013,24.57225317,22.91748616,20.00596815,5.764838726,10.96000004,12.03359118,16.18007827,16.63301581,15.91920336,13.14574071,11.27177775,10.10650586,6.141928302,8.38660306,10.68394655,13.52521671,13.7753985,13.64998718,11.58821465,10.41552723,9.107414304,0.598502303,0.966571423,1,1,1,0.999084662,0.956230826,0.8300025,42.45293025,-81.8827315,2017,ONH2
B73/MO17,ARH2_2018,N,14.025,731.1212129,2.5,2,204.5,100.5,69.5,66,4.523124937,5.877777735,3.202210455,3.225384198,0.461428574,5.0703967,1.707251537,1.546976178,1.915506911,144.739998,52.89999962,46.32285666,103.4992844,0.461428574,45.6335703,42.68714207,7.346428526,59.38071425,17.7541087,19.6455271,19.52097147,20.05684428,23.80737271,19.97823453,19.1297214,18.25489796,18.05597286,19.61875001,21.92000008,22.77345622,28.90718296,31.9800005,30.98396799,32.84130907,33.56595603,31.90391706,8.73406262,10.34777779,11.28771296,17.85430307,18.706429,19.75547635,22.48266054,23.2605133,21.25223495,8.305601359,9.423215554,10.22107903,15.52009327,17.35232514,17.37984482,19.61861005,20.2782542,18.53689778,0.857433028,1,0.994106717,0.995975764,1,1,1,1,35.674241,-90.0749725,2018,ARH2
LH195/PHZ51,WIH2_2020,Y,22.6,731.1212129,7.5,1.5,282,162,75.5,73,1.142258063,7.375000167,3.772605813,4.528143625,15.91411821,3.015240613,2.848395651,6.559665308,3.073983535,35.40999997,73.75000167,42.96999988,163.850588,31.01764819,33.16764674,117.7699986,59.84176376,94.45823468,20.73953056,16.04352899,21.23354675,21.58093245,19.01370295,17.88573252,19.32013515,13.57540027,12.27254504,13.56999995,18.91099977,26.0938683,28.2322475,29.46647072,27.75422455,27.09322103,24.80509675,19.00189054,0.762580661,9.396999884,13.99892158,14.99589118,17.7452939,17.49807463,14.22893102,13.29211059,7.459399134,4.176897214,8.107987139,12.68677404,14.02444379,15.66411489,14.70790633,13.20588953,12.26960615,7.833960257,0.443168195,0.881928567,1,1,1,0.990384734,0.880973437,0.780679991,43.294786,-89.383968,2020,WIH2
PB80/PHZ51,NEH3_2015,N,15.83333333,757.2939793,0,0.333333333,229,110,65,64,3.231250057,0.918000031,0.565093977,1.286692195,3.19749999,1.391136354,0.258061221,1.474667183,0.155891338,103.4000018,4.590000153,6.150000095,39.04749978,4.720000029,15.30249989,11.17999983,14.52874985,4.648125023,21.79127574,25.69442635,22.86725485,21.82271665,15.26317632,20.59079,20.06412842,16.27968968,13.53861776,24.28750017,32.64599991,30.58771447,32.67731329,28.91593772,29.87238656,30.80707127,25.39031645,21.32018275,9.278749934,13.0079998,13.8828633,15.7826582,17.05531204,14.62710229,13.18313307,8.87540479,3.334017086,10.46257825,15.28330691,14.45465852,16.22005678,15.0938879,14.496454,14.53020136,10.90039565,7.851747396,0.909587052,1,1,1,1,0.965712824,0.862507779,0.80953931,41.15824525,-101.9872958,2015,NEH3
B73/PHZ51,OHH1_2015,Y,14.6,774.8855108,0,3,264,123.5,63,63,4.820000016,2.056666652,1.801667061,2.430255425,2.070588264,2.75488235,3.664772063,1.623969288,1.874022108,149.4200005,12.33999991,20.27235275,82.00588303,2.23529414,26.29176468,128.0200007,12.16764697,57.18411674,17.71339239,20.831882,20.85048625,20.93566426,20.28419298,19.59839119,17.66236547,17.23782846,14.83481447,16.95064511,28.03666687,26.64173705,29.01382079,31.07970569,30.59522857,27.99762273,26.69097183,23.34659959,5.9283871,15.42166694,14.66308043,16.74801267,19.23764672,18.74322206,16.69895781,13.90980629,10.26308727,6.580773377,14.04730329,13.19467995,15.08203889,17.16864649,16.69143216,14.53513226,12.92347397,10.29932856,0.672569122,1,1,1,1,1,0.994932126,0.947361455,39.855785,-83.66477375,2015,OHH1
PHN11_PHW65_0323/LH195,GAH1_2015,Y,13.7,771.6675477,0,0.5,180,95,63,61,4.231249915,0,5.95843649,3.852603143,2.594000032,2.429925956,4.217759372,2.225466652,2.667397826,135.3999973,0,82.56599903,137.5619979,4.851333332,21.8693336,117.5779999,11.12733326,82.68933261,16.59936112,21.58269278,19.11661296,20.61616366,14.5260024,17.86473659,19.792993,19.1551459,18.46432438,25.43281227,26.81500022,26.00854227,27.82657943,29.9603331,30.57562955,31.8228303,33.58693334,33.75221527,12.50374998,10.5999999,12.24448314,13.90452364,20.76811106,20.25348139,20.64254904,22.17719986,22.29090342,11.85447967,11.72664631,11.94062668,13.41492991,17.36422208,17.41455547,18.23714923,19.83066815,19.89653894,0.988973219,1,1,1,1,1,1,1,31.505771,-83.555095,2015,GAH1
PHB47/PHN82,MOH1_2_2020,N,16.98571429,731.1212129,0,0,213.5714286,86.28571429,55.28571429,54.28571429,2.765624954,8.119999743,10.23533287,1.900197364,6.862941181,7.496322061,3.61617108,2.901626778,3.303786197,88.49999854,40.59999871,96.12411712,56.39411764,8.455882353,68.01117661,117.8082348,21.52705885,101.3270584,18.75466287,21.25211372,22.58999711,20.28617166,20.64270943,17.48834951,18.15902921,17.2011884,14.69335169,22.18656257,30.76999931,28.84882905,30.74339714,30.90558787,31.2308437,28.74780649,29.21697892,24.17436303,12.23093753,19.21800041,17.30516703,20.0610583,19.70343171,21.50444419,18.15153395,17.40346693,12.7162556,10.41798935,16.99399986,15.18178367,17.42227064,17.30450979,18.37429674,15.5665539,15.53509051,11.41105442,0.936383936,1,1,1,1,1,0.996694042,0.965786214,38.8958275,-92.2071575,2020,MOH1
PHB47/PHN82,IAH4_2017,Y,20.1,742.70588,2.75,1.5,213.75,100,69.75,67,3.054193612,4.63857133,5.654282844,2.356146022,0.145000003,0.823262634,3.029939984,2.506485397,3.022032747,94.68000197,32.46999931,92.55000019,79.81000018,0.290000005,7.931363713,110.0431818,17.65818187,91.79227275,19.60434628,22.37855189,18.81628808,21.46940114,22.42332305,21.26952374,19.1513695,15.94205759,15.34138578,17.83935482,25.21428544,21.76755785,28.88340452,30.88984893,30.99338411,28.30609907,26.26622464,25.93438806,4.952580655,10.13999993,10.24708413,15.02150207,17.47128796,18.07608078,15.80662465,13.87026602,12.51354651,6.575243948,10.82301274,9.649960621,14.3656457,16.22810104,16.57398155,14.36597852,12.57546566,12.06214068,0.727396317,1,0.910082199,1,1,1,1,0.987168831,41.99455432,-93.69030947,2017,IAH4
TX714/TX779,NCH1_2018,Y,23.3,731.1212129,0,2,191.5,101,58,57.5,4.157741868,0,6.852651043,4.101575565,0.281428576,2.753968325,7.265916583,9.606714405,8.963617552,128.8899979,0,78.76714403,125.545715,0.410714286,22.4842863,196.6735732,49.18571489,277.8721441,19.15814344,24.86455965,15.13897653,19.38558293,23.18458939,19.6068393,18.38664919,15.55735787,15.52161696,22.42709686,23.6650002,25.05504787,28.99162569,32.21999972,32.77589287,33.41271207,32.57228504,30.53730396,9.272903273,8.262500107,16.63082339,19.21430847,20.43714251,21.48106165,22.41052549,22.8214047,21.52269578,9.383610038,9.710722454,13.07063738,16.1524193,18.32857112,19.12847726,19.83450897,19.67052049,18.05632483,0.990449307,1,1,1,1,1,1,1,35.6667825,-78.492372,2018,NCH1
B14A/H95,MOH1_1_2018,Y,17.66666667,731.1212129,0,2,231.3333333,121.3333333,56.33333333,54.66666667,4.419032262,0.120000001,6.56660792,4.995913726,0,0.865952386,4.867908623,7.318145406,3.629241153,136.9900001,0.840000004,71.60142667,150.6285707,0,7.793571472,145.6157139,39.85928573,112.0157138,18.39395777,18.46565301,20.1607481,20.70593221,19.87326009,21.97749135,18.06982858,17.46468943,16.31914076,19.5254839,22.76714298,27.16554273,29.60936822,31.6271427,32.32420578,29.51628185,29.85375934,27.04843165,7.99741943,14.14714282,16.43732974,18.81172612,21.79964249,20.71007941,19.44316189,19.21155699,15.91814144,7.992986492,11.1555316,14.00535673,16.26359619,18.7133926,18.51714259,16.54699664,16.60044059,13.86670431,0.872361758,1,1,1,1,1,1,0.995607144,38.89791675,-92.20952075,2018,MOH1
B73/TX779,IAH4_2017,Y,31.45,673.1978773,1.5,2,248.5,140,83,75,3.054193612,4.63857133,5.654282844,2.356146022,0.145000003,0.823262634,3.029939984,2.506485397,3.022032747,94.68000197,32.46999931,92.55000019,79.81000018,0.290000005,7.931363713,110.0431818,17.65818187,91.79227275,19.60434628,22.37855189,18.81628808,21.46940114,22.42332305,21.26952374,19.1513695,15.94205759,15.34138578,17.83935482,25.21428544,21.76755785,28.88340452,30.88984893,30.99338411,28.30609907,26.26622464,25.93438806,4.952580655,10.13999993,10.24708413,15.02150207,17.47128796,18.07608078,15.80662465,13.87026602,12.51354651,6.575243948,10.82301274,9.649960621,14.3656457,16.22810104,16.57398155,14.36597852,12.57546566,12.06214068,0.727396317,1,0.910082199,1,1,1,1,0.987168831,41.99455432,-93.69030947,2017,IAH4
B37/H95,GAH1_2017,N,13.8,770.3803625,0,1,170,75,61,60,1.929687474,5.730000019,0.343252103,3.449286585,2.107618968,4.586772466,5.884115127,3.462793619,5.790337869,61.74999917,45.84000015,4.185237975,115.4628578,3.161428452,44.24761888,164.3961923,18.00285697,179.500474,16.80249013,20.13732326,20.17342047,19.27076224,21.20480144,16.6798163,18.15858085,19.37517402,17.73704587,23.5584375,24.76124978,28.73884546,29.02932191,29.79031757,30.11825943,30.88468736,33.04158726,32.39466959,8.654999979,9.073749959,13.81601286,15.94569083,16.85142871,20.07059283,21.0580027,22.24365102,22.03411694,9.935165979,10.3201674,13.6844889,14.81363998,15.5596332,17.10789698,17.95959829,19.61349988,19.1980032,0.8834375,1,1,1,1,1,1,1,31.50794425,-83.55854475,2017,GAH1
B37/H95,ILH1_2015,Y,15.4,758.1521028,0,8.5,265,132.5,72,70.5,4.343437491,1.296153843,7.654899739,5.34311295,3.674999952,2.467291633,4.647268051,0.712819956,1.951907909,138.9899997,16.84999996,99.86750055,177.342501,7.349999905,22.2056247,144.0256246,5.039375113,60.06187434,19.4076893,20.21820178,17.58012378,22.59231729,17.35775694,20.12242863,18.79551315,20.37165926,16.80998738,15.69375022,16.27615364,23.81483975,28.77428317,30.28249967,31.91701372,28.65899596,28.4854072,27.09877011,2.916875011,4.602307732,13.93389792,16.26044709,20.47749984,20.41381959,17.79543547,15.77196732,14.62672175,5.339800043,5.921635642,11.53105666,14.7484369,17.37999976,18.17178164,15.31569586,14.44648847,13.36421336,0.599162964,0.636840646,1,1,1,1,1,0.99828125,40.05982425,-88.23397575,2015,ILH1
LH82/PHB47,KSH1_2015,N,14.7,762.0136585,0,2,229,110,85,82,0.688124985,3.518749885,2.537239536,4.634326915,6.340784251,4.013516285,5.753010874,3.95559662,1.81791271,22.01999953,28.14999908,47.40176476,147.1705882,9.165882307,38.18235242,161.646473,23.74705871,56.35529401,19.48910828,20.34062409,19.21958791,21.30664108,18.00351726,18.80818483,18.60066932,17.86718078,18.78253622,17.69406253,22.96750021,19.85221485,29.31892792,29.11705877,31.41670577,31.16760655,30.50505886,29.96204923,3.297187492,8.938749969,8.792561365,16.998743,18.09705929,19.84989561,20.1377744,20.03282345,17.06836811,6.184738542,9.476230158,8.381520189,15.38816616,15.61697663,17.65547515,17.65556265,17.32458654,15.75670183,0.6778125,1,0.850138809,1,1,1,1,0.98304554,39.21641775,-96.60482225,2015,KSH1
TX714/PHZ51,WIH2_2017,Y,19.25,771.6675477,0,2,253.5,133.5,75,76.5,5.048709616,4.636666616,1.142383575,5.763857885,8.001590729,6.160048604,1.607776433,1.167726513,2.257555268,156.5099981,41.72999954,17.5799998,219.3963643,12.14409065,74.04090792,72.28863683,15.04409093,68.0204557,18.1690344,19.72049554,20.64727683,20.23287988,19.13163679,19.37493243,18.51401576,14.93340477,10.89478233,16.03129027,21.86555545,22.15746071,26.59689143,27.90045501,26.76799254,24.73062069,22.38533393,20.51274781,3.24419354,8.791111098,9.553497601,14.54337319,16.81037892,15.37831158,12.19271258,9.193202486,7.868866577,5.438218202,9.209131236,9.451203107,13.05708411,14.51682301,13.37610723,11.31306373,9.686333754,8.853113959,0.624158991,0.847976183,0.950288768,1,1,0.998699911,0.954544862,0.834596302,43.3246415,-89.33688775,2017,WIH2
B14A/H95,NYH3_2018,N,26.055,760.5333955,9.5,10,233,123.5,74,74,4.152903213,0.855714253,1.333281551,1.973054112,19.58384622,4.14286014,1.827699262,3.76173812,1.90156246,128.7399996,5.989999771,17.49230713,69.9676929,40.09153858,44.76538462,69.41461665,34.65000019,57.30153882,20.64383799,23.73438372,20.91517994,21.34827616,15.57480097,18.28181198,18.59806785,13.9987834,13.21485935,12.82806446,24.72714315,24.74142799,27.59651287,28.68307664,28.50629367,27.06434367,24.34345721,20.06623908,1.452258048,10.48999977,13.10088293,14.82547593,19.13846159,17.45270631,15.13507682,13.07327349,8.10410419,4.113027627,10.74522894,11.82730489,13.73068126,15.93834835,15.05075648,13.50240047,11.64767513,8.352187515,0.351670502,1,0.973040659,0.995029228,1,0.992439429,0.946636381,0.843044516,42.7261605,-76.6556765,2018,NYH3
TX714/PHZ51,IAH1_2015,Y,16.7,733.6955833,1,12,305,170,65,64,1.566451638,2.213076954,8.402418557,1.323463692,0.084411761,2.297359398,2.93999255,2.37101191,2.732793763,48.56000078,28.7700004,122.1399999,43.52999979,0.168823523,22.82352863,100.1182349,16.67000003,83.81294001,20.43214903,18.85811498,14.63317728,22.31276759,19.14227258,22.20806523,19.83862588,18.33763158,15.0581957,16.08774191,16.64538457,21.84697853,28.7334183,30.26852911,31.30747052,29.05105531,29.39636272,24.66946357,1.839032284,4.865384661,13.12892854,16.86768962,20.05941139,18.05705196,16.3929614,15.43749916,11.17229855,5.447129731,6.098188577,10.48240964,14.99632473,17.16639266,16.72884186,14.96924927,14.77137221,11.30644361,0.593087559,0.682994502,0.988452545,1,1,0.997626801,1,0.896934674,41.9980952,-93.69336973,2015,IAH1
TX714/TX779,SCH1_2020,N,14.035,731.1212129,1,4,103,31,59,58,6.726129055,12.61950016,14.6709951,2.000047064,2.505749965,4.425319405,2.268462711,6.18714998,5.023091868,208.5100007,84.13000107,163.6860008,61.50999924,5.011499929,39.68149965,62.57699943,33.64599986,155.4654979,20.36817608,19.66978326,14.75526058,19.85961082,19.96014466,19.24465486,19.87809105,16.40752662,15.64625104,22.32567731,25.33999968,25.31846332,29.19710574,32.4110003,31.66961065,33.32032281,31.92909988,30.24042268,7.936741977,12.70899997,16.31955663,18.65521183,21.09725013,21.1736526,21.46883008,21.19136654,20.48826235,8.963701593,11.76593586,13.23428606,15.98846211,18.75412521,18.42141037,19.32426,18.56023321,17.40294316,0.984170504,1,0.973950938,1,1,1,1,1,34.62225,-82.736661,2020,SCH1
B73/MO17,NYH2_2020,N,14.9,716.3185827,0.5,8.5,263,135,68.5,68.5,4.422257993,0,1.391731236,3.182357247,6.170888774,3.507901041,2.283490724,1.426918664,2.172175634,137.0899978,0,18.68266731,113.2706661,12.6093331,36.98266699,88.46933366,18.14666667,65.61600019,20.94267544,21.78244971,21.55666085,20.64321436,19.27786447,18.92984529,17.76882093,13.77968924,11.70490539,14.55447306,27.94977782,23.62933928,27.86541297,27.88688897,28.78672537,26.53302948,21.56675493,18.20507674,2.61195699,15.66431106,11.35573055,15.51025755,16.31100023,17.48208292,14.53826355,10.86377734,6.879177126,4.979415324,14.02697238,10.70801105,14.09392345,14.22879085,15.20067311,13.04971037,9.749522427,7.387680802,0.470065285,1,0.969822941,0.995242037,1,0.988859641,0.904446401,0.765938608,42.73230075,-76.65036275,2020,NYH2
LH212HT/LH195,INH1_2016,N,19.05,732.4083981,6,27.5,277.5,147.5,64.5,65,3.034516148,1.382857186,3.106568823,3.966270256,3.500454469,6.752636371,3.451172643,3.198528118,3.024422797,94.07000059,9.680000305,31.26000059,138.8759105,3.500454469,67.52636371,113.8927274,21.6654544,92.62590972,17.63328649,23.97511796,20.66441577,20.1236558,19.9706746,19.39149484,18.14527656,15.98533716,14.62820237,18.74516109,26.31142807,27.84898846,28.12893417,28.20272714,29.14504538,29.16779001,27.95564941,27.07739093,7.950322636,11.69428553,16.31817922,16.10606538,16.8522731,18.34872752,18.58889605,17.50284626,15.03841012,7.677100472,11.91689015,14.24288378,14.4184555,14.68521604,15.7994256,15.9329094,14.92238151,13.51734692,0.852649763,1,1,1,1,1,1,0.996102814,40.4787595,-86.98982,2016,INH1
TX951/LH195,OHH1_2020,Y,27.7,698.2979894,0,0.5,229,110,63.5,62,4.175312527,1.24000001,2.003453903,2.609830299,3.238461531,4.458868342,3.000365612,1.621237519,2.44580479,133.6100008,6.200000048,24.41307693,78.60461595,5.612307695,46.13538504,105.0992289,18.40384625,73.98230748,19.06994028,20.34349766,22.26062964,20.30125672,18.94980258,17.72364635,17.47781057,14.69815231,13.31876726,20.75593752,29.31000023,26.9862925,30.26951119,31.92230738,29.63458284,27.3548547,24.45496262,20.91339716,9.301875014,17.61400032,14.18652547,18.22082699,19.47423084,18.74255468,15.66305293,13.07056974,8.164555027,9.098127154,15.53923951,13.05396234,16.29356655,17.69826911,16.21360084,13.84725457,11.75523116,8.713632263,0.810993302,1,1,1,1,0.998602591,0.941606618,0.857376019,39.85643475,-83.67288725,2020,OHH1
CG108/CGR03,ONH1_2017,Y,28.85,662.9003955,0,4,227.5,107.5,70,70,4.42290319,4.904999876,1.545173221,3.420435244,1.695375006,2.594700004,1.855534774,1.54565171,2.383111348,137.1099989,49.04999876,23.52600009,140.8034994,5.378000009,36.46150006,95.23350107,29.85300009,72.44250006,18.65662235,17.08545341,23.10813164,20.12586768,18.11232318,19.44819915,16.33652997,11.62209215,7.957733996,13.94322577,18.20700026,22.35689536,24.80045755,25.17183321,25.2296929,22.79396283,22.13957367,13.29532023,3.578387066,9.706999969,10.10387851,14.12185296,14.82349991,13.63261195,10.3904862,9.847475595,3.166289439,4.958212412,8.025894563,9.659097931,11.97096233,12.35740613,11.98311106,9.953455995,10.0654016,5.273375752,0.439723498,0.877642858,1,1,1,0.972410901,0.840292505,0.515578473,43.49546,-80.42596875,2017,ONH1
PHW52/PHN82,IAH4_2017,N,22.81666667,708.1664095,0,1.833333333,224,99.5,70,67.16666667,3.054193612,4.63857133,5.654282844,2.356146022,0.145000003,0.823262634,3.029939984,2.506485397,3.022032747,94.68000197,32.46999931,92.55000019,79.81000018,0.290000005,7.931363713,110.0431818,17.65818187,91.79227275,19.60434628,22.37855189,18.81628808,21.46940114,22.42332305,21.26952374,19.1513695,15.94205759,15.34138578,17.83935482,25.21428544,21.76755785,28.88340452,30.88984893,30.99338411,28.30609907,26.26622464,25.93438806,4.952580655,10.13999993,10.24708413,15.02150207,17.47128796,18.07608078,15.80662465,13.87026602,12.51354651,6.575243948,10.82301274,9.649960621,14.3656457,16.22810104,16.57398155,14.36597852,12.57546566,12.06214068,0.727396317,1,0.910082199,1,1,1,1,0.987168831,41.99455432,-93.69030947,2017,IAH4
B37/H95,TXH2_2019,Y,11.88,817.8067024,0,0,198.5,70,70,69,1.71448275,0.072857141,3.656594302,9.095434564,0.409285716,1.207678571,5.355850783,1.246142852,1.574419343,49.71999974,0.50999999,52.00785631,328.2121388,0.592857139,9.661428571,146.4478573,6.531428533,47.51499965,15.42805705,20.52131135,18.76898834,18.57032559,21.42349659,18.85281525,20.14881361,21.03072751,19.84089234,18.45000007,25.76428577,24.43254944,27.27586732,31.09000002,32.37866099,32.72435205,34.04471448,34.98200776,6.826206914,10.35000004,10.67963154,14.78766739,18.65857179,21.85071427,21.02442735,21.79614282,22.6049739,7.457816468,11.1589152,10.85119479,13.46630403,16.91193677,19.11412105,18.84765314,19.77807102,20.01419559,0.749667494,1,0.945308164,1,1,1,1,0.999698925,30.546318,-96.4329965,2019,TXH2
B37/H95,IAH4_2019,Y,33.475,659.6824324,9.5,0.75,255.5,126.25,61.25,60.5,7.44874995,0,6.508814674,5.652572602,2.433809479,0.731547632,2.455795253,7.856419535,5.758725846,238.3599984,0,89.12928634,169.456428,4.779285618,8.60571444,106.5300014,62.81714391,173.1250012,18.61457558,24.25652275,18.80062453,19.64217675,17.01762246,21.29967345,16.82875041,12.82062273,10.73648339,20.72718754,29.98400002,24.57226332,29.58102216,28.11761892,27.58625519,26.21902431,25.70162766,18.66579105,8.655312385,16.39199963,13.30590142,18.52555793,18.42333308,15.4118289,14.78252205,14.57801647,7.354403302,8.719182336,15.28713381,11.55896644,16.12377034,15.4195504,13.79277779,12.9189296,12.78184671,8.051480754,0.866629464,1,1,1,1,0.996735112,0.969646609,0.721601517,42.03193798,-93.79333213,2019,IAH4
B37/MO17,ILH1_2016,Y,15.65,1047.125188,0,2,262.5,133.5,77,73.5,2.976905237,4.388409027,2.266536067,5.61207631,2.384848472,3.596551307,3.312350719,4.357499975,4.793790319,93.71999985,46.35499933,33.46068128,180.4177266,4.628863606,41.73386359,104.1413657,28.32431801,148.2020453,18.82488241,16.77241452,21.32061235,20.18653607,20.74234538,18.07981042,18.8666989,17.85818253,16.07680721,18.05081144,19.20204525,23.0422997,29.42292662,27.90308728,26.97317812,29.60218573,29.15938829,28.17592877,4.960040295,8.531272602,10.4507586,17.10049505,15.99717794,16.84881478,19.41054858,18.84383108,17.09740687,6.781235125,7.969267807,10.17119166,15.41614171,14.29579798,14.15384892,16.51995977,16.04951253,14.84458937,0.666766271,0.897956159,0.946860721,1,1,1,1,0.999883117,40.0607245,-88.2338815,2016,ILH1
PHP02/PHB47,OHH1_2017,Y,15.25,734.9827686,0,1.5,229,110,65,64,4.401935447,12.29571451,4.299880116,6.252045262,18.36299991,4.892395558,3.195317293,3.431958172,3.794688752,136.4599988,86.0700016,53.63949916,223.8204996,40.86499989,50.26800107,124.097,30.99400014,115.4320013,19.0647902,19.03427505,21.00226491,20.15032754,19.69555429,18.89580098,18.69837911,16.0400155,13.85510684,20.47903239,25.43142836,25.24002704,27.25803818,28.09541678,28.73270468,26.30456447,24.69395371,24.25720733,8.011935501,13.44999967,12.59882409,15.91673102,16.75358336,18.39824095,14.97688189,13.11535887,11.81284403,8.407228033,12.106522,11.63721293,13.8931373,14.6377479,15.63224373,13.07252875,11.66012039,11.13333271,0.85352535,1,1,1,1,0.996926048,1,0.96495674,39.855785,-83.66477375,2017,OHH1
PHG39/PHN82,WIH1_2018,Y,22.454,810.4633107,0,2,248,106.4,69,67.4,1.609999989,7.097692302,4.543300024,5.384655594,12.90857152,6.684415526,1.835393967,1.490247701,3.282350194,49.90999967,92.26999992,56.1414287,188.537143,17.774286,73.52857079,76.14071582,18.50214262,100.642856,20.21844376,17.61529163,19.67186989,21.74517717,19.19342093,18.08513378,19.62003162,16.98075827,12.74863056,13.31193533,16.25923072,24.73561688,28.00164855,31.39095186,28.11097395,26.99453296,26.15077082,19.9357303,1.183225821,5.521538512,13.28283365,14.89542408,18.89249983,17.62870117,14.61713968,12.9208708,8.385953947,4.208379921,6.163069931,11.75441076,13.86262536,17.16453014,14.91796624,13.29691021,12.54059059,8.511099252,0.430714275,0.66777473,1,1,1,0.987929958,0.939058758,0.805939432,43.0544,-89.5317,2018,WIH1
CG119/CG108,TXH1-Dry_2018,Y,17.7,731.1212129,0,2,167.5,84,64,64,2.442333295,0.87833333,4.91741256,2.91095925,1.112321411,5.987347663,3.094033648,2.445309502,2.573656677,73.26999886,5.269999981,55.2178573,113.3721426,4.449285643,64.36357035,86.72785865,13.67714274,77.357857,13.4988633,14.49154552,13.92485348,19.6618496,19.390827,19.64184359,19.38410293,21.21373351,18.01258323,19.68933331,26.95833333,25.66614373,26.56996845,30.24238085,29.14372996,31.91805433,33.2644762,34.51160554,6.357666679,15.03999996,15.13755815,13.69055459,18.24071415,16.44843436,20.63070323,20.50154739,23.97494014,7.613570572,13.40715604,12.87528071,12.79536137,16.34410207,15.0664779,18.21233438,18.75919739,20.40606275,0.821476194,1,0.991620595,0.99408643,1,1,1,0.999013392,30.546318,-96.4329965,2018,TXH1-Dry
B14A/H95,GAH2_2016,N,13.4,731.1212129,0,2,258.5,209.5,52,52,1.486129045,0,7.316392826,2.079782856,1.718421064,1.264671045,2.43256314,4.61773679,3.235456168,46.07000041,0,60.50999928,55.97210474,3.436842128,10.11736836,67.31736801,23.15894711,100.2847377,20.21189387,22.87583466,19.10112302,21.34036575,17.85876091,19.83818451,18.50479945,15.9975398,17.29687983,27.80677426,30.50400009,32.06010812,34.2138269,34.93842035,34.86282896,34.62455114,33.33373696,32.80003392,13.8351613,16.55600014,19.35906305,20.32019684,22.9621054,21.76434208,22.04984942,22.29670187,20.14649938,13.32566871,15.60302283,17.72531793,18.78372546,20.36638125,19.89190838,19.9091667,19.70080105,18.42340329,1,1,1,1,1,1,1,1,33.717295,-83.3110275,2016,GAH2
LH74/PHN82,NYH2_2015,N,16.5,731.1212129,0,4.5,224,103,80,80,3.814193487,2.822857129,1.806874641,1.427310218,14.28882354,6.323155046,2.553769654,1.263651931,1.70374005,118.2399981,39.5199998,23.5252947,50.99705838,17.86235295,65.18176435,90.43176518,10.71352917,51.74117684,19.21827184,21.58410556,20.44972798,21.8367517,17.34067749,18.34945618,18.49425604,17.55625849,13.84215422,11.26903224,15.86071418,24.70888252,27.12764594,29.5805878,28.55383422,27.75922879,25.11594081,20.73318661,0.676451599,3.065714287,12.68317757,14.19692254,19.48862723,17.66257776,16.12899413,12.03346763,8.797239788,3.458861152,5.522653893,11.65565145,13.2498794,16.56577659,15.18766176,14.16580901,11.53845799,8.731216192,0.261509218,0.568112238,0.971160735,0.994106254,1,0.999864887,0.980226591,0.898542131,42.7324825,-76.65277775,2015,NYH2
B73/PHM49,NCH1_2020,N,18.075,706.6646934,1.5,0,230.3125,108.125,65,64,3.811250031,6.583749771,1.870150701,7.593384547,0.8842857,2.636686467,3.330713381,6.121142871,7.323433169,121.960001,52.66999817,29.28357046,255.9407139,2.652857099,23.48571392,94.03142862,30.32857149,227.0264283,17.79310012,18.2030313,21.90311614,16.62410426,22.73441878,20.97653859,20.54309533,18.15988809,15.65141399,21.6678125,23.21999979,23.34870433,27.04964214,28.2173808,30.95634976,33.07043217,33.2972859,31.24656685,8.082812505,11.53125006,9.51933213,18.09668861,18.19142909,20.58560522,22.1124513,22.85800005,21.91055295,8.88590596,10.34544598,9.896418393,14.69404398,15.249625,17.76881847,19.50312724,19.99035698,18.5620876,0.935200903,1,0.995619773,1,1,1,1,1,35.30009892,-77.57131746,2020,NCH1
B73/MO17,DEH1_2020,N,19.05,686.7133223,1.75,15.25,258,149.25,64.25,63.5,3.884838689,2.918749928,0.484801506,3.712682555,3.963928495,10.54878945,3.680508849,4.08975176,5.319973187,120.4299994,23.34999943,5.74999997,113.1935704,6.565714155,94.92928366,102.5935729,23.16642891,164.6128593,19.34389959,17.33862388,21.23126246,20.37262205,20.84469896,18.13380163,16.82964191,15.50064315,15.14081803,17.43483888,21.1624999,25.02143811,29.01024665,32.25440507,31.30417669,31.95048154,29.3682824,28.21514964,6.792903194,12.85250008,15.40184434,18.86790491,21.28607132,21.93053571,22.84339264,21.06525136,19.30786859,6.86665098,10.04482466,12.64072343,16.02028347,18.72161765,18.60397455,19.32804006,17.22313801,15.91003144,0.79362904,0.982098209,1,1,1,1,1,1,38.628981,-75.46566025,2020,DEH1
CG108/CGR03,ONH2_2016,N,16.5,722.7545088,0,3.5,205,105.5,63,63,1.435483875,1.740833327,1.463802716,3.022687524,0.150999999,1.134659085,3.046446673,1.693503778,2.765116665,44.50000012,20.88999993,18.84600039,117.1590009,0.150999999,12.25349994,101.0444998,13.16149993,84.26899996,19.72563927,22.19747464,21.68954048,21.77365896,18.98664827,19.92678304,16.69906166,15.68152671,12.9072029,14.10741935,17.58083336,26.00758685,26.04894451,27.78099985,28.79287246,28.2480382,25.9224786,23.75348014,4.257419363,7.13166666,15.03828811,14.1477789,17.72699971,17.33924119,18.24672102,15.95494667,14.17526013,5.131346137,6.986841243,12.85116395,12.65171997,14.84296497,15.26027205,15.31782021,13.26534606,11.67621189,0.511244241,0.799851209,1,1,1,1,1,0.975829282,42.4530035,-81.88279875,2016,ONH2
B73/PHM49,DEH1_2018,N,19.625,716.640379,0,3,193.5,89.5,72.5,71,3.413225795,4.724545566,2.007753279,2.760624154,0.287142856,8.862777665,3.915865231,4.933581623,5.971971652,105.8099996,51.97000122,28.2621423,90.35856978,0.861428567,79.76499898,101.102142,26.37928568,184.7400021,18.24738333,20.30334785,18.96061465,21.19242313,20.3949075,18.85770366,17.73482038,14.47844699,15.08372737,17.38161278,18.28454564,22.01469092,28.14795471,32.28714262,31.68230149,32.09286912,30.42106803,28.79790015,6.703871004,7.41363637,12.85857977,17.97497576,22.0019049,21.31992057,22.76420594,22.26141136,20.21526036,6.825711165,7.366383816,10.38385741,15.21158117,19.10753111,18.47850441,19.35879976,18.34204267,16.58274325,0.781601378,0.839058448,0.989425295,1,1,1,1,1,38.65164475,-75.44913625,2018,DEH1
WF9/H95,IAH3_2017,Y,17.7,731.1212129,0,2,229,110,65,64,4.153750014,4.476666673,3.404720357,2.207347727,0.783636364,2.628276904,1.892687593,2.328876272,1.794257086,132.9200004,67.1500001,54.03954627,78.33863542,1.567272728,28.02681865,71.85545488,19.05045461,54.69545453,16.14493189,17.75127989,18.89303832,22.07985964,20.54923199,20.99384486,19.81852315,17.22919489,15.64326955,15.84312499,15.5066665,21.42652578,27.714982,28.45522753,29.90074383,27.6545798,25.64720852,25.13760955,4.41906251,4.141333344,9.782295063,13.56526933,16.05901469,16.6123348,14.8096002,12.74600627,11.28191352,5.818880471,5.62230391,9.387130072,13.2881535,14.4256186,15.3843105,13.65871261,11.89796048,11.29223634,0.568604913,0.570380948,0.879734313,1,1,1,1,0.979205627,41.9758706,-92.24318881,2017,IAH3
B14A/MO17,TXH2_2020,N,12.375,729.190435,0,2,165.1,51.435,69.5,68.5,2.284333333,0,4.621906019,2.982124861,1.655000005,6.689114015,2.894056698,2.615892851,2.528400138,68.53,0,55.88714266,111.3664289,1.655000005,70.91857161,82.98143064,12.87071426,76.16571382,13.91343843,13.3863348,15.08661116,19.80328892,19.03358821,19.2160028,19.61198116,21.5690046,17.9190584,20.02266652,27.17999992,26.59088772,26.49063582,29.80749984,29.13094588,32.17534358,33.00407163,34.57616138,6.794333295,17.20400028,15.22554111,13.60666406,17.96904786,16.63267817,20.78659354,19.79317827,24.13923583,7.901247141,14.27292515,13.36557264,12.73068931,16.08957262,15.12192719,18.39831967,18.39239984,20.46927813,0.821357143,1,0.992404768,0.99375244,1,1,1,0.999043315,30.53825625,-96.42790225,2020,TXH2
B14A/H95,TXH1_2020,N,12.5,774.5637145,0,2,193.675,73.025,72.25,70.75,2.284333333,0,4.613530444,2.949806388,1.362941181,6.741056464,2.844869093,3.829088224,2.301094231,68.53,0,55.97058804,110.7988238,1.362941181,71.52235312,82.32059028,18.97352936,69.29117607,13.91343843,13.3863348,15.08816438,19.79337859,19.48130546,19.24170726,19.77113757,20.7945973,17.91495332,20.02266652,27.17999992,26.60815942,26.52479293,29.39617636,29.12989124,32.2266946,33.03076485,34.59511331,6.794333295,17.20400028,15.2455437,13.65359797,17.29686298,16.61337131,20.73348334,20.06167624,24.24037069,7.901247141,14.27292515,13.38037585,12.76738989,15.58009007,15.11126374,18.39892159,18.53701373,20.50202011,0.821357143,1,0.99243504,0.993791594,1,1,1,0.999042533,30.53781575,-96.4283715,2020,TXH1
CG44/CGR01,TXH2_2019,Y,17.7,731.1212129,0,0,166.5,54.5,65,63,1.71448275,0.072857141,3.656594302,9.095434564,0.409285716,1.207678571,5.355850783,1.246142852,1.574419343,49.71999974,0.50999999,52.00785631,328.2121388,0.592857139,9.661428571,146.4478573,6.531428533,47.51499965,15.42805705,20.52131135,18.76898834,18.57032559,21.42349659,18.85281525,20.14881361,21.03072751,19.84089234,18.45000007,25.76428577,24.43254944,27.27586732,31.09000002,32.37866099,32.72435205,34.04471448,34.98200776,6.826206914,10.35000004,10.67963154,14.78766739,18.65857179,21.85071427,21.02442735,21.79614282,22.6049739,7.457816468,11.1589152,10.85119479,13.46630403,16.91193677,19.11412105,18.84765314,19.77807102,20.01419559,0.749667494,1,0.945308164,1,1,1,1,0.999698925,30.546318,-96.4329965,2019,TXH2
CG119/CG108,ILH1_2016,Y,13.9,834.0960316,0,2,217.5,101,69.5,68,2.976905237,4.388409027,2.266536067,5.61207631,2.384848472,3.596551307,3.312350719,4.357499975,4.793790319,93.71999985,46.35499933,33.46068128,180.4177266,4.628863606,41.73386359,104.1413657,28.32431801,148.2020453,18.82488241,16.77241452,21.32061235,20.18653607,20.74234538,18.07981042,18.8666989,17.85818253,16.07680721,18.05081144,19.20204525,23.0422997,29.42292662,27.90308728,26.97317812,29.60218573,29.15938829,28.17592877,4.960040295,8.531272602,10.4507586,17.10049505,15.99717794,16.84881478,19.41054858,18.84383108,17.09740687,6.781235125,7.969267807,10.17119166,15.41614171,14.29579798,14.15384892,16.51995977,16.04951253,14.84458937,0.666766271,0.897956159,0.946860721,1,1,1,1,0.999883117,40.0607245,-88.2338815,2016,ILH1
PHN11_PHW65_0323/LH195,ILH1_2015,N,13.6,749.1418061,0,1,230,100,73,71,4.343437491,1.296153843,7.654899739,5.34311295,3.674999952,2.467291633,4.647268051,0.712819956,1.951907909,138.9899997,16.84999996,99.86750055,177.342501,7.349999905,22.2056247,144.0256246,5.039375113,60.06187434,19.4076893,20.21820178,17.58012378,22.59231729,17.35775694,20.12242863,18.79551315,20.37165926,16.80998738,15.69375022,16.27615364,23.81483975,28.77428317,30.28249967,31.91701372,28.65899596,28.4854072,27.09877011,2.916875011,4.602307732,13.93389792,16.26044709,20.47749984,20.41381959,17.79543547,15.77196732,14.62672175,5.339800043,5.921635642,11.53105666,14.7484369,17.37999976,18.17178164,15.31569586,14.44648847,13.36421336,0.599162964,0.636840646,1,1,1,1,1,0.99828125,40.05982425,-88.23397575,2015,ILH1
2369/LH123HT,IAH2_2019,Y,23.95,710.5262491,1,1,268.5,137.5,65,64,1.624999978,4.994666719,7.633826981,4.023414549,10.53523836,1.22350002,2.763567443,7.261517829,4.773321835,51.99999928,74.92000079,126.7292866,144.3807149,31.60571507,12.2350002,103.2057142,58.23357121,145.3535721,19.40078695,15.59915857,17.73377221,20.37141966,18.69170743,21.11460887,19.04896103,16.46108124,13.94542613,15.78031255,14.78666655,21.30773964,26.90560141,30.4667857,29.3667858,27.70213024,26.0789087,24.69893011,1.823749996,4.276000045,9.222208134,15.06467224,19.71440506,18.17542877,16.74212177,15.32632928,13.45358666,5.188982368,5.371381143,9.150668224,13.41851256,17.10626668,15.79657396,14.44283917,13.04517908,11.92357614,0.546495539,0.532857125,0.866155154,0.998157434,1,1,1,0.956872449,42.06583499,-94.72067796,2019,IAH2
F42/OH43,MOH1_1_2020,Y,13.8,731.1212129,1,0,239,109,54,53,2.765624954,8.119999743,10.49656654,1.909885915,5.802857127,7.415295831,3.691475556,2.293301892,3.400930865,88.49999854,40.59999871,96.7978566,57.0957143,7.737142835,67.39857156,118.848571,17.52928566,104.715714,18.75466287,21.25211372,22.49923535,20.31658939,20.84622072,17.68630925,18.12476098,17.46293798,14.64158327,22.18656257,30.76999931,28.86546125,30.72469998,30.62226157,31.26253243,28.67352632,29.54480095,24.35225034,12.23093753,19.21800041,17.35636515,20.03188031,19.40511944,21.45309498,18.10676495,17.58972003,12.9136675,10.41798935,16.99399986,15.213465,17.3995364,17.01369051,18.36589209,15.51205264,15.80164337,11.56818364,0.936383936,1,1,1,1,1,0.995985623,0.962870504,38.8978375,-92.2070925,2020,MOH1
PHG39/PHN82,IAH3_2019,Y,23,700.2287673,0,0,261.5,140,65,64,2.879677419,8.325833271,8.514982687,3.930253796,0.537380945,2.3054841,2.306432914,9.350841805,5.38576807,89.26999998,99.90999925,122.1842849,140.4857139,1.612142835,22.50785688,97.56999955,77.30999979,164.0414292,18.1142604,18.14433392,18.34133211,20.20102762,20.30083813,21.10542726,19.14151731,15.03963484,12.83068274,16.60032246,18.1858333,22.24543073,27.09611601,28.60416662,30.1634999,27.59661349,25.62734982,23.13272506,3.497096781,6.015833348,10.94521806,15.70806976,18.18130992,18.44873807,15.55405048,14.14793364,12.04513443,5.803122395,7.048807354,9.977529243,13.7421048,15.43701566,16.36698878,13.8976006,12.43400485,10.94701098,0.634539169,0.718095232,0.926337681,1,1,1,0.9932483,0.897879883,41.97593131,-92.24310603,2019,IAH3
B14A/OH43,ARH1_2017,Y,17.7,731.1212129,0,2,229,110,65,64,3.058125025,3.532857077,9.871688678,6.405160528,0.516363615,5.988171668,5.119232493,3.102318153,5.34158356,97.86000079,24.72999954,132.0327285,211.6218184,0.569545432,54.36818138,136.8913653,16.08272713,165.5890903,17.13974981,16.55343887,20.38424011,18.76225527,22.81364793,19.06964508,19.53553475,19.77193111,17.12972935,24.60906261,23.96000045,24.77057006,28.06605652,30.35469691,31.5146664,31.30577636,32.78459133,30.91587993,11.9175,14.17857156,11.8445801,17.60850246,18.97249995,21.30615642,21.39979275,22.50533316,21.62237538,11.1639709,11.77578055,11.22655186,14.97537354,16.74359516,18.41041141,18.33049426,19.54768126,18.22457608,1,1,1,1,1,1,1,1,34.7272515,-90.76032575,2017,ARH1
CG119/CG108,TXH2_2020,N,10.115,506.8291859,0,2,201.295,61.595,61.5,61,2.284333333,0,4.621906019,2.982124861,1.655000005,6.689114015,2.894056698,2.615892851,2.528400138,68.53,0,55.88714266,111.3664289,1.655000005,70.91857161,82.98143064,12.87071426,76.16571382,13.91343843,13.3863348,15.08661116,19.80328892,19.03358821,19.2160028,19.61198116,21.5690046,17.9190584,20.02266652,27.17999992,26.59088772,26.49063582,29.80749984,29.13094588,32.17534358,33.00407163,34.57616138,6.794333295,17.20400028,15.22554111,13.60666406,17.96904786,16.63267817,20.78659354,19.79317827,24.13923583,7.901247141,14.27292515,13.36557264,12.73068931,16.08957262,15.12192719,18.39831967,18.39239984,20.46927813,0.821357143,1,0.992404768,0.99375244,1,1,1,0.999043315,30.53825625,-96.42790225,2020,TXH2
PHG80/PHZ51,MOH2_2015,N,14.8,731.1212129,0,0,245,117.5,74,72.5,3.914838722,3.534545422,2.891676029,5.446623968,2.505882375,1.1137255,5.068586465,0.980448186,4.011119538,121.3600004,38.87999964,35.23176398,173.6929392,5.011764751,10.0235295,148.9223525,6.487058864,124.3447057,19.08701148,18.12534948,17.16717858,21.59629129,16.88945411,20.34516158,18.32895435,19.90608894,16.95494386,18.756129,18.24727275,23.87322904,29.02836507,30.59176479,31.93248319,30.27285599,28.73220747,28.34062618,6.152580692,8.059091026,15.30129973,17.80114352,21.94705907,21.39261428,20.17023127,17.40519331,17.20941189,7.288196993,7.58478923,12.05891064,15.51775091,18.26941193,18.66254873,17.2518739,15.21359182,14.97078901,0.75554147,0.814935086,1,1,1,1,1,1,38.89807917,-92.2079,2015,MOH2
W10004_0216/PHZ51,OHH1_2017,Y,17.7,731.1212129,0,2,229,110,65,64,4.401935447,12.29571451,4.299880116,6.252045262,18.36299991,4.892395558,3.195317293,3.431958172,3.794688752,136.4599988,86.0700016,53.63949916,223.8204996,40.86499989,50.26800107,124.097,30.99400014,115.4320013,19.0647902,19.03427505,21.00226491,20.15032754,19.69555429,18.89580098,18.69837911,16.0400155,13.85510684,20.47903239,25.43142836,25.24002704,27.25803818,28.09541678,28.73270468,26.30456447,24.69395371,24.25720733,8.011935501,13.44999967,12.59882409,15.91673102,16.75358336,18.39824095,14.97688189,13.11535887,11.81284403,8.407228033,12.106522,11.63721293,13.8931373,14.6377479,15.63224373,13.07252875,11.66012039,11.13333271,0.85352535,1,1,1,1,0.996926048,1,0.96495674,39.855785,-83.66477375,2017,OHH1
PHP02/PHB47,OHH1_2015,N,13.5,755.5777323,0,1,232.5,102,63,63.5,4.820000016,2.056666652,1.801667061,2.430255425,2.070588264,2.75488235,3.664772063,1.623969288,1.874022108,149.4200005,12.33999991,20.27235275,82.00588303,2.23529414,26.29176468,128.0200007,12.16764697,57.18411674,17.71339239,20.831882,20.85048625,20.93566426,20.28419298,19.59839119,17.66236547,17.23782846,14.83481447,16.95064511,28.03666687,26.64173705,29.01382079,31.07970569,30.59522857,27.99762273,26.69097183,23.34659959,5.9283871,15.42166694,14.66308043,16.74801267,19.23764672,18.74322206,16.69895781,13.90980629,10.26308727,6.580773377,14.04730329,13.19467995,15.08203889,17.16864649,16.69143216,14.53513226,12.92347397,10.29932856,0.672569122,1,1,1,1,1,0.994932126,0.947361455,39.855785,-83.66477375,2015,OHH1
PHB47/PHZ51,OHH1_2015,Y,13.86666667,778.3180048,0,0,248,110.3333333,62,61.33333333,4.820000016,2.056666652,1.801667061,2.430255425,2.070588264,2.75488235,3.664772063,1.623969288,1.874022108,149.4200005,12.33999991,20.27235275,82.00588303,2.23529414,26.29176468,128.0200007,12.16764697,57.18411674,17.71339239,20.831882,20.85048625,20.93566426,20.28419298,19.59839119,17.66236547,17.23782846,14.83481447,16.95064511,28.03666687,26.64173705,29.01382079,31.07970569,30.59522857,27.99762273,26.69097183,23.34659959,5.9283871,15.42166694,14.66308043,16.74801267,19.23764672,18.74322206,16.69895781,13.90980629,10.26308727,6.580773377,14.04730329,13.19467995,15.08203889,17.16864649,16.69143216,14.53513226,12.92347397,10.29932856,0.672569122,1,1,1,1,1,0.994932126,0.947361455,39.855785,-83.66477375,2015,OHH1
WF9/H95,KSH1_2015,N,15.85,764.5880289,0,2,229,110,83.5,82,0.688124985,3.518749885,2.537239536,4.634326915,6.340784251,4.013516285,5.753010874,3.95559662,1.81791271,22.01999953,28.14999908,47.40176476,147.1705882,9.165882307,38.18235242,161.646473,23.74705871,56.35529401,19.48910828,20.34062409,19.21958791,21.30664108,18.00351726,18.80818483,18.60066932,17.86718078,18.78253622,17.69406253,22.96750021,19.85221485,29.31892792,29.11705877,31.41670577,31.16760655,30.50505886,29.96204923,3.297187492,8.938749969,8.792561365,16.998743,18.09705929,19.84989561,20.1377744,20.03282345,17.06836811,6.184738542,9.476230158,8.381520189,15.38816616,15.61697663,17.65547515,17.65556265,17.32458654,15.75670183,0.6778125,1,0.850138809,1,1,1,1,0.98304554,39.21641775,-96.60482225,2015,KSH1
PHN11_OH43_0001/PHB47,ILH1_2016,N,14.1,720.1801384,0,2,246.5,114,71,69.5,2.976905237,4.388409027,2.266536067,5.61207631,2.384848472,3.596551307,3.312350719,4.357499975,4.793790319,93.71999985,46.35499933,33.46068128,180.4177266,4.628863606,41.73386359,104.1413657,28.32431801,148.2020453,18.82488241,16.77241452,21.32061235,20.18653607,20.74234538,18.07981042,18.8666989,17.85818253,16.07680721,18.05081144,19.20204525,23.0422997,29.42292662,27.90308728,26.97317812,29.60218573,29.15938829,28.17592877,4.960040295,8.531272602,10.4507586,17.10049505,15.99717794,16.84881478,19.41054858,18.84383108,17.09740687,6.781235125,7.969267807,10.17119166,15.41614171,14.29579798,14.15384892,16.51995977,16.04951253,14.84458937,0.666766271,0.897956159,0.946860721,1,1,1,1,0.999883117,40.0607245,-88.2338815,2016,ILH1
B73/PHZ51,MNH1_2020,Y,16.85,775.5291034,0,2,281,143.5,65,64,0.943005099,6.546073051,4.140359128,4.707487639,0.452236841,2.543512757,5.928901117,4.270615044,2.501087783,29.23315806,64.90105435,50.61684199,155.384737,0.714736844,28.61736839,219.2994748,34.34473765,76.93105461,20.83516212,15.73399946,19.74828467,20.97522671,19.78574355,20.20086134,18.41063051,15.8353279,12.84776632,15.708455,18.53155205,25.82840423,28.49526052,29.92499944,28.21992409,26.52185226,25.93987928,19.74067922,2.261239378,9.186207707,13.99244036,16.68286788,19.34447405,16.90528318,15.09377646,14.30914312,8.593217323,5.370680578,7.953384306,12.46596379,14.77865871,16.66236577,14.75116185,13.25288188,13.01752467,8.666130292,0.622613994,0.838417993,1,1,1,0.988450437,0.93066422,0.780758993,44.06907839,-93.53263028,2020,MNH1
LH212HT/LH195,ARH1_2017,N,12.75,634.5823203,0,2,213.35,113.7,71,65.5,3.058125025,3.532857077,9.871688678,6.405160528,0.516363615,5.988171668,5.119232493,3.102318153,5.34158356,97.86000079,24.72999954,132.0327285,211.6218184,0.569545432,54.36818138,136.8913653,16.08272713,165.5890903,17.13974981,16.55343887,20.38424011,18.76225527,22.81364793,19.06964508,19.53553475,19.77193111,17.12972935,24.60906261,23.96000045,24.77057006,28.06605652,30.35469691,31.5146664,31.30577636,32.78459133,30.91587993,11.9175,14.17857156,11.8445801,17.60850246,18.97249995,21.30615642,21.39979275,22.50533316,21.62237538,11.1639709,11.77578055,11.22655186,14.97537354,16.74359516,18.41041141,18.33049426,19.54768126,18.22457608,1,1,1,1,1,1,1,1,34.7272515,-90.76032575,2017,ARH1
B97/PHB47,WIH2_2017,Y,17.7,731.1212129,0,2,229,110,65,64,5.048709616,4.636666616,1.142383575,5.763857885,8.001590729,6.160048604,1.607776433,1.167726513,2.257555268,156.5099981,41.72999954,17.5799998,219.3963643,12.14409065,74.04090792,72.28863683,15.04409093,68.0204557,18.1690344,19.72049554,20.64727683,20.23287988,19.13163679,19.37493243,18.51401576,14.93340477,10.89478233,16.03129027,21.86555545,22.15746071,26.59689143,27.90045501,26.76799254,24.73062069,22.38533393,20.51274781,3.24419354,8.791111098,9.553497601,14.54337319,16.81037892,15.37831158,12.19271258,9.193202486,7.868866577,5.438218202,9.209131236,9.451203107,13.05708411,14.51682301,13.37610723,11.31306373,9.686333754,8.853113959,0.624158991,0.847976183,0.950288768,1,1,0.998699911,0.954544862,0.834596302,43.3246415,-89.33688775,2017,WIH2
CG119/CG108,MIH1_2019,N,16.55,749.7853988,1.5,1,172.25,76.75,62,57.5,3.720322615,6.189999878,7.0818969,2.961916884,8.70871786,0.913986013,1.817216317,4.468053866,4.013250907,115.3300011,49.51999903,106.8900002,93.8269235,16.81999984,10.80615383,84.36076873,63.3192304,120.886153,19.31986936,19.65939665,18.51979106,21.00444556,17.01540622,20.04742627,16.96863927,12.02893287,10.87568864,17.60709666,21.67250037,22.690749,28.9340566,30.56538516,27.94921954,26.00654686,21.50260694,17.46530245,6.210322559,10.31875008,12.21847794,16.86604701,18.743333,15.85306519,14.00590995,11.32576155,7.161163464,6.876773896,9.314382636,10.39761731,15.10453275,16.86261297,14.19391073,12.58553183,10.00606366,7.511656803,0.696382483,1,0.995173883,1,1,0.988904737,0.895422602,0.709438731,42.70789125,-84.4706665,2019,MIH1
B37/OH43,TXH1_2016,N,10.05,695.7236189,0,2,207,61,70,69.5,1.633666698,16.13999993,0.99702422,4.719865603,0.129393939,3.277272727,13.06232457,0.703636358,1.017125621,49.01000094,112.9799995,14.5313639,177.3549991,0.33090909,36.05,378.0672674,3.179999969,30.53454577,13.9726292,10.72874144,17.88940951,17.80076093,20.55685321,19.77792414,17.90480363,20.8338604,20.14326093,22.32500016,23.95000022,24.48309256,26.40498513,28.5388636,28.63545455,30.12870319,34.35404525,35.58838723,6.034666632,13.33571414,9.675379644,13.12758779,15.78530267,16.33764454,20.13902853,23.08186362,24.00118421,8.473379033,11.29783551,10.5045992,12.46111665,14.43681279,14.72204148,17.12368238,20.53225114,20.87599038,0.915869048,1,0.972225207,1,1,1,1,1,30.54708625,-96.43393475,2016,TXH1
F42/OH43,DEH1_2018,N,19.875,683.4953592,0,1.75,213.75,105.25,68,66.75,3.413225795,4.724545566,2.007753279,2.760624154,0.287142856,8.862777665,3.915865231,4.933581623,5.971971652,105.8099996,51.97000122,28.2621423,90.35856978,0.861428567,79.76499898,101.102142,26.37928568,184.7400021,18.24738333,20.30334785,18.96061465,21.19242313,20.3949075,18.85770366,17.73482038,14.47844699,15.08372737,17.38161278,18.28454564,22.01469092,28.14795471,32.28714262,31.68230149,32.09286912,30.42106803,28.79790015,6.703871004,7.41363637,12.85857977,17.97497576,22.0019049,21.31992057,22.76420594,22.26141136,20.21526036,6.825711165,7.366383816,10.38385741,15.21158117,19.10753111,18.47850441,19.35879976,18.34204267,16.58274325,0.781601378,0.839058448,0.989425295,1,1,1,1,1,38.65164475,-75.44913625,2018,DEH1
W10001_0022/PHB47,ONH1_2017,Y,17.7,731.1212129,0,2,229,110,65,64,4.42290319,4.904999876,1.545173221,3.420435244,1.695375006,2.594700004,1.855534774,1.54565171,2.383111348,137.1099989,49.04999876,23.52600009,140.8034994,5.378000009,36.46150006,95.23350107,29.85300009,72.44250006,18.65662235,17.08545341,23.10813164,20.12586768,18.11232318,19.44819915,16.33652997,11.62209215,7.957733996,13.94322577,18.20700026,22.35689536,24.80045755,25.17183321,25.2296929,22.79396283,22.13957367,13.29532023,3.578387066,9.706999969,10.10387851,14.12185296,14.82349991,13.63261195,10.3904862,9.847475595,3.166289439,4.958212412,8.025894563,9.659097931,11.97096233,12.35740613,11.98311106,9.953455995,10.0654016,5.273375752,0.439723498,0.877642858,1,1,1,0.972410901,0.840292505,0.515578473,43.49546,-80.42596875,2017,ONH1
W10004_0216/PHZ51,OHH1_2016,Y,16.8,760.7264732,0,69,315,130,65,64,4.328064465,1.776000023,3.915145208,2.580740659,3.890757626,4.17049496,5.079069289,3.957741935,3.614594814,134.1699984,8.880000114,44.70363614,85.9177286,9.330454675,39.94818193,160.1854537,27.69772666,110.1186362,18.3437644,22.24283047,20.73146956,20.35982518,19.15233416,18.82824642,16.72048491,17.98730955,14.71797893,19.63580645,29.63200035,26.56953589,28.59263588,29.59106055,30.69283836,29.21689182,28.27188687,26.30588322,8.120967747,16.89599972,14.9739129,16.70528562,18.30318191,19.74443426,18.9160149,15.44500838,13.40262461,8.117657052,15.32722009,13.17028057,14.81678154,15.96857054,17.23303236,16.11713161,14.21502474,12.5845871,0.859331788,1,1,1,1,1,0.999172078,0.989049277,39.860924,-83.6755995,2016,OHH1
B14A/H95,INH1_2016,N,21.6,683.4953592,35.5,22,275,143.5,66,64.5,3.034516148,1.382857186,3.106568823,3.966270256,3.500454469,6.752636371,3.451172643,3.198528118,3.024422797,94.07000059,9.680000305,31.26000059,138.8759105,3.500454469,67.52636371,113.8927274,21.6654544,92.62590972,17.63328649,23.97511796,20.66441577,20.1236558,19.9706746,19.39149484,18.14527656,15.98533716,14.62820237,18.74516109,26.31142807,27.84898846,28.12893417,28.20272714,29.14504538,29.16779001,27.95564941,27.07739093,7.950322636,11.69428553,16.31817922,16.10606538,16.8522731,18.34872752,18.58889605,17.50284626,15.03841012,7.677100472,11.91689015,14.24288378,14.4184555,14.68521604,15.7994256,15.9329094,14.92238151,13.51734692,0.852649763,1,1,1,1,1,1,0.996102814,40.4787595,-86.98982,2016,INH1
PHG39/PHN82,NYH2_2017,N,17.7,731.1212129,0,2,229,110,65,64,4.985806354,2.593333337,3.453715005,5.89688957,0.948070192,3.208418109,2.379655727,2.694333021,3.397972982,154.559997,23.34000003,55.2357889,222.9889478,1.763157895,41.81263091,117.7794744,23.637895,104.1910535,18.91896409,18.22902181,21.62310913,19.28169434,21.2024166,18.91678159,16.97406986,13.88043676,9.439494818,16.54903238,19.80111122,22.34881997,25.65461899,27.16105275,25.3148988,23.28803047,24.25146582,18.24460841,5.239677404,10.2422222,10.55939387,15.21770316,15.87359667,14.84504335,11.5614249,11.15398494,7.352427253,6.267898103,8.570747831,9.793885142,12.80097944,13.68904673,12.46138399,10.55155578,10.87663924,7.688896934,0.638917053,1,1,1,1,0.981507475,0.966916282,0.722284214,42.73248125,-76.65275025,2017,NYH2
CG44/CGR01,ILH1_2019,Y,13.5,756.2213249,0,0,209.5,101.5,56.5,55,3.922903261,5.481666605,1.00366755,4.244691953,0.864761892,1.289377346,1.227411081,2.864647074,2.116070648,121.6100011,32.88999963,10.01785682,147.0385723,1.34571428,11.77428573,45.42428628,20.70571404,64.49999962,18.80145381,19.65322081,22.67392072,19.84274881,20.61125065,20.0231267,19.28032854,15.59344345,14.97056188,19.78774188,27.49499989,27.66771062,28.39175175,31.90428638,30.86753304,28.53869606,27.75133519,26.64299619,8.822580737,16.11666648,15.73801632,17.44140675,20.6435711,19.81749468,16.71837596,16.74759351,14.38373492,8.392897398,14.01107102,13.933587,15.08804109,18.28423173,17.40393302,14.78980986,14.45116262,13.1086535,0.871382484,1,1,1,1,1,1,0.979387755,40.0587105,-88.2298385,2019,ILH1
B73/PHM49,SDH1_2015,N,22.5,628.1463942,0,5.5,162.5,83.5,72,72,1.890000034,2.68444448,2.847212523,0.928406021,1.08916667,1.213193166,1.12388612,3.994558873,0.570569385,58.59000105,24.16000032,33.86000057,31.14874977,1.720000006,12.77624983,39.02562428,27.90249949,17.65812508,21.16446504,23.3864585,24.03054242,23.94878495,21.74335716,21.42490048,20.60212775,16.27746828,15.18579983,19.04290341,22.5888888,27.20826416,30.46229654,29.54760476,31.86073879,31.47770382,29.48664523,24.89733582,4.208709664,8.468888919,11.69082143,14.25969647,14.29062517,16.06534098,14.02269822,14.11578116,6.942900096,6.807516906,9.210660666,12.27390437,14.67606113,14.18888263,15.81431879,15.00552731,14.17539039,9.834808296,0.77025346,0.983690483,1,1,1,0.983472358,0.961069402,0.950039755,44.208745,-102.928745,2015,SDH1
B37/MO17,KSH1_2015,N,15.9,754.2905471,0,2,229,110,85,82,0.688124985,3.518749885,2.537239536,4.634326915,6.340784251,4.013516285,5.753010874,3.95559662,1.81791271,22.01999953,28.14999908,47.40176476,147.1705882,9.165882307,38.18235242,161.646473,23.74705871,56.35529401,19.48910828,20.34062409,19.21958791,21.30664108,18.00351726,18.80818483,18.60066932,17.86718078,18.78253622,17.69406253,22.96750021,19.85221485,29.31892792,29.11705877,31.41670577,31.16760655,30.50505886,29.96204923,3.297187492,8.938749969,8.792561365,16.998743,18.09705929,19.84989561,20.1377744,20.03282345,17.06836811,6.184738542,9.476230158,8.381520189,15.38816616,15.61697663,17.65547515,17.65556265,17.32458654,15.75670183,0.6778125,1,0.850138809,1,1,1,1,0.98304554,39.21641775,-96.60482225,2015,KSH1
CG44/CGR01,IAH4_2017,Y,17.6,731.1212129,0,2,196.5,85,65,65,3.054193612,4.63857133,5.654282844,2.356146022,0.145000003,0.823262634,3.029939984,2.506485397,3.022032747,94.68000197,32.46999931,92.55000019,79.81000018,0.290000005,7.931363713,110.0431818,17.65818187,91.79227275,19.60434628,22.37855189,18.81628808,21.46940114,22.42332305,21.26952374,19.1513695,15.94205759,15.34138578,17.83935482,25.21428544,21.76755785,28.88340452,30.88984893,30.99338411,28.30609907,26.26622464,25.93438806,4.952580655,10.13999993,10.24708413,15.02150207,17.47128796,18.07608078,15.80662465,13.87026602,12.51354651,6.575243948,10.82301274,9.649960621,14.3656457,16.22810104,16.57398155,14.36597852,12.57546566,12.06214068,0.727396317,1,0.910082199,1,1,1,1,0.987168831,41.99455432,-93.69030947,2017,IAH4
B37/OH43,MIH1_2020,N,22.9,691.2184706,2,22.5,271,133.25,62,60,4.984838709,2.447142908,2.78018427,2.64718347,5.506875038,1.476884461,2.688717092,6.006552647,2.65185957,154.53,17.13000035,30.43499947,89.07562375,6.053750038,16.17374991,112.2143753,49.72375022,79.8756258,20.40588462,19.28742858,24.32683064,21.06964646,18.47526628,19.40802789,18.05267967,13.18055513,11.8632568,17.75483874,24.12857165,28.18736501,29.25734834,30.47187495,29.12451894,27.19720882,23.65947149,18.53645566,5.91032262,13.18571418,13.36449351,15.87753885,17.57625037,17.40439215,14.2199518,12.09430501,6.603961046,6.886871568,11.64218502,13.33305563,14.86544572,16.04104967,15.33737973,13.2580117,11.17810785,7.349100415,0.70564517,0.993469382,1,1,1,0.990981538,0.929873564,0.775463757,42.7085775,-84.4705825,2020,MIH1
PHN11_OH43_0001/PHB47,ONH1_2017,Y,24.65,689.9312854,0,2,247,107.5,70.5,70.5,4.42290319,4.904999876,1.545173221,3.420435244,1.695375006,2.594700004,1.855534774,1.54565171,2.383111348,137.1099989,49.04999876,23.52600009,140.8034994,5.378000009,36.46150006,95.23350107,29.85300009,72.44250006,18.65662235,17.08545341,23.10813164,20.12586768,18.11232318,19.44819915,16.33652997,11.62209215,7.957733996,13.94322577,18.20700026,22.35689536,24.80045755,25.17183321,25.2296929,22.79396283,22.13957367,13.29532023,3.578387066,9.706999969,10.10387851,14.12185296,14.82349991,13.63261195,10.3904862,9.847475595,3.166289439,4.958212412,8.025894563,9.659097931,11.97096233,12.35740613,11.98311106,9.953455995,10.0654016,5.273375752,0.439723498,0.877642858,1,1,1,0.972410901,0.840292505,0.515578473,43.49546,-80.42596875,2017,ONH1
B14A/OH43,NCH1_2016,N,14.7,731.1212129,0,18,233,136.5,65,64,2.901562452,3.125714166,7.137907935,4.683034439,4.3177271,0.863030289,5.226283407,5.104181825,4.507668668,92.84999847,21.87999916,91.86318315,160.7736342,8.497726928,8.495454409,139.9318182,26.12772732,139.7377287,16.36857818,22.27138465,15.49498623,18.72849078,21.8793198,21.8664799,18.529992,18.05675722,17.32656161,20.86125001,25.58571407,25.68946269,27.1054564,30.20318166,31.0559697,32.42423852,33.59766701,33.26035177,7.692187494,8.212857212,14.27003911,16.07300028,18.02681784,18.80169681,21.2796372,22.62190931,22.7218182,8.383421821,10.43985322,12.46468669,13.95599298,16.17160042,16.99727481,18.83160592,19.980567,19.86697781,0.913761163,1,1,1,1,1,1,1,35.30015175,-77.57127825,2016,NCH1
PHW52/PHN82,NCH1_2015,Y,18.55,731.1212129,0,0,217.5,99,65,64,3.0140625,9.692856925,3.043308324,7.00027835,0,3.411347986,2.886716411,10.31533332,6.56176467,96.44999999,67.84999847,47.46470581,233.8535261,0,30.12176424,80.44058821,53.94764695,203.4147048,18.56641886,18.5514961,20.38733283,17.18369043,24.39251002,21.03629604,20.30189304,17.27178406,15.58503138,22.38312501,24.94999995,23.18034629,27.40244989,31.82117664,31.76743482,33.30845927,33.22968591,31.16039845,8.592187501,12.50999982,10.48535005,18.40286831,19.92058833,21.46261411,22.34001137,22.61282364,21.92468694,9.285127697,11.46773529,10.15801447,14.99239002,17.87088248,18.60652477,19.71826945,19.84422869,18.53531879,0.955334819,1,0.995809598,1,1,1,1,1,35.29657708,-77.5664625,2015,NCH1
PB80/PHZ51,OHH1_2017,Y,15.15,751.072584,0,2,229,110,65,64,4.401935447,12.29571451,4.299880116,6.252045262,18.36299991,4.892395558,3.195317293,3.431958172,3.794688752,136.4599988,86.0700016,53.63949916,223.8204996,40.86499989,50.26800107,124.097,30.99400014,115.4320013,19.0647902,19.03427505,21.00226491,20.15032754,19.69555429,18.89580098,18.69837911,16.0400155,13.85510684,20.47903239,25.43142836,25.24002704,27.25803818,28.09541678,28.73270468,26.30456447,24.69395371,24.25720733,8.011935501,13.44999967,12.59882409,15.91673102,16.75358336,18.39824095,14.97688189,13.11535887,11.81284403,8.407228033,12.106522,11.63721293,13.8931373,14.6377479,15.63224373,13.07252875,11.66012039,11.13333271,0.85352535,1,1,1,1,0.996926048,1,0.96495674,39.855785,-83.66477375,2017,OHH1
B14A/H95,ILH1_2018,Y,15.15,772.3111404,0,2,242.5,108.5,61,59,4.93870967,7.677000022,2.588106254,5.605117571,0.281428576,3.456349163,4.202656593,1.004543384,2.183824858,153.0999998,76.77000022,33.4678576,176.7721435,0.281428576,32.73642816,135.7042854,6.586428666,67.2342849,18.91812334,19.3164753,20.10278531,22.12028957,18.91592986,20.16297878,19.11980649,19.09856314,16.2127272,15.99580652,18.50399971,25.32625123,29.19453127,30.85535676,31.83740471,28.20358558,28.86124239,26.43877647,3.618387117,7.573000085,14.94700907,16.75211974,20.46500043,20.0205478,17.14982155,16.71822788,13.95248539,5.629456993,7.587936205,12.64486739,15.17263993,17.66017859,17.94105007,14.82889519,14.97382886,12.85823928,0.640783421,0.72660713,1,1,1,1,1,0.984431123,40.06300125,-88.2291765,2018,ILH1
PHW52/PHN82,NCH1_2016,N,14.56666667,731.1212129,0,2,218.6666667,108.6666667,65,64,2.901562452,3.125714166,7.137907935,4.683034439,4.3177271,0.863030289,5.226283407,5.104181825,4.507668668,92.84999847,21.87999916,91.86318315,160.7736342,8.497726928,8.495454409,139.9318182,26.12772732,139.7377287,16.36857818,22.27138465,15.49498623,18.72849078,21.8793198,21.8664799,18.529992,18.05675722,17.32656161,20.86125001,25.58571407,25.68946269,27.1054564,30.20318166,31.0559697,32.42423852,33.59766701,33.26035177,7.692187494,8.212857212,14.27003911,16.07300028,18.02681784,18.80169681,21.2796372,22.62190931,22.7218182,8.383421821,10.43985322,12.46468669,13.95599298,16.17160042,16.99727481,18.83160592,19.980567,19.86697781,0.913761163,1,1,1,1,1,1,1,35.30015175,-77.57127825,2016,NCH1
CG119/CG108,NEH3_2015,N,16.35,742.70588,0,0,229,110,62,60,3.231250057,0.918000031,0.565093977,1.286692195,3.19749999,1.391136354,0.258061221,1.474667183,0.155891338,103.4000018,4.590000153,6.150000095,39.04749978,4.720000029,15.30249989,11.17999983,14.52874985,4.648125023,21.79127574,25.69442635,22.86725485,21.82271665,15.26317632,20.59079,20.06412842,16.27968968,13.53861776,24.28750017,32.64599991,30.58771447,32.67731329,28.91593772,29.87238656,30.80707127,25.39031645,21.32018275,9.278749934,13.0079998,13.8828633,15.7826582,17.05531204,14.62710229,13.18313307,8.87540479,3.334017086,10.46257825,15.28330691,14.45465852,16.22005678,15.0938879,14.496454,14.53020136,10.90039565,7.851747396,0.909587052,1,1,1,1,0.965712824,0.862507779,0.80953931,41.15824525,-101.9872958,2015,NEH3
PHP02/PHB47,ONH2_2017,N,20.75,877.8603295,0,1.5,228.5,83.5,38,35,3.566774253,5.816000056,0.640467161,2.602850346,0.276190468,0.553043346,1.774150425,1.832219351,2.40528059,110.5700018,58.16000056,8.999047586,96.02571482,0.552380936,6.918571438,78.70857161,24.06619065,72.98142847,18.8542372,16.74867072,24.21291039,19.37094181,21.19715784,20.84705237,17.61151759,14.253685,9.927824707,15.7532257,18.68899984,23.40262829,26.34974997,26.59380949,26.86065013,24.57225317,22.91748616,20.00596815,5.764838726,10.96000004,12.03359118,16.18007827,16.63301581,15.91920336,13.14574071,11.27177775,10.10650586,6.141928302,8.38660306,10.68394655,13.52521671,13.7753985,13.64998718,11.58821465,10.41552723,9.107414304,0.598502303,0.966571423,1,1,1,0.999084662,0.956230826,0.8300025,42.45293025,-81.8827315,2017,ONH2
B73/MO17,MNH1_2016,N,22.8,731.1212129,0,2,229,110,71.5,70,2.893225764,0.170000008,5.030425272,6.121705224,6.438583227,6.210954471,8.179238718,7.617170889,9.394742846,89.68999869,1.190000057,67.79499967,212.8530004,13.67999972,65.11499918,295.599999,62.20750045,287.315495,17.89673604,26.28611401,18.122652,20.29948324,15.80941307,17.87578139,16.93568638,15.29315111,12.15008877,17.5148386,25.45428576,24.53269911,27.63337014,28.14450006,28.70269129,27.15887183,24.8505404,22.53032632,6.338387108,9.824285678,13.68155402,15.81410535,17.82425013,18.42635015,16.92976579,13.57123889,11.50456607,6.871134867,10.90204251,11.6566452,13.98369248,15.05511886,15.68076391,14.22086787,11.86153057,10.26982602,0.734527645,1,1,1,1,0.999952477,0.98729881,0.936092645,44.06646925,-93.533648,2016,MNH1
B97/PHB47,ONH1_2016,Y,29.25,638.443876,0,1.5,215.5,104,83,80,1.979032247,2.105714291,0.92181366,1.439738287,4.720833318,2.435439396,4.62931563,1.31185227,2.043303741,61.34999967,29.48000008,13.31600007,60.28400005,10.99249999,28.54150001,172.0475013,11.37649985,61.38049932,20.24883872,21.56727634,23.77365349,22.41142308,19.3081847,20.61473607,17.12813691,15.31534219,11.6349499,10.49290321,16.47999988,25.01561457,25.51466922,28.22516696,27.99415914,27.31356147,24.49017951,20.3886015,-0.735806467,3.753571405,10.93050922,11.61184699,15.55325019,14.71775745,15.07244109,12.71620509,9.185787659,3.269306411,5.688768484,11.09209761,11.56175859,14.2216101,13.76399544,13.57642435,11.5133866,8.776899495,0.291105988,0.684668367,0.99891379,0.988093962,1,0.998165816,0.971212584,0.877977401,43.4997965,-80.451125,2016,ONH1
TX951/LH195,NYH2_2015,N,22.3,731.1212129,1.5,9,220,123,90.5,90.5,3.814193487,2.822857129,1.806874641,1.427310218,14.28882354,6.323155046,2.553769654,1.263651931,1.70374005,118.2399981,39.5199998,23.5252947,50.99705838,17.86235295,65.18176435,90.43176518,10.71352917,51.74117684,19.21827184,21.58410556,20.44972798,21.8367517,17.34067749,18.34945618,18.49425604,17.55625849,13.84215422,11.26903224,15.86071418,24.70888252,27.12764594,29.5805878,28.55383422,27.75922879,25.11594081,20.73318661,0.676451599,3.065714287,12.68317757,14.19692254,19.48862723,17.66257776,16.12899413,12.03346763,8.797239788,3.458861152,5.522653893,11.65565145,13.2498794,16.56577659,15.18766176,14.16580901,11.53845799,8.731216192,0.261509218,0.568112238,0.971160735,0.994106254,1,0.999864887,0.980226591,0.898542131,42.7324825,-76.65277775,2015,NYH2
TX951/LH195,DEH1_2015,Y,24.4,702.8031377,0,0,275.5,162.5,69.5,65.5,2.877187484,6.848000002,1.658122271,2.899811139,0.533124998,6.398055441,4.542065261,4.666333417,5.694818618,92.06999949,68.48000002,26.86312445,94.40374921,0.778750002,57.58249897,115.8581242,26.73625046,176.5393772,18.09789148,17.20138936,20.11151884,21.0089777,21.53492481,19.24730516,17.70191113,15.05628078,15.14846735,16.82656264,19.24400005,20.72376954,27.68890342,31.56656283,31.86354174,32.09465687,30.43364003,29.09395151,6.265937505,9.858999991,10.7453803,17.67876376,20.38750017,21.35659703,22.77220607,22.28250884,20.56647162,6.521960329,8.412914767,9.229957748,14.85993723,17.9770315,18.58170739,19.36170697,18.35807444,16.86736745,0.750435273,0.870857151,0.962682184,1,1,1,1,1,38.62935675,-75.4656925,2015,DEH1
PHN11_PHW65_0323/LH195,KSH1_2016,Y,15.5,773.5983256,0,2,150,55,89,89,0.381562503,5.593749881,9.031136959,3.981909994,0,0.897724769,5.011421387,3.322424253,5.670073263,12.2100001,44.74999905,140.9509078,148.5090918,0,8.374091108,139.438637,19.93454552,175.7722711,18.43315426,14.04582843,18.34613738,20.88446512,22.70328743,20.59441801,18.34986672,18.15379387,17.32510191,19.15124996,21.70124984,22.33901244,27.19377063,36.31272689,35.17540036,32.01078432,33.85633352,30.76895891,2.130625044,11.46499991,9.568238579,14.2621368,21.58727247,22.04353923,20.78061301,22.71134866,19.49139311,6.3158573,9.667291017,9.626890379,13.35418843,19.56599107,19.14397536,18.06824645,19.12054732,17.03744615,0.741573662,1,0.921279778,0.986042268,0.991287871,0.998977631,0.993550002,1,39.14480675,-96.62898225,2016,KSH1
PHP02/PHB47,MIH1_2017,Y,23.6,669.3363216,0,10,104.5,50.5,62,62,2.651290334,1.642500043,0.365195355,3.685889798,0.022982455,0.462972321,1.745768067,1.924198947,6.215848807,82.19000036,13.14000034,4.417894763,131.6678931,0.068947365,5.871578781,77.40789432,25.15789459,187.919471,20.75480046,19.52619267,24.47429891,19.89055103,21.94334328,22.12060477,17.47908742,14.76431364,9.641321864,18.99677434,22.1187501,26.44652255,27.49693157,27.7329823,27.82492569,25.37386911,24.10071042,20.63989867,5.961290348,11.91874993,11.36318641,16.0503933,16.08877179,14.96255052,12.27657104,9.93890341,8.936309075,7.303217139,10.01258026,11.86785018,14.06113521,14.11607898,13.75096176,11.67659513,10.59348898,9.148775778,0.770126733,1,1,1,1,0.999072621,0.949278334,0.816440377,42.68116575,-84.49434125,2017,MIH1
B37/MO17,INH1_2020,N,25.3675,720.0835995,21,2,227.2,113.125,69.75,65.75,2.63064515,6.092222161,2.380905542,2.638028789,0.629411796,2.977235278,3.349803369,1.095052516,1.575144189,81.54999965,54.82999945,26.35000017,86.90176377,0.755294155,29.77235278,114.9176474,7.60117643,48.41470517,19.12040675,14.46862051,21.68340347,21.75389977,20.24839053,19.66959435,18.78188958,18.00828299,15.45076636,15.20677414,20.6899999,27.1104927,29.42650107,32.0752936,30.36388222,28.15834081,28.66782236,25.41333794,2.934193564,11.51555562,15.17811918,16.46944194,19.37588254,18.23752946,16.66734055,16.5683672,12.52337519,5.193705795,9.337664252,13.54219901,15.16026165,17.73146127,16.3694037,14.61167179,14.83949529,11.90095499,0.576025338,0.994801587,1,1,1,1,1,0.975702381,40.4787965,-86.9895995,2020,INH1
PHW52/PHN82,ARH1_2016,N,17.575,781.9650296,0.25,2,191.5,96,69.5,69.25,12.62656226,6.052222146,7.859593922,4.411032368,3.769999921,0.095833332,1.834913509,2.950363528,2.931715563,404.0499923,54.46999931,101.1431819,160.496816,7.539999843,0.824999988,46.86636396,14.75181764,90.88318244,16.40757677,14.40289243,17.41332625,19.31399891,17.48165414,22.15918181,19.7781726,18.25208951,17.22596404,20.37124979,20.08666674,25.25253507,26.30445415,29.50681779,32.27019592,33.22074717,33.17606868,32.75999986,8.53968759,10.04999993,14.84655054,15.67568893,20.10318184,20.90335237,23.01320039,23.46584116,23.35664232,8.376579132,8.623890092,12.4075181,13.38568101,16.80499981,18.57005087,20.09384313,20.24603027,19.89808151,0.932198657,0.999841266,1,1,1,1,1,1,34.72952,-90.7603555,2016,ARH1
B73/DK3IIH6,IAH3_2017,Y,17.7,731.1212129,0,2,229,110,65,64,4.153750014,4.476666673,3.404720357,2.207347727,0.783636364,2.628276904,1.892687593,2.328876272,1.794257086,132.9200004,67.1500001,54.03954627,78.33863542,1.567272728,28.02681865,71.85545488,19.05045461,54.69545453,16.14493189,17.75127989,18.89303832,22.07985964,20.54923199,20.99384486,19.81852315,17.22919489,15.64326955,15.84312499,15.5066665,21.42652578,27.714982,28.45522753,29.90074383,27.6545798,25.64720852,25.13760955,4.41906251,4.141333344,9.782295063,13.56526933,16.05901469,16.6123348,14.8096002,12.74600627,11.28191352,5.818880471,5.62230391,9.387130072,13.2881535,14.4256186,15.3843105,13.65871261,11.89796048,11.29223634,0.568604913,0.570380948,0.879734313,1,1,1,1,0.979205627,41.9758706,-92.24318881,2017,IAH3
PHW52/PHN82,NEH4_2015,N,14.9,792.2625115,0,2,230,110,65,56.5,2.821875036,0,3.668207424,2.0125769,1.951249957,2.654893884,1.684158262,0.190010425,1.166079967,90.30000114,0,33.89000034,59.04687595,1.951249957,28.04999942,59.1787506,1.401875056,35.09749981,18.84220009,27.31064491,20.41342533,20.52862815,19.03072298,18.81303122,18.33826559,17.15407273,12.68489203,24.01437524,30.79399948,29.66091772,30.90712841,30.81250072,28.65153035,29.50292414,26.73776808,20.93262179,13.35843744,15.59799976,18.4981335,19.26878801,20.26031268,17.34358901,16.24316685,11.04417556,7.09840123,11.80342709,15.44887437,16.14310254,17.09436255,17.53736601,15.18702607,15.25106182,11.88303257,8.618375536,0.931774556,1,1,1,1,0.97284651,0.984144349,0.784438609,41.16732275,-96.41663225,2015,NEH4
B14A/OH43,COH1_2017,N,40.575,565.0743177,2.75,14.75,237.75,113.75,77,74.25,3.393124943,0,0.001708684,0.360843908,0.891428554,3.560382097,1.42287895,1.565670675,1.770870451,108.5799982,0,0.02904762,12.29476177,1.600476163,43.78523833,56.48285717,21.02523811,53.20285701,22.26802993,25.65694836,25.9931063,24.2875628,21.26982858,19.37652668,19.65631787,15.92591012,11.99136935,20.38624986,26.27857154,29.00990249,30.95750085,32.84396765,29.24597739,27.87075516,24.49812031,17.64004964,4.676250031,9.955714362,11.44166305,13.33492254,15.64190474,14.2894836,11.55992968,8.650869984,2.505724526,7.387813889,11.22152513,12.97827389,14.53136664,16.23032426,14.11586508,12.58015619,10.40568176,6.007000116,0.859799101,1,1,1,1,0.978368119,0.882220332,0.653649732,40.64850025,-104.9997825,2017,COH1
PHW52/PHM49,DEH1_2016,Y,22.75,704.090323,0,2,256.5,128,78.5,76.5,2.701875035,7.431818214,3.891344367,3.01543569,5.358105985,2.453055546,7.028031294,2.624318106,3.1968602,86.46000111,81.75000036,66.39499953,101.6163622,13.33454524,24.02227264,188.3231781,15.05272682,98.58045408,18.33047433,10.1000462,19.40971708,21.02938559,18.25055452,17.64652011,18.94468483,17.7865103,16.44449792,18.09,16.60090897,19.90208421,27.67646738,27.79681775,28.9030859,31.91379825,31.21812112,30.57169607,5.529687506,9.93090907,10.11289786,16.8589893,18.02106052,19.78800518,21.90881045,21.62957593,20.16127331,6.825577378,7.645605865,8.606637786,14.43603228,14.98401645,16.37610101,18.85541374,18.37748956,17.3477875,0.726328134,0.729318176,0.990929859,1,1,1,1,1,38.6482025,-75.44606,2016,DEH1
B73/PHZ51,ONH2_2017,N,23,879.1475148,0,2,232,121,46,42,3.566774253,5.816000056,0.640467161,2.602850346,0.276190468,0.553043346,1.774150425,1.832219351,2.40528059,110.5700018,58.16000056,8.999047586,96.02571482,0.552380936,6.918571438,78.70857161,24.06619065,72.98142847,18.8542372,16.74867072,24.21291039,19.37094181,21.19715784,20.84705237,17.61151759,14.253685,9.927824707,15.7532257,18.68899984,23.40262829,26.34974997,26.59380949,26.86065013,24.57225317,22.91748616,20.00596815,5.764838726,10.96000004,12.03359118,16.18007827,16.63301581,15.91920336,13.14574071,11.27177775,10.10650586,6.141928302,8.38660306,10.68394655,13.52521671,13.7753985,13.64998718,11.58821465,10.41552723,9.107414304,0.598502303,0.966571423,1,1,1,0.999084662,0.956230826,0.8300025,42.45293025,-81.8827315,2017,ONH2
CG44/CGR01,IAH4_2015,N,15.7,687.3569149,57,0,217,100,65,64,1.42451612,4.854615514,2.513668144,6.351127419,5.46999979,2.154687441,1.85099418,0.335758934,4.064770202,44.15999973,63.11000168,35.58999979,218.2399999,10.93999958,20.30812445,58.48687407,2.377500039,125.1143763,19.83997888,19.28772805,16.02270398,20.69822917,17.27718186,21.35831173,20.17303565,19.59360772,15.6142427,15.83032262,16.78769229,22.26164163,27.88725423,29.37999988,31.52784708,28.69895342,30.18404469,25.46833276,2.473548389,5.024615425,13.48280789,16.59868734,20.37374985,19.78628468,17.37298211,16.89515858,12.68514048,5.318693913,6.228847238,10.78291245,14.47529064,16.87687486,17.66054739,15.18141656,15.71210426,12.05907357,0.585391697,0.659230777,0.98994413,1,1,1,1,0.952600636,41.19970961,-91.49362406,2015,IAH4
LH82/PHB47,ONH2_2016,Y,18.95,718.2493605,0,3.5,195.5,71.5,69.5,67,1.435483875,1.740833327,1.463802716,3.022687524,0.150999999,1.134659085,3.046446673,1.693503778,2.765116665,44.50000012,20.88999993,18.84600039,117.1590009,0.150999999,12.25349994,101.0444998,13.16149993,84.26899996,19.72563927,22.19747464,21.68954048,21.77365896,18.98664827,19.92678304,16.69906166,15.68152671,12.9072029,14.10741935,17.58083336,26.00758685,26.04894451,27.78099985,28.79287246,28.2480382,25.9224786,23.75348014,4.257419363,7.13166666,15.03828811,14.1477789,17.72699971,17.33924119,18.24672102,15.95494667,14.17526013,5.131346137,6.986841243,12.85116395,12.65171997,14.84296497,15.26027205,15.31782021,13.26534606,11.67621189,0.511244241,0.799851209,1,1,1,1,1,0.975829282,42.4530035,-81.88279875,2016,ONH2
PHW52/PHM49,TXH1-Dry_2018,N,10.75,746.5674357,0,2,221,80,74.5,74,2.442333295,0.87833333,4.91741256,2.91095925,1.112321411,5.987347663,3.094033648,2.445309502,2.573656677,73.26999886,5.269999981,55.2178573,113.3721426,4.449285643,64.36357035,86.72785865,13.67714274,77.357857,13.4988633,14.49154552,13.92485348,19.6618496,19.390827,19.64184359,19.38410293,21.21373351,18.01258323,19.68933331,26.95833333,25.66614373,26.56996845,30.24238085,29.14372996,31.91805433,33.2644762,34.51160554,6.357666679,15.03999996,15.13755815,13.69055459,18.24071415,16.44843436,20.63070323,20.50154739,23.97494014,7.613570572,13.40715604,12.87528071,12.79536137,16.34410207,15.0664779,18.21233438,18.75919739,20.40606275,0.821476194,1,0.991620595,0.99408643,1,1,1,0.999013392,30.546318,-96.4329965,2018,TXH1-Dry
W10005_0107/PHB47,ONH1_2015,Y,29.9,705.3775082,0,0,260,130,84,85,1.605625002,2.296315821,1.411426091,1.973297954,0.512941169,3.436769168,2.641035405,1.799953816,2.360571209,51.38000005,43.63000059,20.30117703,73.50294104,0.81882352,40.73352947,103.9364728,19.58470627,71.14882509,18.02169462,20.4737019,23.34007091,22.64543997,20.24065375,18.07254412,18.60447299,14.22755231,12.21920895,9.771562532,12.63473691,23.7578119,26.83441686,29.90941261,27.46928249,26.11972075,22.82201755,18.35250846,-0.327500018,2.045263152,11.01347606,13.31919887,17.43313718,16.50329302,14.06775752,11.69572195,7.013714688,2.851211725,4.201400589,10.67713105,12.77399982,15.76589753,14.15032606,12.63577386,10.48249806,7.379159901,0.167098218,0.403345874,0.957007131,0.991950294,1,0.994472794,0.939113043,0.772366561,43.49741975,-80.44806025,2015,ONH1
B37/OH43,NYH1_2017,Y,17.7,731.1212129,0,2,229,110,65,64,4.758709581,4.139999986,2.953024942,5.715506232,4.320872878,2.701732063,2.616328443,1.022630585,3.614268439,147.519997,37.25999987,45.12618999,219.9223815,11.26857107,35.6957141,128.4247627,13.30476207,110.8900009,18.97444351,17.81005277,22.0763727,19.38397475,18.56141379,19.22534974,16.71382568,13.43506643,9.037548332,17.06967752,20.23333359,22.7745171,25.66488699,26.70396817,25.32691524,23.26007272,23.96840526,17.61119819,5.964193534,10.19,10.93717632,15.20362294,16.36293638,14.60656728,11.31793404,11.56685323,6.669544781,6.641127344,8.727253675,10.15270493,12.79474615,13.71935226,12.37567782,10.45035179,10.9124923,7.239151369,0.685760371,1,1,1,1,0.982493678,0.953634339,0.701363064,42.72880835,-76.6515625,2017,NYH1
LH212HT/LH195,IAH2_2017,Y,15.55,743.3494726,5.5,8,226,110.5,65,64,2.991935476,4.003749907,5.594154361,1.824159742,2.965909053,1.138616173,3.544395797,5.525860929,3.224964342,92.74999976,32.02999926,86.83999968,64.74363607,5.880909015,11.03545466,133.6850016,39.36636487,98.02272796,18.91811151,22.03083944,18.39067038,21.91300981,21.59707026,21.00058551,18.76246256,16.50136756,14.56336975,16.70258062,25.25375009,21.16444029,28.78792803,31.34295403,31.03890899,27.79230679,26.54138994,25.01808603,3.836129038,9.060000002,9.836484062,14.72352594,17.1804546,18.00485339,15.61890002,13.9478747,12.25710857,5.884356407,10.52058178,9.325556586,14.19611432,16.29393371,16.57150033,14.05801276,12.73803514,11.57992501,0.659274195,1,0.882113053,1,1,1,1,0.976890029,42.06582876,-94.72050129,2017,IAH2
CG119/CG108,WIH2_2015,Y,17.95,762.0136585,0,0,215,114,65,64,3.126774188,2.655000041,4.103605878,5.336067251,1.868823528,3.142847566,3.066358713,6.463272165,3.426278957,96.92999983,15.93000025,53.58117651,186.0694135,5.435882344,36.03705852,132.4747064,52.80117733,103.4994124,19.63646212,20.57311455,21.5892617,21.07111177,18.36300238,19.20517036,18.54583572,13.68038168,11.37476292,15.6409678,24.97666677,26.11823115,28.09529077,27.51588227,27.91298604,26.4469062,23.95331443,17.63645543,3.355806466,13.62666686,13.88922494,15.17788174,17.2276475,16.92946091,13.73434519,12.63733902,6.343913375,5.370860554,11.93138906,12.65256426,14.04290221,14.43586033,14.57588984,12.76646014,11.49482956,7.023163717,0.588214292,1,1,1,1,0.979783322,0.914260835,0.715230077,43.3264485,-89.33359975,2015,WIH2
B14A/H95,ARH1_2018,N,21.3,565.0743177,3,2,219.5,113,66.5,62.5,6.807499945,4.709999936,2.627776375,4.735912158,3.619166647,6.960178526,4.330437569,0.796285741,3.374677434,217.8399982,32.96999955,35.48928591,145.2942843,5.831428528,62.51428531,109.7978577,4.003571561,104.6150005,17.99706709,21.70226043,20.05949982,19.52680112,21.59397623,17.99264813,18.0574776,19.33215022,18.30424355,21.07062507,24.31857109,24.02168934,29.45279857,31.73095224,30.70692423,32.5717108,33.29521443,31.83741963,10.26718749,12.03571429,12.70205088,18.67412083,19.99154783,20.64677572,22.90335213,23.23585706,21.28834102,9.223277534,11.01036775,11.27832322,16.11267445,17.86206546,17.6775748,19.72770382,20.19469271,18.54368809,0.945725441,1,1,1,1,1,1,1,34.729679,-90.7603455,2018,ARH1
F42/OH43,WIH2_2017,Y,17.7,731.1212129,0,2,229,110,65,64,5.048709616,4.636666616,1.142383575,5.763857885,8.001590729,6.160048604,1.607776433,1.167726513,2.257555268,156.5099981,41.72999954,17.5799998,219.3963643,12.14409065,74.04090792,72.28863683,15.04409093,68.0204557,18.1690344,19.72049554,20.64727683,20.23287988,19.13163679,19.37493243,18.51401576,14.93340477,10.89478233,16.03129027,21.86555545,22.15746071,26.59689143,27.90045501,26.76799254,24.73062069,22.38533393,20.51274781,3.24419354,8.791111098,9.553497601,14.54337319,16.81037892,15.37831158,12.19271258,9.193202486,7.868866577,5.438218202,9.209131236,9.451203107,13.05708411,14.51682301,13.37610723,11.31306373,9.686333754,8.853113959,0.624158991,0.847976183,0.950288768,1,1,0.998699911,0.954544862,0.834596302,43.3246415,-89.33688775,2017,WIH2
B14A/H95,OHH1_2020,Y,20,727.9032498,0,0,229,110,61,58,4.175312527,1.24000001,2.003453903,2.609830299,3.238461531,4.458868342,3.000365612,1.621237519,2.44580479,133.6100008,6.200000048,24.41307693,78.60461595,5.612307695,46.13538504,105.0992289,18.40384625,73.98230748,19.06994028,20.34349766,22.26062964,20.30125672,18.94980258,17.72364635,17.47781057,14.69815231,13.31876726,20.75593752,29.31000023,26.9862925,30.26951119,31.92230738,29.63458284,27.3548547,24.45496262,20.91339716,9.301875014,17.61400032,14.18652547,18.22082699,19.47423084,18.74255468,15.66305293,13.07056974,8.164555027,9.098127154,15.53923951,13.05396234,16.29356655,17.69826911,16.21360084,13.84725457,11.75523116,8.713632263,0.810993302,1,1,1,1,0.998602591,0.941606618,0.857376019,39.85643475,-83.67288725,2020,OHH1
LH74/PHN82,INH1_2020,N,21.025,719.0538513,0,2,195.325,93,63.75,62.5,2.63064515,6.092222161,2.380905542,2.638028789,0.629411796,2.977235278,3.349803369,1.095052516,1.575144189,81.54999965,54.82999945,26.35000017,86.90176377,0.755294155,29.77235278,114.9176474,7.60117643,48.41470517,19.12040675,14.46862051,21.68340347,21.75389977,20.24839053,19.66959435,18.78188958,18.00828299,15.45076636,15.20677414,20.6899999,27.1104927,29.42650107,32.0752936,30.36388222,28.15834081,28.66782236,25.41333794,2.934193564,11.51555562,15.17811918,16.46944194,19.37588254,18.23752946,16.66734055,16.5683672,12.52337519,5.193705795,9.337664252,13.54219901,15.16026165,17.73146127,16.3694037,14.61167179,14.83949529,11.90095499,0.576025338,0.994801587,1,1,1,1,1,0.975702381,40.4787965,-86.9895995,2020,INH1
PHG39/PHN82,DEH1_2020,N,20.25,725.8115738,0.875,1,236.375,124.25,64,63.5,3.884838689,2.918749928,0.484801506,3.712682555,3.963928495,10.54878945,3.680508849,4.08975176,5.319973187,120.4299994,23.34999943,5.74999997,113.1935704,6.565714155,94.92928366,102.5935729,23.16642891,164.6128593,19.34389959,17.33862388,21.23126246,20.37262205,20.84469896,18.13380163,16.82964191,15.50064315,15.14081803,17.43483888,21.1624999,25.02143811,29.01024665,32.25440507,31.30417669,31.95048154,29.3682824,28.21514964,6.792903194,12.85250008,15.40184434,18.86790491,21.28607132,21.93053571,22.84339264,21.06525136,19.30786859,6.86665098,10.04482466,12.64072343,16.02028347,18.72161765,18.60397455,19.32804006,17.22313801,15.91003144,0.79362904,0.982098209,1,1,1,1,1,1,38.628981,-75.46566025,2020,DEH1
B14A/H95,IAH2_2019,Y,20.95,755.5777323,1,3,232.5,121.5,65,64,1.624999978,4.994666719,7.633826981,4.023414549,10.53523836,1.22350002,2.763567443,7.261517829,4.773321835,51.99999928,74.92000079,126.7292866,144.3807149,31.60571507,12.2350002,103.2057142,58.23357121,145.3535721,19.40078695,15.59915857,17.73377221,20.37141966,18.69170743,21.11460887,19.04896103,16.46108124,13.94542613,15.78031255,14.78666655,21.30773964,26.90560141,30.4667857,29.3667858,27.70213024,26.0789087,24.69893011,1.823749996,4.276000045,9.222208134,15.06467224,19.71440506,18.17542877,16.74212177,15.32632928,13.45358666,5.188982368,5.371381143,9.150668224,13.41851256,17.10626668,15.79657396,14.44283917,13.04517908,11.92357614,0.546495539,0.532857125,0.866155154,0.998157434,1,1,1,0.956872449,42.06583499,-94.72067796,2019,IAH2
PHW52/PHN82,WIH1_2019,Y,26.05,693.7928411,0,0,261.665,140,80,73.5,3.104193578,4.990909143,3.989206625,5.063632664,7.174102343,5.657788874,3.979490855,4.117971668,7.043559998,96.23000091,54.90000057,56.46538491,184.9676922,7.656153606,56.9199983,170.6046141,43.34153838,211.8461548,19.32800511,20.47989629,21.14585761,19.94081469,20.4834897,19.00171798,17.70480678,14.70759561,11.13260624,14.4303226,19.6027272,23.71186264,26.54399323,29.1737175,29.51828996,25.99775321,22.10125555,19.22207941,3.044193574,6.375454621,11.90649765,15.02653282,17.46782019,18.4264638,14.78313726,11.24849031,9.42963116,4.974875238,7.497369644,10.75801096,13.26663909,15.42227287,16.03343447,12.80151602,10.12875121,8.730340077,0.520449311,0.882272729,0.994529143,0.999440504,1,0.998245342,0.92932789,0.792629622,43.060857,-89.494068,2019,WIH1
B37/OH43,MIH1_2019,Y,27.7,691.2184706,3.5,17.5,234.5,112.5,70.5,68,3.720322615,6.189999878,7.0818969,2.961916884,8.70871786,0.913986013,1.817216317,4.468053866,4.013250907,115.3300011,49.51999903,106.8900002,93.8269235,16.81999984,10.80615383,84.36076873,63.3192304,120.886153,19.31986936,19.65939665,18.51979106,21.00444556,17.01540622,20.04742627,16.96863927,12.02893287,10.87568864,17.60709666,21.67250037,22.690749,28.9340566,30.56538516,27.94921954,26.00654686,21.50260694,17.46530245,6.210322559,10.31875008,12.21847794,16.86604701,18.743333,15.85306519,14.00590995,11.32576155,7.161163464,6.876773896,9.314382636,10.39761731,15.10453275,16.86261297,14.19391073,12.58553183,10.00606366,7.511656803,0.696382483,1,0.995173883,1,1,0.988904737,0.895422602,0.709438731,42.70789125,-84.4706665,2019,MIH1
F42/MO17,INH1_2015,Y,15.45,704.7339156,0,2.5,229,110.5,69.5,68,2.968064535,5.608750075,2.401797478,2.620596579,1.049062505,3.048312443,3.454130844,1.332533481,1.484370975,92.01000059,44.8700006,26.44312483,85.12437463,1.715625018,30.48312443,116.5724995,9.316249996,45.68062523,19.44608656,13.59046638,21.88315593,21.65689439,20.60130358,19.73326552,18.77560381,17.99738388,15.64927463,15.67580632,21.0562501,27.44396829,29.52449332,32.66781175,30.16981242,28.17317586,28.46934151,25.5406298,3.004516139,13.05249977,15.22068343,16.62214482,19.56843758,18.02818774,16.71489706,16.46563638,12.56847521,5.360930658,9.9438759,13.725819,15.26696414,18.11812466,16.1828721,14.63810214,14.67667849,11.95902497,0.609504607,1,1,1,1,1,1,0.986081101,40.477075,-87.000205,2015,INH1
PB80/PHZ51,WIH1_2017,Y,18.35,754.9341397,0,2,267.5,128,77.5,78.5,3.894838602,1.694000003,3.49156578,6.251914317,26.29780264,12.3515148,1.782621048,1.031219451,2.019413967,120.7399967,16.94000003,60.77000046,238.2086357,55.48409002,148.2181776,77.27181808,11.13545426,60.74545419,17.96009764,21.56986256,18.71582301,20.73316127,19.69440102,19.58726141,19.1692292,15.69151392,12.21998586,16.03451621,20.2119998,20.22998088,26.71060266,27.00553033,27.16428033,24.80808837,24.03641879,21.845045,3.37838715,6.260000002,9.268565708,14.6662765,15.35575767,16.21109857,13.17589581,11.52521119,9.509429623,5.507434962,7.720411242,8.664602637,13.14891279,13.46068042,13.9043846,11.67856357,10.90146065,9.608265423,0.606900932,0.8735357,0.867893568,1,1,0.998220242,0.971647403,0.89569217,43.05668125,-89.5308135,2017,WIH1
LH74/PHN82,MIH1_2018,Y,23,666.1183586,0,2,175.5,85,61.5,60,5.012258064,1.858571376,2.303311915,3.259516918,0,1.604151199,2.926198314,4.215530212,2.830074039,155.38,13.00999963,29.79071396,101.4421425,0,18.16214306,122.3414291,36.1057143,85.34142821,19.78619528,22.4124418,25.08845985,20.26124585,21.4032747,19.63779009,17.59687557,14.64655727,11.33533343,19.08258061,24.4042857,26.50594484,29.85917276,29.20761908,28.94024759,27.00181445,23.87253837,17.74080494,7.633548365,11.57000004,11.5577044,16.90410614,16.77238059,17.0588351,14.06431329,11.77329027,6.160183734,7.985580948,11.08545818,11.96011996,15.51317333,15.06763476,15.11768347,13.15911947,11.00371024,6.94989994,0.750656678,0.993928569,1,1,1,0.982067155,0.951173414,0.716707841,42.689234,-84.49755575,2018,MIH1
PHW52/PHM49,MIH1_2016,N,18.2,711.1698417,0,12,211,106.5,65,64,3.213870927,0.372000003,1.277668238,2.072144594,0.204761899,2.382636341,6.277866916,3.129595251,4.115734243,99.62999874,1.860000014,16.77857134,74.4033328,0.614285696,24.34142835,217.3680916,23.88571438,123.5814282,20.04481233,22.69628944,22.57460654,21.19066928,19.62511718,19.41470496,17.43536011,14.16523572,12.41239439,17.74322581,29.20999985,25.57947765,28.1508514,27.23547651,30.32783564,28.27294529,26.6388532,22.50219404,5.299677434,16.33600006,11.90361174,14.70447611,15.74579377,17.52671,16.25511672,15.58650841,10.86825081,6.615827776,14.89908974,11.62365975,13.82943527,13.70908531,16.01583991,14.48649579,13.48265,10.09129455,0.734400922,1,1,1,1,0.999987733,0.99326559,0.936590208,42.41206675,-84.2952625,2016,MIH1
F42/MO17,ARH2_2018,N,14.21,731.1212129,0,2,210,94.5,67.5,66,4.523124937,5.877777735,3.202210455,3.225384198,0.461428574,5.0703967,1.707251537,1.546976178,1.915506911,144.739998,52.89999962,46.32285666,103.4992844,0.461428574,45.6335703,42.68714207,7.346428526,59.38071425,17.7541087,19.6455271,19.52097147,20.05684428,23.80737271,19.97823453,19.1297214,18.25489796,18.05597286,19.61875001,21.92000008,22.77345622,28.90718296,31.9800005,30.98396799,32.84130907,33.56595603,31.90391706,8.73406262,10.34777779,11.28771296,17.85430307,18.706429,19.75547635,22.48266054,23.2605133,21.25223495,8.305601359,9.423215554,10.22107903,15.52009327,17.35232514,17.37984482,19.61861005,20.2782542,18.53689778,0.857433028,1,0.994106717,0.995975764,1,1,1,1,35.674241,-90.0749725,2018,ARH2
LH74/PHN82,TXH1_2019,N,11.265,864.4736031,0,0,174,58.5,69,68.5,1.71448275,0.072857141,3.656594302,9.095434564,0.409285716,1.207678571,5.355850783,1.246142852,1.574419343,49.71999974,0.50999999,52.00785631,328.2121388,0.592857139,9.661428571,146.4478573,6.531428533,47.51499965,15.42805705,20.52131135,18.76898834,18.57032559,21.42349659,18.85281525,20.14881361,21.03072751,19.84089234,18.45000007,25.76428577,24.43254944,27.27586732,31.09000002,32.37866099,32.72435205,34.04471448,34.98200776,6.826206914,10.35000004,10.67963154,14.78766739,18.65857179,21.85071427,21.02442735,21.79614282,22.6049739,7.457816468,11.1589152,10.85119479,13.46630403,16.91193677,19.11412105,18.84765314,19.77807102,20.01419559,0.749667494,1,0.945308164,1,1,1,1,0.999698925,30.546318,-96.4329965,2019,TXH1
PHG80/PHZ51,NYH2_2017,N,17.7,731.1212129,0,2,229,110,65,64,4.985806354,2.593333337,3.453715005,5.89688957,0.948070192,3.208418109,2.379655727,2.694333021,3.397972982,154.559997,23.34000003,55.2357889,222.9889478,1.763157895,41.81263091,117.7794744,23.637895,104.1910535,18.91896409,18.22902181,21.62310913,19.28169434,21.2024166,18.91678159,16.97406986,13.88043676,9.439494818,16.54903238,19.80111122,22.34881997,25.65461899,27.16105275,25.3148988,23.28803047,24.25146582,18.24460841,5.239677404,10.2422222,10.55939387,15.21770316,15.87359667,14.84504335,11.5614249,11.15398494,7.352427253,6.267898103,8.570747831,9.793885142,12.80097944,13.68904673,12.46138399,10.55155578,10.87663924,7.688896934,0.638917053,1,1,1,1,0.981507475,0.966916282,0.722284214,42.73248125,-76.65275025,2017,NYH2
B97/PHB47,IAH1_2017,Y,17.7,731.1212129,0,2,229,110,65,64,3.40562493,4.965384584,4.756276119,1.833606587,3.814090996,2.221484887,3.670808328,1.81325484,2.347473118,108.9799978,64.54999959,71.28272616,63.78727258,4.177727374,22.83863677,118.9068186,13.7622725,72.03681816,16.19865167,17.41178014,18.84198651,22.07722619,19.57094626,20.6423577,19.65334879,19.12382584,16.87809105,17.11343735,15.37846162,22.95951679,28.09807267,26.50742381,30.27960591,29.79948923,26.92834941,26.37674051,5.413125027,4.923076978,11.46549016,14.16962528,11.61757578,16.65775237,16.66504091,13.38757222,12.41510662,6.530778339,5.768563812,10.45370215,13.71965113,11.94783378,15.64262598,15.39964617,12.71239892,12.1737806,0.629988832,0.555054952,0.946458762,1,1,1,1,0.998130952,41.19924609,-91.49402296,2017,IAH1
LH195/LH82,WIH2_2017,Y,20.15,750.4289914,0,2,234,108,71.5,70.5,5.048709616,4.636666616,1.142383575,5.763857885,8.001590729,6.160048604,1.607776433,1.167726513,2.257555268,156.5099981,41.72999954,17.5799998,219.3963643,12.14409065,74.04090792,72.28863683,15.04409093,68.0204557,18.1690344,19.72049554,20.64727683,20.23287988,19.13163679,19.37493243,18.51401576,14.93340477,10.89478233,16.03129027,21.86555545,22.15746071,26.59689143,27.90045501,26.76799254,24.73062069,22.38533393,20.51274781,3.24419354,8.791111098,9.553497601,14.54337319,16.81037892,15.37831158,12.19271258,9.193202486,7.868866577,5.438218202,9.209131236,9.451203107,13.05708411,14.51682301,13.37610723,11.31306373,9.686333754,8.853113959,0.624158991,0.847976183,0.950288768,1,1,0.998699911,0.954544862,0.834596302,43.3246415,-89.33688775,2017,WIH2
B73/PHM49,INH1_2019,Y,24.97,862.8002623,0,2,239.25,134.25,63,61.5,4.638124973,1.291666667,4.254883356,1.873002707,7.542143106,0.579848493,2.745608418,1.194209184,2.037834084,148.4199991,7.75,53.11714339,53.83785783,14.64785763,6.669285808,98.22214476,12.45785718,61.58714233,19.82387961,19.183822,19.33565513,20.5079362,16.64856858,22.30931036,17.46113557,15.79330395,12.43542766,23.34687504,26.15000025,24.44131608,31.06458042,27.9682139,28.43625549,27.60941131,25.59340811,22.91422815,11.29093746,15.88166634,14.27159151,19.40569109,18.2715475,15.1189393,15.69895629,13.38685715,10.33005226,10.62626718,13.2428989,11.86638398,17.27971266,15.26406297,14.09359416,13.93027737,12.23653025,10.46761426,0.918526784,1,1,1,1,0.999060374,0.966691327,0.86252861,40.477063,-87.00020175,2019,INH1
2369/LH123HT,MNH1_2016,Y,23.3,731.1212129,0,2,229,110,69,66.5,2.893225764,0.170000008,5.030425272,6.121705224,6.438583227,6.210954471,8.179238718,7.617170889,9.394742846,89.68999869,1.190000057,67.79499967,212.8530004,13.67999972,65.11499918,295.599999,62.20750045,287.315495,17.89673604,26.28611401,18.122652,20.29948324,15.80941307,17.87578139,16.93568638,15.29315111,12.15008877,17.5148386,25.45428576,24.53269911,27.63337014,28.14450006,28.70269129,27.15887183,24.8505404,22.53032632,6.338387108,9.824285678,13.68155402,15.81410535,17.82425013,18.42635015,16.92976579,13.57123889,11.50456607,6.871134867,10.90204251,11.6566452,13.98369248,15.05511886,15.68076391,14.22086787,11.86153057,10.26982602,0.734527645,1,1,1,1,0.999952477,0.98729881,0.936092645,44.06646925,-93.533648,2016,MNH1
PHW52/PHM49,MIH1_2017,Y,17.7,731.1212129,0,2,229,110,65,64,2.651290334,1.642500043,0.365195355,3.685889798,0.022982455,0.462972321,1.745768067,1.924198947,6.215848807,82.19000036,13.14000034,4.417894763,131.6678931,0.068947365,5.871578781,77.40789432,25.15789459,187.919471,20.75480046,19.52619267,24.47429891,19.89055103,21.94334328,22.12060477,17.47908742,14.76431364,9.641321864,18.99677434,22.1187501,26.44652255,27.49693157,27.7329823,27.82492569,25.37386911,24.10071042,20.63989867,5.961290348,11.91874993,11.36318641,16.0503933,16.08877179,14.96255052,12.27657104,9.93890341,8.936309075,7.303217139,10.01258026,11.86785018,14.06113521,14.11607898,13.75096176,11.67659513,10.59348898,9.148775778,0.770126733,1,1,1,1,0.999072621,0.949278334,0.816440377,42.68116575,-84.49434125,2017,MIH1
B73/DK3IIH6,NYH2_2016,N,18.35,731.1212129,0.5,3.5,189.5,95.5,74,72,2.034516133,1.030000001,1.88805842,0.867300396,1.140952366,2.326450204,3.376451109,4.287746575,3.208572451,63.07000011,12.36000001,22.4085716,34.4438095,2.622857094,25.59095225,116.65619,31.75809508,97.82571426,19.21240982,23.35584625,23.40556822,22.17883586,23.94456446,21.25361649,17.18897092,16.17245816,13.35906413,14.04935483,18.68749992,27.50851283,26.23633728,28.78071431,29.31692664,28.41638555,26.44500865,23.15297547,1.686774175,4.439999988,12.92699036,12.85534504,13.89476193,15.65588736,16.863818,13.58818034,10.55762265,4.511298309,6.607155497,12.88765676,12.33330427,13.7996272,14.74166699,14.82295673,12.66050813,10.26842414,0.447315667,0.804761906,0.999400038,0.994542932,1,0.999880088,0.994843294,0.949842165,42.726117,-76.655339,2016,NYH2
B97/PHB47,IAH4_2017,Y,17.7,731.1212129,0,2,229,110,65,64,3.054193612,4.63857133,5.654282844,2.356146022,0.145000003,0.823262634,3.029939984,2.506485397,3.022032747,94.68000197,32.46999931,92.55000019,79.81000018,0.290000005,7.931363713,110.0431818,17.65818187,91.79227275,19.60434628,22.37855189,18.81628808,21.46940114,22.42332305,21.26952374,19.1513695,15.94205759,15.34138578,17.83935482,25.21428544,21.76755785,28.88340452,30.88984893,30.99338411,28.30609907,26.26622464,25.93438806,4.952580655,10.13999993,10.24708413,15.02150207,17.47128796,18.07608078,15.80662465,13.87026602,12.51354651,6.575243948,10.82301274,9.649960621,14.3656457,16.22810104,16.57398155,14.36597852,12.57546566,12.06214068,0.727396317,1,0.910082199,1,1,1,1,0.987168831,41.99455432,-93.69030947,2017,IAH4
PHW52/PHM49,ARH1_2017,Y,17.7,731.1212129,0,2,229,110,65,64,3.058125025,3.532857077,9.871688678,6.405160528,0.516363615,5.988171668,5.119232493,3.102318153,5.34158356,97.86000079,24.72999954,132.0327285,211.6218184,0.569545432,54.36818138,136.8913653,16.08272713,165.5890903,17.13974981,16.55343887,20.38424011,18.76225527,22.81364793,19.06964508,19.53553475,19.77193111,17.12972935,24.60906261,23.96000045,24.77057006,28.06605652,30.35469691,31.5146664,31.30577636,32.78459133,30.91587993,11.9175,14.17857156,11.8445801,17.60850246,18.97249995,21.30615642,21.39979275,22.50533316,21.62237538,11.1639709,11.77578055,11.22655186,14.97537354,16.74359516,18.41041141,18.33049426,19.54768126,18.22457608,1,1,1,1,1,1,1,1,34.7272515,-90.76032575,2017,ARH1
B73/PHZ51,MOH1_2016,N,16.85,731.1212129,0,1.5,273.75,133.75,57,55.75,2.465483877,8.058000231,0.264259377,6.282521268,1.94553035,9.25680559,4.358907121,3.354664451,5.453130527,76.43000019,40.29000115,2.879999995,172.8372758,4.262727369,83.20363667,125.2090916,21.13363606,168.2240918,20.2309363,16.93509369,22.49829557,20.20959989,18.68177986,19.21408964,18.0090922,17.17714413,15.87534947,21.83193548,27.56600037,27.88644765,31.21215235,30.25795442,31.2505745,30.57423065,29.80077912,28.25339236,10.073871,16.74400005,16.26474463,19.86215984,19.98371223,20.49117413,20.76153791,19.91431794,17.56318368,9.497798547,14.24343349,14.21296425,17.47336946,17.12232598,17.8699151,17.65104862,16.90998551,15.09561117,0.937315665,1,1,1,1,1,1,0.999442641,38.8955475,-92.2072025,2016,MOH1
PB80/PHZ51,ONH1_2015,Y,29.05,723.3981015,0,0.5,217.5,102.5,85.5,85.5,1.605625002,2.296315821,1.411426091,1.973297954,0.512941169,3.436769168,2.641035405,1.799953816,2.360571209,51.38000005,43.63000059,20.30117703,73.50294104,0.81882352,40.73352947,103.9364728,19.58470627,71.14882509,18.02169462,20.4737019,23.34007091,22.64543997,20.24065375,18.07254412,18.60447299,14.22755231,12.21920895,9.771562532,12.63473691,23.7578119,26.83441686,29.90941261,27.46928249,26.11972075,22.82201755,18.35250846,-0.327500018,2.045263152,11.01347606,13.31919887,17.43313718,16.50329302,14.06775752,11.69572195,7.013714688,2.851211725,4.201400589,10.67713105,12.77399982,15.76589753,14.15032606,12.63577386,10.48249806,7.379159901,0.167098218,0.403345874,0.957007131,0.991950294,1,0.994472794,0.939113043,0.772366561,43.49741975,-80.44806025,2015,ONH1
B37/OH43,NYH1_2019,Y,24,674.4850626,5.5,10,269.8333334,152.5,70,70,3.742499989,3.13750004,5.753824184,3.193184694,5.054999975,4.679644987,3.141734315,2.115619262,4.095645999,119.7599996,25.10000032,83.05615347,110.7876916,10.59692295,60.83538484,169.67846,49.66846142,126.1984601,19.31204623,22.90652502,19.40556432,20.09548462,19.54416251,18.43271946,14.78687504,11.82668111,8.218362691,18.69937494,22.85875034,22.9010546,27.51683221,28.25012823,26.24284011,22.02988517,19.80082275,11.00573521,7.845625035,10.06374997,12.28813039,16.10263177,16.07333343,14.39934908,10.67406786,8.357505336,1.635690852,7.6395284,9.775213808,10.49055945,14.05854059,14.39300596,12.73828549,9.762895495,8.676471021,3.980466677,0.838560269,0.991875008,1,1,1,0.934962266,0.800347462,0.399612352,42.7288875,-76.65152084,2019,NYH1
CG108/CGR03,MOH1_2017,N,15.75,731.1212129,0.5,6,216.5,114,56.5,56.5,8.937741737,9.40166688,2.512230721,3.318030003,5.035714369,1.794490762,1.996986524,1.220079397,1.67255761,277.0699939,56.41000128,33.26619119,103.9014299,11.93095259,15.87761924,65.30142803,7.334762096,51.25476209,18.72482054,18.08832916,22.62422694,21.00800173,18.77514496,19.93438148,19.70533138,19.36646121,17.34329115,21.92032254,25.32999992,25.47495036,29.30087203,30.46650729,32.25412016,29.92026774,28.22145964,28.04827898,10.06000005,15.27666648,12.99827088,17.39768618,19.78222205,21.21359122,18.70404881,16.33857143,14.9717184,9.612847321,12.76903024,11.94928206,15.49761919,17.12130987,18.67277384,16.20463701,14.48208578,13.92850008,0.915472353,1,1,1,1,1,1,0.999239796,38.89264,-92.2057525,2017,MOH1
B73/PHM49,SCH1_2020,N,13.665,731.1212129,1.5,8,96,33.5,59.5,58.5,6.726129055,12.61950016,14.6709951,2.000047064,2.505749965,4.425319405,2.268462711,6.18714998,5.023091868,208.5100007,84.13000107,163.6860008,61.50999924,5.011499929,39.68149965,62.57699943,33.64599986,155.4654979,20.36817608,19.66978326,14.75526058,19.85961082,19.96014466,19.24465486,19.87809105,16.40752662,15.64625104,22.32567731,25.33999968,25.31846332,29.19710574,32.4110003,31.66961065,33.32032281,31.92909988,30.24042268,7.936741977,12.70899997,16.31955663,18.65521183,21.09725013,21.1736526,21.46883008,21.19136654,20.48826235,8.963701593,11.76593586,13.23428606,15.98846211,18.75412521,18.42141037,19.32426,18.56023321,17.40294316,0.984170504,1,0.973950938,1,1,1,1,1,34.62225,-82.736661,2020,SCH1
LH198/PHZ51,GAH1_2017,N,13.15,701.5159525,0,2.5,195,75,61,61,1.929687474,5.730000019,0.343252103,3.449286585,2.107618968,4.586772466,5.884115127,3.462793619,5.790337869,61.74999917,45.84000015,4.185237975,115.4628578,3.161428452,44.24761888,164.3961923,18.00285697,179.500474,16.80249013,20.13732326,20.17342047,19.27076224,21.20480144,16.6798163,18.15858085,19.37517402,17.73704587,23.5584375,24.76124978,28.73884546,29.02932191,29.79031757,30.11825943,30.88468736,33.04158726,32.39466959,8.654999979,9.073749959,13.81601286,15.94569083,16.85142871,20.07059283,21.0580027,22.24365102,22.03411694,9.935165979,10.3201674,13.6844889,14.81363998,15.5596332,17.10789698,17.95959829,19.61349988,19.1980032,0.8834375,1,1,1,1,1,1,1,31.50794425,-83.55854475,2017,GAH1
F42/MO17,MOH1_2017,N,17.5,731.1212129,0,2,245.5,125,64.5,61.5,8.937741737,9.40166688,2.512230721,3.318030003,5.035714369,1.794490762,1.996986524,1.220079397,1.67255761,277.0699939,56.41000128,33.26619119,103.9014299,11.93095259,15.87761924,65.30142803,7.334762096,51.25476209,18.72482054,18.08832916,22.62422694,21.00800173,18.77514496,19.93438148,19.70533138,19.36646121,17.34329115,21.92032254,25.32999992,25.47495036,29.30087203,30.46650729,32.25412016,29.92026774,28.22145964,28.04827898,10.06000005,15.27666648,12.99827088,17.39768618,19.78222205,21.21359122,18.70404881,16.33857143,14.9717184,9.612847321,12.76903024,11.94928206,15.49761919,17.12130987,18.67277384,16.20463701,14.48208578,13.92850008,0.915472353,1,1,1,1,1,1,0.999239796,38.89264,-92.2057525,2017,MOH1
PHG39/PHN82,NYH2_2018,Y,22.34,717.863205,0,1.666666667,201.6666667,97.33333333,71.33333333,70.33333333,4.152903213,0.855714253,1.31693108,2.056877316,18.60714291,4.17142208,1.796460541,3.71345921,2.001911684,128.7399996,5.989999771,17.50499944,73.5107149,37.6500001,45.13714288,70.0178584,34.82000022,60.53000028,20.64383799,23.73438372,20.97980276,21.28373647,15.72294375,18.26843876,18.50915054,13.77481919,12.83457813,12.82806446,24.72714315,24.76775456,27.60101009,28.96428537,28.5122727,26.91050025,24.01606741,19.66558606,1.452258048,10.48999977,13.07559666,14.8719081,19.08642861,17.4819286,14.95013511,12.80738491,7.865124395,4.113027627,10.74522894,11.82847182,13.74928068,16.05096628,15.06575239,13.37181447,11.42873851,8.144119245,0.351670502,1,0.973410204,0.99504728,1,0.991140913,0.940533101,0.821942422,42.72611075,-76.65530175,2018,NYH2
B14A/H95,NYH2_2018,N,21.54,733.9530204,1.75,4.5,203,102,73.5,73.25,4.152903213,0.855714253,1.31693108,2.056877316,18.60714291,4.17142208,1.796460541,3.71345921,2.001911684,128.7399996,5.989999771,17.50499944,73.5107149,37.6500001,45.13714288,70.0178584,34.82000022,60.53000028,20.64383799,23.73438372,20.97980276,21.28373647,15.72294375,18.26843876,18.50915054,13.77481919,12.83457813,12.82806446,24.72714315,24.76775456,27.60101009,28.96428537,28.5122727,26.91050025,24.01606741,19.66558606,1.452258048,10.48999977,13.07559666,14.8719081,19.08642861,17.4819286,14.95013511,12.80738491,7.865124395,4.113027627,10.74522894,11.82847182,13.74928068,16.05096628,15.06575239,13.37181447,11.42873851,8.144119245,0.351670502,1,0.973410204,0.99504728,1,0.991140913,0.940533101,0.821942422,42.72611075,-76.65530175,2018,NYH2
LH198/PHZ51,NEH3_2015,N,13.45,787.1137705,0,0.5,229,110,63.5,63,3.231250057,0.918000031,0.565093977,1.286692195,3.19749999,1.391136354,0.258061221,1.474667183,0.155891338,103.4000018,4.590000153,6.150000095,39.04749978,4.720000029,15.30249989,11.17999983,14.52874985,4.648125023,21.79127574,25.69442635,22.86725485,21.82271665,15.26317632,20.59079,20.06412842,16.27968968,13.53861776,24.28750017,32.64599991,30.58771447,32.67731329,28.91593772,29.87238656,30.80707127,25.39031645,21.32018275,9.278749934,13.0079998,13.8828633,15.7826582,17.05531204,14.62710229,13.18313307,8.87540479,3.334017086,10.46257825,15.28330691,14.45465852,16.22005678,15.0938879,14.496454,14.53020136,10.90039565,7.851747396,0.909587052,1,1,1,1,0.965712824,0.862507779,0.80953931,41.15824525,-101.9872958,2015,NEH3
PHW52/PHM49,WIH1_2016,Y,21.6,792.2625115,0,3,243,113,74,74,2.076129018,1.94750002,4.430291291,4.068377178,0.606590927,8.204471101,6.520888551,7.285801826,4.413191112,64.35999957,23.37000024,50.66818307,153.9786358,1.017727305,87.41727302,222.4604529,58.95590957,134.9268184,19.92805462,20.9108026,19.53546339,20.65690042,18.97296773,19.76360502,17.50876714,15.21370917,12.23883056,16.70258062,17.57583312,27.08182728,26.49130857,27.22159082,28.35833875,27.6700069,25.1458901,22.98674642,3.327419363,4.990833327,14.04723809,14.47423798,17.58636334,16.7186736,17.17399145,14.32051147,12.5735533,5.875866612,6.419508974,12.98865398,12.92924289,14.50224274,14.72651534,14.55658067,12.23924581,10.7486024,0.621198161,0.7653869,1,1,1,0.999967803,0.998306277,0.970976554,43.05632525,-89.53194975,2016,WIH1
B37/H95,ARH2_2016,N,14.6,731.1212129,0,2,193,114.5,65,62,5.780937422,12.26500018,3.712120208,7.0222886,1.105000019,0.295568184,1.931287914,1.454696927,6.280835692,184.9899975,73.59000111,50.67409075,233.2059098,2.210000038,2.364545475,51.29727264,7.656817956,194.7059064,17.76457119,17.22719622,20.14058537,19.80644481,18.88262117,19.79738723,18.69440654,19.88854878,15.60714355,21.02781257,25.69833342,24.88224707,27.55747889,33.1628785,33.38017045,32.40728063,33.71248445,31.37684753,8.517187547,14.13833332,13.26693003,16.75834882,22.79151535,23.21522755,22.56353312,22.95024234,22.3752492,8.626308124,12.37618007,11.75818796,14.46644855,19.89189903,20.24263088,19.43024202,20.23735303,18.81126952,0.958649555,1,1,1,1,1,1,1,35.838614,-90.66530155,2016,ARH2
LH195/PHZ51,IAH4_2015,Y,17.275,742.70588,8.75,5.75,255.75,131.25,65,64,1.42451612,4.854615514,2.513668144,6.351127419,5.46999979,2.154687441,1.85099418,0.335758934,4.064770202,44.15999973,63.11000168,35.58999979,218.2399999,10.93999958,20.30812445,58.48687407,2.377500039,125.1143763,19.83997888,19.28772805,16.02270398,20.69822917,17.27718186,21.35831173,20.17303565,19.59360772,15.6142427,15.83032262,16.78769229,22.26164163,27.88725423,29.37999988,31.52784708,28.69895342,30.18404469,25.46833276,2.473548389,5.024615425,13.48280789,16.59868734,20.37374985,19.78628468,17.37298211,16.89515858,12.68514048,5.318693913,6.228847238,10.78291245,14.47529064,16.87687486,17.66054739,15.18141656,15.71210426,12.05907357,0.585391697,0.659230777,0.98994413,1,1,1,1,0.952600636,41.19970961,-91.49362406,2015,IAH4
W10001_0022/PHB47,NEH2_2015,N,12.6,777.4598813,0,3,229,110,92,92,1.358750008,3.755999994,3.031264216,1.286090902,0.286666671,1.657187527,3.751759362,0.157499999,0.616713691,43.48000026,37.55999994,66.29000026,43.49999976,0.860000014,16.57187527,117.6431233,0.944999993,18.99062441,19.53783247,19.98656282,18.8528682,23.65152674,23.21232343,22.7312118,19.62767813,21.61948185,18.20728239,15.03874992,23.15200024,18.66927583,30.14561768,32.37510385,32.60862507,30.36489819,32.31320816,28.31448706,-2.426562488,5.230999994,5.264051067,13.5723423,16.5714581,16.13087479,15.9646131,15.56819047,11.19634675,4.192485347,8.478296732,6.894904354,14.37610508,16.560328,16.47008009,15.3434088,16.05261291,12.83173005,0.519497764,0.97653572,0.809891265,1,1,1,1,0.922021698,41.0514495,-100.7471915,2015,NEH2
PHG80/PHZ51,WIH2_2016,Y,20.25,774.2419182,0,2,298.5,141,62.5,61.5,2.185483832,6.563333432,3.447094458,4.124693788,6.707159024,6.158880111,5.945293137,1.654273513,4.758742445,67.74999878,39.38000059,44.45545418,149.2718189,18.91272705,63.86318129,228.7613642,17.11772738,143.1609097,20.07161814,17.64681498,20.48120554,20.03716075,21.00097141,18.73971629,16.31911952,14.94670844,10.3303759,18.34677419,27.65666644,25.59626749,27.3504729,29.44640147,29.15349181,26.70938079,24.21329019,20.37268081,4.840000014,15.2516667,12.43660419,15.21846351,16.18390156,17.81047537,15.29826924,12.0891497,9.537770322,6.76617685,13.67923016,11.77429452,13.6256578,15.0809804,15.56950508,13.35737665,11.10536848,8.849967039,0.729688939,1,1,1,1,0.998061418,0.979766622,0.886131912,43.32649075,-89.33882925,2016,WIH2
B14A/H95,DEH1_2017,N,21.45,678.9902109,0,38,245.5,122.5,70,70,2.917187458,6.201428686,3.00780289,3.517983876,1.211428521,1.632751291,5.214259368,11.31934688,4.882730708,93.34999865,43.4100008,45.34571489,126.7790489,1.268571377,15.48333303,157.8533328,69.24809492,151.3147631,17.05647962,17.73228645,20.71096481,19.57386043,19.15556694,20.88592809,18.21237176,18.15756056,16.58607394,20.26624998,24.66142872,21.72245043,26.82298965,30.35071437,30.31148162,30.69555299,28.43090921,27.29702356,9.32593758,14.19571427,10.68752201,16.75855213,19.906349,19.88150788,21.21690322,18.72144455,17.91444491,8.690479953,12.08402314,9.787934269,14.12431868,17.15482568,17.14050735,17.94790556,15.63546309,14.74613823,0.907287956,1,0.959736116,1,1,1,1,1,38.67025825,-75.4333645,2017,DEH1
LH195/PHZ51,NEH4_2017,N,15.35,787.7573632,0,2.5,155,58.5,65,64,4.590322548,9.024000108,0.479867887,3.811963874,0.538484848,1.684924238,2.267850047,4.65714279,3.86350146,142.299999,90.24000108,5.110000134,117.465454,1.615454544,15.13454541,79.63181698,32.59999953,117.4254543,19.43913734,17.21531701,24.1724839,20.95919975,19.50871722,19.21508163,18.90739129,17.69743939,15.39985704,20.62225799,19.52599983,28.59420128,30.06742287,31.22545445,32.42712118,28.61649727,28.47933405,26.83248677,7.519354824,9.509000063,13.57084537,16.75424147,19.44181835,20.40977276,17.16375472,15.74751643,13.71007622,8.50655754,8.450389052,13.62685976,15.58817353,17.34314748,18.36849178,14.97842881,14.34457974,12.87682879,0.797626729,0.881249991,1,1,1,1,1,0.994264069,41.162,-96.409,2017,NEH4
PHB47/PHZ51,TXH3_2020,N,11.35,716.9621753,0,2,245.11,88.9,65,64,3.45875001,5.345714297,0.996479651,4.090893152,11.37176514,0.055555557,3.334418123,0.880352915,2.226110039,110.6800003,37.42000008,12.08058808,124.9758839,22.74353027,0.450000013,88.32823513,3.714117541,69.00941121,15.8034201,18.34009743,21.30541133,19.40762275,20.16580067,20.62125497,19.02899565,16.94703156,18.75160362,25.77062485,24.00285694,27.63577502,29.95402965,30.19186265,32.38063702,33.36328143,35.03835301,35.63206825,14.19906271,12.24428552,13.92062761,17.60156859,18.33921522,21.14142164,21.88591696,25.71364726,24.34760913,12.60372436,11.20425028,13.29865333,15.96364287,16.27361839,18.69618421,19.4144726,21.47019646,20.81901077,0.989866069,1,1,1,1,0.99995416,0.999321567,0.998827006,30.53869475,-96.4274175,2020,TXH3
PHW52/PHM49,ILH1_2016,Y,14,832.1652537,0,2,261,133,73.5,72.5,2.976905237,4.388409027,2.266536067,5.61207631,2.384848472,3.596551307,3.312350719,4.357499975,4.793790319,93.71999985,46.35499933,33.46068128,180.4177266,4.628863606,41.73386359,104.1413657,28.32431801,148.2020453,18.82488241,16.77241452,21.32061235,20.18653607,20.74234538,18.07981042,18.8666989,17.85818253,16.07680721,18.05081144,19.20204525,23.0422997,29.42292662,27.90308728,26.97317812,29.60218573,29.15938829,28.17592877,4.960040295,8.531272602,10.4507586,17.10049505,15.99717794,16.84881478,19.41054858,18.84383108,17.09740687,6.781235125,7.969267807,10.17119166,15.41614171,14.29579798,14.15384892,16.51995977,16.04951253,14.84458937,0.666766271,0.897956159,0.946860721,1,1,1,1,0.999883117,40.0607245,-88.2338815,2016,ILH1
W10004_0216/PHZ51,NEH2_2015,N,12.95,771.0239551,0,1,229,110,92,92,1.358750008,3.755999994,3.031264216,1.286090902,0.286666671,1.657187527,3.751759362,0.157499999,0.616713691,43.48000026,37.55999994,66.29000026,43.49999976,0.860000014,16.57187527,117.6431233,0.944999993,18.99062441,19.53783247,19.98656282,18.8528682,23.65152674,23.21232343,22.7312118,19.62767813,21.61948185,18.20728239,15.03874992,23.15200024,18.66927583,30.14561768,32.37510385,32.60862507,30.36489819,32.31320816,28.31448706,-2.426562488,5.230999994,5.264051067,13.5723423,16.5714581,16.13087479,15.9646131,15.56819047,11.19634675,4.192485347,8.478296732,6.894904354,14.37610508,16.560328,16.47008009,15.3434088,16.05261291,12.83173005,0.519497764,0.97653572,0.809891265,1,1,1,1,0.922021698,41.0514495,-100.7471915,2015,NEH2
PHP02/PHB47,ARH1_2017,N,13,774.2419182,0,2,163.6,101.6,68,60,3.058125025,3.532857077,9.871688678,6.405160528,0.516363615,5.988171668,5.119232493,3.102318153,5.34158356,97.86000079,24.72999954,132.0327285,211.6218184,0.569545432,54.36818138,136.8913653,16.08272713,165.5890903,17.13974981,16.55343887,20.38424011,18.76225527,22.81364793,19.06964508,19.53553475,19.77193111,17.12972935,24.60906261,23.96000045,24.77057006,28.06605652,30.35469691,31.5146664,31.30577636,32.78459133,30.91587993,11.9175,14.17857156,11.8445801,17.60850246,18.97249995,21.30615642,21.39979275,22.50533316,21.62237538,11.1639709,11.77578055,11.22655186,14.97537354,16.74359516,18.41041141,18.33049426,19.54768126,18.22457608,1,1,1,1,1,1,1,1,34.7272515,-90.76032575,2017,ARH1
LH74/PHN82,ONH1_2017,Y,24.95,689.2876928,0,1.5,232,110,73.5,73,4.42290319,4.904999876,1.545173221,3.420435244,1.695375006,2.594700004,1.855534774,1.54565171,2.383111348,137.1099989,49.04999876,23.52600009,140.8034994,5.378000009,36.46150006,95.23350107,29.85300009,72.44250006,18.65662235,17.08545341,23.10813164,20.12586768,18.11232318,19.44819915,16.33652997,11.62209215,7.957733996,13.94322577,18.20700026,22.35689536,24.80045755,25.17183321,25.2296929,22.79396283,22.13957367,13.29532023,3.578387066,9.706999969,10.10387851,14.12185296,14.82349991,13.63261195,10.3904862,9.847475595,3.166289439,4.958212412,8.025894563,9.659097931,11.97096233,12.35740613,11.98311106,9.953455995,10.0654016,5.273375752,0.439723498,0.877642858,1,1,1,0.972410901,0.840292505,0.515578473,43.49546,-80.42596875,2017,ONH1
LH74/PHN82,MNH1_2020,Y,20.55,745.2802504,0,0.5,218,112.5,67,63,0.943005099,6.546073051,4.140359128,4.707487639,0.452236841,2.543512757,5.928901117,4.270615044,2.501087783,29.23315806,64.90105435,50.61684199,155.384737,0.714736844,28.61736839,219.2994748,34.34473765,76.93105461,20.83516212,15.73399946,19.74828467,20.97522671,19.78574355,20.20086134,18.41063051,15.8353279,12.84776632,15.708455,18.53155205,25.82840423,28.49526052,29.92499944,28.21992409,26.52185226,25.93987928,19.74067922,2.261239378,9.186207707,13.99244036,16.68286788,19.34447405,16.90528318,15.09377646,14.30914312,8.593217323,5.370680578,7.953384306,12.46596379,14.77865871,16.66236577,14.75116185,13.25288188,13.01752467,8.666130292,0.622613994,0.838417993,1,1,1,0.988450437,0.93066422,0.780758993,44.06907839,-93.53263028,2020,MNH1
B73/MO17,ONH1_2016,Y,30.25,624.9284311,0,4,228.5,141,88,86,1.979032247,2.105714291,0.92181366,1.439738287,4.720833318,2.435439396,4.62931563,1.31185227,2.043303741,61.34999967,29.48000008,13.31600007,60.28400005,10.99249999,28.54150001,172.0475013,11.37649985,61.38049932,20.24883872,21.56727634,23.77365349,22.41142308,19.3081847,20.61473607,17.12813691,15.31534219,11.6349499,10.49290321,16.47999988,25.01561457,25.51466922,28.22516696,27.99415914,27.31356147,24.49017951,20.3886015,-0.735806467,3.753571405,10.93050922,11.61184699,15.55325019,14.71775745,15.07244109,12.71620509,9.185787659,3.269306411,5.688768484,11.09209761,11.56175859,14.2216101,13.76399544,13.57642435,11.5133866,8.776899495,0.291105988,0.684668367,0.99891379,0.988093962,1,0.998165816,0.971212584,0.877977401,43.4997965,-80.451125,2016,ONH1
CG119/CG108,ONH2_2015,Y,14.95,768.4495847,0,0,234.5,129,69,68,1.876451608,4.282666683,1.928005431,1.58261263,10.80264742,1.923208582,3.114388399,4.294901914,2.356388962,58.16999984,64.24000025,23.61999965,57.22470651,21.60529484,21.1552944,115.5017658,31.56294079,72.1164696,18.95380112,18.76709785,21.17743809,22.45418875,20.04103015,18.4543581,18.45373918,15.80078253,13.34539525,11.17387095,14.38466663,23.91200153,26.61279381,30.15176526,27.65053462,26.77986929,25.87464046,20.7920557,2.006774224,5.636000033,13.64950245,15.64688346,19.32647026,18.51812829,16.74694623,15.4972221,11.03054456,3.742938436,5.617129505,11.53065914,13.52353119,16.78542678,15.13421866,13.95153495,13.1846932,9.37660249,0.276970043,0.589690475,0.985132406,1,1,1,0.993019959,0.931831119,42.45408625,-81.8816065,2015,ONH2
LH74/PHN82,NCH1_2015,Y,17.35,731.1212129,0,0,204,107.5,65,64,3.0140625,9.692856925,3.043308324,7.00027835,0,3.411347986,2.886716411,10.31533332,6.56176467,96.44999999,67.84999847,47.46470581,233.8535261,0,30.12176424,80.44058821,53.94764695,203.4147048,18.56641886,18.5514961,20.38733283,17.18369043,24.39251002,21.03629604,20.30189304,17.27178406,15.58503138,22.38312501,24.94999995,23.18034629,27.40244989,31.82117664,31.76743482,33.30845927,33.22968591,31.16039845,8.592187501,12.50999982,10.48535005,18.40286831,19.92058833,21.46261411,22.34001137,22.61282364,21.92468694,9.285127697,11.46773529,10.15801447,14.99239002,17.87088248,18.60652477,19.71826945,19.84422869,18.53531879,0.955334819,1,0.995809598,1,1,1,1,1,35.29657708,-77.5664625,2015,NCH1
B37/H95,GAH2_2016,N,10,731.1212129,0,2,213,172,58,53,1.486129045,0,7.316392826,2.079782856,1.718421064,1.264671045,2.43256314,4.61773679,3.235456168,46.07000041,0,60.50999928,55.97210474,3.436842128,10.11736836,67.31736801,23.15894711,100.2847377,20.21189387,22.87583466,19.10112302,21.34036575,17.85876091,19.83818451,18.50479945,15.9975398,17.29687983,27.80677426,30.50400009,32.06010812,34.2138269,34.93842035,34.86282896,34.62455114,33.33373696,32.80003392,13.8351613,16.55600014,19.35906305,20.32019684,22.9621054,21.76434208,22.04984942,22.29670187,20.14649938,13.32566871,15.60302283,17.72531793,18.78372546,20.36638125,19.89190838,19.9091667,19.70080105,18.42340329,1,1,1,1,1,1,1,1,33.717295,-83.3110275,2016,GAH2
LH195/PHN37,ARH1_2017,N,12.65,648.0977653,0,2,214.6,106.65,68,65,3.058125025,3.532857077,9.871688678,6.405160528,0.516363615,5.988171668,5.119232493,3.102318153,5.34158356,97.86000079,24.72999954,132.0327285,211.6218184,0.569545432,54.36818138,136.8913653,16.08272713,165.5890903,17.13974981,16.55343887,20.38424011,18.76225527,22.81364793,19.06964508,19.53553475,19.77193111,17.12972935,24.60906261,23.96000045,24.77057006,28.06605652,30.35469691,31.5146664,31.30577636,32.78459133,30.91587993,11.9175,14.17857156,11.8445801,17.60850246,18.97249995,21.30615642,21.39979275,22.50533316,21.62237538,11.1639709,11.77578055,11.22655186,14.97537354,16.74359516,18.41041141,18.33049426,19.54768126,18.22457608,1,1,1,1,1,1,1,1,34.7272515,-90.76032575,2017,ARH1
B14A/MO17,OHH1_2020,Y,22.4,676.4158404,0,3.5,229,110,54,53,4.175312527,1.24000001,2.003453903,2.609830299,3.238461531,4.458868342,3.000365612,1.621237519,2.44580479,133.6100008,6.200000048,24.41307693,78.60461595,5.612307695,46.13538504,105.0992289,18.40384625,73.98230748,19.06994028,20.34349766,22.26062964,20.30125672,18.94980258,17.72364635,17.47781057,14.69815231,13.31876726,20.75593752,29.31000023,26.9862925,30.26951119,31.92230738,29.63458284,27.3548547,24.45496262,20.91339716,9.301875014,17.61400032,14.18652547,18.22082699,19.47423084,18.74255468,15.66305293,13.07056974,8.164555027,9.098127154,15.53923951,13.05396234,16.29356655,17.69826911,16.21360084,13.84725457,11.75523116,8.713632263,0.810993302,1,1,1,1,0.998602591,0.941606618,0.857376019,39.85643475,-83.67288725,2020,OHH1
CG119/CG108,NCH1_2018,N,18.575,731.1212129,0.25,4,153.25,74,45.5,44.25,4.157741868,0,6.852651043,4.101575565,0.281428576,2.753968325,7.265916583,9.606714405,8.963617552,128.8899979,0,78.76714403,125.545715,0.410714286,22.4842863,196.6735732,49.18571489,277.8721441,19.15814344,24.86455965,15.13897653,19.38558293,23.18458939,19.6068393,18.38664919,15.55735787,15.52161696,22.42709686,23.6650002,25.05504787,28.99162569,32.21999972,32.77589287,33.41271207,32.57228504,30.53730396,9.272903273,8.262500107,16.63082339,19.21430847,20.43714251,21.48106165,22.41052549,22.8214047,21.52269578,9.383610038,9.710722454,13.07063738,16.1524193,18.32857112,19.12847726,19.83450897,19.67052049,18.05632483,0.990449307,1,1,1,1,1,1,1,35.6667825,-78.492372,2018,NCH1
B14A/H95,WIH2_2019,N,27.05,639.4092649,0,0,256.25,141.2500003,71,70.25,5.084687524,1.186666648,3.682690384,5.868440751,0.695238091,4.73009737,4.315774648,4.395502279,4.547947068,162.7100008,7.119999886,58.08928529,183.8007161,1.222857135,55.05428533,207.5435701,59.53000056,136.8792876,20.51840827,23.10255337,19.84622659,19.54978709,22.13574316,19.04821964,14.90817086,12.98397937,9.337872891,18.93468753,26.85500018,22.80729416,28.92841129,27.86750015,27.53142967,23.33864799,22.30785619,12.19546616,7.173437506,12.79833317,11.75963315,17.3057567,14.67845241,15.42498763,12.56161555,11.34993986,2.687473085,7.568173943,12.44054354,10.32084191,15.24419851,13.63574066,13.78240318,10.8770868,10.55092288,4.713570865,0.808549105,1,0.995612408,1,1,0.966295589,0.875965566,0.450550638,43.320768,-89.33189475,2019,WIH2
F42/MO17,DEH1_2020,N,19.35,698.941582,1.875,11.5,251.125,128.875,63.75,62.5,3.884838689,2.918749928,0.484801506,3.712682555,3.963928495,10.54878945,3.680508849,4.08975176,5.319973187,120.4299994,23.34999943,5.74999997,113.1935704,6.565714155,94.92928366,102.5935729,23.16642891,164.6128593,19.34389959,17.33862388,21.23126246,20.37262205,20.84469896,18.13380163,16.82964191,15.50064315,15.14081803,17.43483888,21.1624999,25.02143811,29.01024665,32.25440507,31.30417669,31.95048154,29.3682824,28.21514964,6.792903194,12.85250008,15.40184434,18.86790491,21.28607132,21.93053571,22.84339264,21.06525136,19.30786859,6.86665098,10.04482466,12.64072343,16.02028347,18.72161765,18.60397455,19.32804006,17.22313801,15.91003144,0.79362904,0.982098209,1,1,1,1,1,1,38.628981,-75.46566025,2020,DEH1
TX714/PHZ51,ARH1_2017,N,13.2,651.959321,0,2,193.7,114.3,71,62.5,3.058125025,3.532857077,9.871688678,6.405160528,0.516363615,5.988171668,5.119232493,3.102318153,5.34158356,97.86000079,24.72999954,132.0327285,211.6218184,0.569545432,54.36818138,136.8913653,16.08272713,165.5890903,17.13974981,16.55343887,20.38424011,18.76225527,22.81364793,19.06964508,19.53553475,19.77193111,17.12972935,24.60906261,23.96000045,24.77057006,28.06605652,30.35469691,31.5146664,31.30577636,32.78459133,30.91587993,11.9175,14.17857156,11.8445801,17.60850246,18.97249995,21.30615642,21.39979275,22.50533316,21.62237538,11.1639709,11.77578055,11.22655186,14.97537354,16.74359516,18.41041141,18.33049426,19.54768126,18.22457608,1,1,1,1,1,1,1,1,34.7272515,-90.76032575,2017,ARH1
PHG39/PHN82,ARH2_2017,N,17.7,731.1212129,0,2,229,110,65,64,2.789999995,15.83285686,4.776016413,2.853949028,1.142500003,5.651818152,3.905948255,2.4430325,4.688621725,89.27999985,110.829998,61.6427269,88.95863769,3.003181826,52.42863608,105.2449988,13.33772746,145.3472735,17.14489296,19.09436907,20.93439511,19.65670258,19.84409681,19.1211903,18.81176407,19.65259997,17.546866,23.65656266,24.55142866,25.38541455,28.9612549,32.40098458,30.84565692,31.84241473,32.83627249,30.20087953,12.07343751,12.16142872,12.7110645,18.0477898,21.78734854,20.24410098,21.87781566,22.25639174,20.26112908,10.83878158,11.22094165,11.88579938,15.62584547,19.09416656,17.54487895,18.8103181,19.27693671,17.25265116,0.991674107,1,0.97315368,1,1,1,1,1,35.67418125,-90.0752695,2017,ARH2
W10004_0216/PHZ51,WIH2_2016,N,19.5,819.2934014,0,4,296.5,159.5,64,63.5,2.185483832,6.563333432,3.447094458,4.124693788,6.707159024,6.158880111,5.945293137,1.654273513,4.758742445,67.74999878,39.38000059,44.45545418,149.2718189,18.91272705,63.86318129,228.7613642,17.11772738,143.1609097,20.07161814,17.64681498,20.48120554,20.03716075,21.00097141,18.73971629,16.31911952,14.94670844,10.3303759,18.34677419,27.65666644,25.59626749,27.3504729,29.44640147,29.15349181,26.70938079,24.21329019,20.37268081,4.840000014,15.2516667,12.43660419,15.21846351,16.18390156,17.81047537,15.29826924,12.0891497,9.537770322,6.76617685,13.67923016,11.77429452,13.6256578,15.0809804,15.56950508,13.35737665,11.10536848,8.849967039,0.729688939,1,1,1,1,0.998061418,0.979766622,0.886131912,43.32649075,-89.33882925,2016,WIH2
PB80/PHZ51,NEH4_2017,N,15.65,780.6778444,0,3,207,72.5,65,64,4.590322548,9.024000108,0.479867887,3.811963874,0.538484848,1.684924238,2.267850047,4.65714279,3.86350146,142.299999,90.24000108,5.110000134,117.465454,1.615454544,15.13454541,79.63181698,32.59999953,117.4254543,19.43913734,17.21531701,24.1724839,20.95919975,19.50871722,19.21508163,18.90739129,17.69743939,15.39985704,20.62225799,19.52599983,28.59420128,30.06742287,31.22545445,32.42712118,28.61649727,28.47933405,26.83248677,7.519354824,9.509000063,13.57084537,16.75424147,19.44181835,20.40977276,17.16375472,15.74751643,13.71007622,8.50655754,8.450389052,13.62685976,15.58817353,17.34314748,18.36849178,14.97842881,14.34457974,12.87682879,0.797626729,0.881249991,1,1,1,1,1,0.994264069,41.162,-96.409,2017,NEH4
PHB47/PHZ51,MNH1_2020,N,14.7,783.8958075,2,1,271.5,146.5,65,64,0.943005099,6.546073051,4.140359128,4.707487639,0.452236841,2.543512757,5.928901117,4.270615044,2.501087783,29.23315806,64.90105435,50.61684199,155.384737,0.714736844,28.61736839,219.2994748,34.34473765,76.93105461,20.83516212,15.73399946,19.74828467,20.97522671,19.78574355,20.20086134,18.41063051,15.8353279,12.84776632,15.708455,18.53155205,25.82840423,28.49526052,29.92499944,28.21992409,26.52185226,25.93987928,19.74067922,2.261239378,9.186207707,13.99244036,16.68286788,19.34447405,16.90528318,15.09377646,14.30914312,8.593217323,5.370680578,7.953384306,12.46596379,14.77865871,16.66236577,14.75116185,13.25288188,13.01752467,8.666130292,0.622613994,0.838417993,1,1,1,0.988450437,0.93066422,0.780758993,44.06907839,-93.53263028,2020,MNH1
B73/PHN82,MNH1_2016,N,22.35,731.1212129,0,2,229,110,72.5,70.5,2.893225764,0.170000008,5.030425272,6.121705224,6.438583227,6.210954471,8.179238718,7.617170889,9.394742846,89.68999869,1.190000057,67.79499967,212.8530004,13.67999972,65.11499918,295.599999,62.20750045,287.315495,17.89673604,26.28611401,18.122652,20.29948324,15.80941307,17.87578139,16.93568638,15.29315111,12.15008877,17.5148386,25.45428576,24.53269911,27.63337014,28.14450006,28.70269129,27.15887183,24.8505404,22.53032632,6.338387108,9.824285678,13.68155402,15.81410535,17.82425013,18.42635015,16.92976579,13.57123889,11.50456607,6.871134867,10.90204251,11.6566452,13.98369248,15.05511886,15.68076391,14.22086787,11.86153057,10.26982602,0.734527645,1,1,1,1,0.999952477,0.98729881,0.936092645,44.06646925,-93.533648,2016,MNH1
TX714/PHZ51,MOH1_2015,N,14.4,731.1212129,0,0,230,135,76,74,3.914838722,3.002727248,2.7038834,5.646226268,2.268750012,1.183333344,4.736744086,1.740401796,3.666491943,121.3600004,33.02999973,34.41999933,178.8712478,5.868750036,10.6500001,140.2618746,11.88312507,113.6612502,18.81846694,18.88703156,16.92919735,21.70591481,15.72154266,19.94530069,18.47422179,20.12873028,17.02653892,18.28451609,18.00181831,23.77805456,28.93028285,29.85593748,31.76118019,30.42140763,28.58050013,28.43143147,5.857096827,7.500000065,15.21487777,17.6487962,21.67281234,21.45979159,20.28182538,17.09899995,17.28669369,7.068544315,7.302193139,11.97142579,15.39796361,17.76437491,18.61048589,17.380694,14.99182695,15.05317439,0.723283405,0.814935086,1,1,1,1,1,1,38.8965375,-92.20800417,2015,MOH1
F42/H95,IAH1_2020,N,14.73333333,731.1212129,0.5,0.166666667,229,110,65,64,1.688064506,6.196000195,3.0793737,6.533057926,1.271428551,2.673269776,1.85421064,0.708456624,3.755616013,52.32999969,61.96000195,37.23499918,213.6221428,2.198571375,25.9085708,60.11785651,6.012142782,115.3728583,19.46953177,15.04660187,20.64247086,20.31598349,21.99207742,21.09552252,19.7297914,19.80455556,15.11692591,15.87290319,18.70700045,25.72176895,28.50674309,31.92999949,30.87921407,28.61147391,29.37327705,24.63079501,3.348387095,9.753000152,14.65929334,17.38633346,19.85714286,19.28849194,17.27261165,15.46819038,11.83183106,5.5584858,8.125456457,12.65757338,15.09801966,17.89357117,17.09078834,15.12121856,14.7539709,11.47694483,0.621440085,0.927035726,1,1,1,0.998514142,0.992713009,0.918334154,41.19774214,-91.48767072,2020,IAH1
PHW52/PHM49,TXH1_2015,N,13,763.3008437,0,2,152.5,78.5,72,70,2.435333351,0.886666695,4.529386736,2.992210444,0,5.407499953,3.236240411,4.528416659,2.205666663,73.06000052,5.320000172,54.16999972,113.7899998,0,59.48249948,89.11249819,24.54499996,66.1699999,13.38128519,15.80308406,13.73749678,19.48289484,22.46598899,19.96463979,19.54848583,19.57031498,18.03135075,19.61999995,26.26833312,25.8489028,26.4780255,30.37177098,28.79539756,31.9014052,33.48070828,34.35516661,6.122333375,12.74499997,15.39155332,13.69439061,15.83385423,15.9580683,20.41172374,21.45270844,23.93220836,7.516768444,12.28221354,13.06030889,12.7550996,15.35592881,14.67426974,18.11040569,19.30603111,20.37775841,0.822428569,1,0.992325397,0.994092815,1,1,1,0.999431249,30.54708625,-96.43393475,2015,TXH1
B14A/H95,TXH1-Dry_2018,Y,9.9,746.5674357,0,2,246,97,72,73,2.442333295,0.87833333,4.91741256,2.91095925,1.112321411,5.987347663,3.094033648,2.445309502,2.573656677,73.26999886,5.269999981,55.2178573,113.3721426,4.449285643,64.36357035,86.72785865,13.67714274,77.357857,13.4988633,14.49154552,13.92485348,19.6618496,19.390827,19.64184359,19.38410293,21.21373351,18.01258323,19.68933331,26.95833333,25.66614373,26.56996845,30.24238085,29.14372996,31.91805433,33.2644762,34.51160554,6.357666679,15.03999996,15.13755815,13.69055459,18.24071415,16.44843436,20.63070323,20.50154739,23.97494014,7.613570572,13.40715604,12.87528071,12.79536137,16.34410207,15.0664779,18.21233438,18.75919739,20.40606275,0.821476194,1,0.991620595,0.99408643,1,1,1,0.999013392,30.546318,-96.4329965,2018,TXH1-Dry
TX951/LH195,ONH2_2015,Y,35.3,752.3597692,0,0,295.5,165,85.5,83,1.876451608,4.282666683,1.928005431,1.58261263,10.80264742,1.923208582,3.114388399,4.294901914,2.356388962,58.16999984,64.24000025,23.61999965,57.22470651,21.60529484,21.1552944,115.5017658,31.56294079,72.1164696,18.95380112,18.76709785,21.17743809,22.45418875,20.04103015,18.4543581,18.45373918,15.80078253,13.34539525,11.17387095,14.38466663,23.91200153,26.61279381,30.15176526,27.65053462,26.77986929,25.87464046,20.7920557,2.006774224,5.636000033,13.64950245,15.64688346,19.32647026,18.51812829,16.74694623,15.4972221,11.03054456,3.742938436,5.617129505,11.53065914,13.52353119,16.78542678,15.13421866,13.95153495,13.1846932,9.37660249,0.276970043,0.589690475,0.985132406,1,1,1,0.993019959,0.931831119,42.45408625,-81.8816065,2015,ONH2
PHW52/PHN82,NCH1_2018,N,18.4,731.1212129,0,2,202.5,93,53.75,52.75,4.157741868,0,6.852651043,4.101575565,0.281428576,2.753968325,7.265916583,9.606714405,8.963617552,128.8899979,0,78.76714403,125.545715,0.410714286,22.4842863,196.6735732,49.18571489,277.8721441,19.15814344,24.86455965,15.13897653,19.38558293,23.18458939,19.6068393,18.38664919,15.55735787,15.52161696,22.42709686,23.6650002,25.05504787,28.99162569,32.21999972,32.77589287,33.41271207,32.57228504,30.53730396,9.272903273,8.262500107,16.63082339,19.21430847,20.43714251,21.48106165,22.41052549,22.8214047,21.52269578,9.383610038,9.710722454,13.07063738,16.1524193,18.32857112,19.12847726,19.83450897,19.67052049,18.05632483,0.990449307,1,1,1,1,1,1,1,35.6667825,-78.492372,2018,NCH1
CG119/CG108,DEH1_2017,N,16.05,724.0416941,0,33.5,181.5,98,57.5,58,2.917187458,6.201428686,3.00780289,3.517983876,1.211428521,1.632751291,5.214259368,11.31934688,4.882730708,93.34999865,43.4100008,45.34571489,126.7790489,1.268571377,15.48333303,157.8533328,69.24809492,151.3147631,17.05647962,17.73228645,20.71096481,19.57386043,19.15556694,20.88592809,18.21237176,18.15756056,16.58607394,20.26624998,24.66142872,21.72245043,26.82298965,30.35071437,30.31148162,30.69555299,28.43090921,27.29702356,9.32593758,14.19571427,10.68752201,16.75855213,19.906349,19.88150788,21.21690322,18.72144455,17.91444491,8.690479953,12.08402314,9.787934269,14.12431868,17.15482568,17.14050735,17.94790556,15.63546309,14.74613823,0.907287956,1,0.959736116,1,1,1,1,1,38.67025825,-75.4333645,2017,DEH1
B73/MO17,WIH1_2018,Y,19.108,792.9833352,0,2,266.4,126.4,69.2,67.2,1.609999989,7.097692302,4.543300024,5.384655594,12.90857152,6.684415526,1.835393967,1.490247701,3.282350194,49.90999967,92.26999992,56.1414287,188.537143,17.774286,73.52857079,76.14071582,18.50214262,100.642856,20.21844376,17.61529163,19.67186989,21.74517717,19.19342093,18.08513378,19.62003162,16.98075827,12.74863056,13.31193533,16.25923072,24.73561688,28.00164855,31.39095186,28.11097395,26.99453296,26.15077082,19.9357303,1.183225821,5.521538512,13.28283365,14.89542408,18.89249983,17.62870117,14.61713968,12.9208708,8.385953947,4.208379921,6.163069931,11.75441076,13.86262536,17.16453014,14.91796624,13.29691021,12.54059059,8.511099252,0.430714275,0.66777473,1,1,1,0.987929958,0.939058758,0.805939432,43.0544,-89.5317,2018,WIH1
PHN11_PHG47_0251/PHB47,NYH2_2016,N,20.05,731.1212129,5,2,174,77.5,72,70.5,2.034516133,1.030000001,1.88805842,0.867300396,1.140952366,2.326450204,3.376451109,4.287746575,3.208572451,63.07000011,12.36000001,22.4085716,34.4438095,2.622857094,25.59095225,116.65619,31.75809508,97.82571426,19.21240982,23.35584625,23.40556822,22.17883586,23.94456446,21.25361649,17.18897092,16.17245816,13.35906413,14.04935483,18.68749992,27.50851283,26.23633728,28.78071431,29.31692664,28.41638555,26.44500865,23.15297547,1.686774175,4.439999988,12.92699036,12.85534504,13.89476193,15.65588736,16.863818,13.58818034,10.55762265,4.511298309,6.607155497,12.88765676,12.33330427,13.7996272,14.74166699,14.82295673,12.66050813,10.26842414,0.447315667,0.804761906,0.999400038,0.994542932,1,0.999880088,0.994843294,0.949842165,42.726117,-76.655339,2016,NYH2
LH195/LH82,INH1_2016,N,22.525,721.4673236,1,9.25,214.25,97.5,63.75,63.5,3.034516148,1.382857186,3.106568823,3.966270256,3.500454469,6.752636371,3.451172643,3.198528118,3.024422797,94.07000059,9.680000305,31.26000059,138.8759105,3.500454469,67.52636371,113.8927274,21.6654544,92.62590972,17.63328649,23.97511796,20.66441577,20.1236558,19.9706746,19.39149484,18.14527656,15.98533716,14.62820237,18.74516109,26.31142807,27.84898846,28.12893417,28.20272714,29.14504538,29.16779001,27.95564941,27.07739093,7.950322636,11.69428553,16.31817922,16.10606538,16.8522731,18.34872752,18.58889605,17.50284626,15.03841012,7.677100472,11.91689015,14.24288378,14.4184555,14.68521604,15.7994256,15.9329094,14.92238151,13.51734692,0.852649763,1,1,1,1,1,1,0.996102814,40.4787595,-86.98982,2016,INH1
B73/PHM49,NCH1_2018,Y,16.375,731.1212129,0,2,221,117.5,54,54.25,4.157741868,0,6.852651043,4.101575565,0.281428576,2.753968325,7.265916583,9.606714405,8.963617552,128.8899979,0,78.76714403,125.545715,0.410714286,22.4842863,196.6735732,49.18571489,277.8721441,19.15814344,24.86455965,15.13897653,19.38558293,23.18458939,19.6068393,18.38664919,15.55735787,15.52161696,22.42709686,23.6650002,25.05504787,28.99162569,32.21999972,32.77589287,33.41271207,32.57228504,30.53730396,9.272903273,8.262500107,16.63082339,19.21430847,20.43714251,21.48106165,22.41052549,22.8214047,21.52269578,9.383610038,9.710722454,13.07063738,16.1524193,18.32857112,19.12847726,19.83450897,19.67052049,18.05632483,0.990449307,1,1,1,1,1,1,1,35.6667825,-78.492372,2018,NCH1
B14A/H95,SCH1_2019,N,15.095,731.1212129,1,2,185.42,73.66,57,64,3.522580645,3.026666641,1.832071666,3.15534991,1.497023807,2.439880971,1.838213127,1.715047598,2.162465429,109.2,18.15999985,19.94999987,97.87357193,2.846428582,21.92714303,50.9164284,9.481428444,67.0364283,18.2238054,19.24788825,19.83816148,19.9388592,17.79349522,20.88775084,19.93011295,20.19525604,17.6553152,24.08129043,27.55666669,26.86360264,30.30302253,30.15095266,31.81823454,32.87501498,31.84457125,32.33357145,10.7222581,15.88833332,14.78977791,18.33498627,20.49666657,19.48954379,21.18366564,19.1694286,20.16504603,10.62715993,13.88239503,13.27455789,16.3672742,17.32380961,17.64580353,19.00989067,17.48787314,18.15917061,0.967315668,1,1,1,1,1,1,1,34.62248225,-82.73756775,2019,SCH1
PHB47/PHN82,MOH1_2016,N,16.4,731.1212129,0,2,230,120,57.5,55.5,2.465483877,8.058000231,0.264259377,6.282521268,1.94553035,9.25680559,4.358907121,3.354664451,5.453130527,76.43000019,40.29000115,2.879999995,172.8372758,4.262727369,83.20363667,125.2090916,21.13363606,168.2240918,20.2309363,16.93509369,22.49829557,20.20959989,18.68177986,19.21408964,18.0090922,17.17714413,15.87534947,21.83193548,27.56600037,27.88644765,31.21215235,30.25795442,31.2505745,30.57423065,29.80077912,28.25339236,10.073871,16.74400005,16.26474463,19.86215984,19.98371223,20.49117413,20.76153791,19.91431794,17.56318368,9.497798547,14.24343349,14.21296425,17.47336946,17.12232598,17.8699151,17.65104862,16.90998551,15.09561117,0.937315665,1,1,1,1,1,1,0.999442641,38.8955475,-92.2072025,2016,MOH1
PHN11_OH43_0001/PHB47,IAH3_2017,Y,16.85,738.8443243,0,2,229,110,65,64,4.153750014,4.476666673,3.404720357,2.207347727,0.783636364,2.628276904,1.892687593,2.328876272,1.794257086,132.9200004,67.1500001,54.03954627,78.33863542,1.567272728,28.02681865,71.85545488,19.05045461,54.69545453,16.14493189,17.75127989,18.89303832,22.07985964,20.54923199,20.99384486,19.81852315,17.22919489,15.64326955,15.84312499,15.5066665,21.42652578,27.714982,28.45522753,29.90074383,27.6545798,25.64720852,25.13760955,4.41906251,4.141333344,9.782295063,13.56526933,16.05901469,16.6123348,14.8096002,12.74600627,11.28191352,5.818880471,5.62230391,9.387130072,13.2881535,14.4256186,15.3843105,13.65871261,11.89796048,11.29223634,0.568604913,0.570380948,0.879734313,1,1,1,1,0.979205627,41.9758706,-92.24318881,2017,IAH3
TX714/PHZ51,WIH1_2016,Y,18.75,798.054845,0,4.5,266.5,144,74,74,2.076129018,1.94750002,4.430291291,4.068377178,0.606590927,8.204471101,6.520888551,7.285801826,4.413191112,64.35999957,23.37000024,50.66818307,153.9786358,1.017727305,87.41727302,222.4604529,58.95590957,134.9268184,19.92805462,20.9108026,19.53546339,20.65690042,18.97296773,19.76360502,17.50876714,15.21370917,12.23883056,16.70258062,17.57583312,27.08182728,26.49130857,27.22159082,28.35833875,27.6700069,25.1458901,22.98674642,3.327419363,4.990833327,14.04723809,14.47423798,17.58636334,16.7186736,17.17399145,14.32051147,12.5735533,5.875866612,6.419508974,12.98865398,12.92924289,14.50224274,14.72651534,14.55658067,12.23924581,10.7486024,0.621198161,0.7653869,1,1,1,0.999967803,0.998306277,0.970976554,43.05632525,-89.53194975,2016,WIH1
B37/OH43,SDH1_2015,N,28.9,566.3615029,0,3,170,90,76,70,1.890000034,2.68444448,2.847212523,0.928406021,1.08916667,1.213193166,1.12388612,3.994558873,0.570569385,58.59000105,24.16000032,33.86000057,31.14874977,1.720000006,12.77624983,39.02562428,27.90249949,17.65812508,21.16446504,23.3864585,24.03054242,23.94878495,21.74335716,21.42490048,20.60212775,16.27746828,15.18579983,19.04290341,22.5888888,27.20826416,30.46229654,29.54760476,31.86073879,31.47770382,29.48664523,24.89733582,4.208709664,8.468888919,11.69082143,14.25969647,14.29062517,16.06534098,14.02269822,14.11578116,6.942900096,6.807516906,9.210660666,12.27390437,14.67606113,14.18888263,15.81431879,15.00552731,14.17539039,9.834808296,0.77025346,0.983690483,1,1,1,0.983472358,0.961069402,0.950039755,44.208745,-102.928745,2015,SDH1
LH195/LH82,NYH2_2016,N,20.15,731.1212129,0,1.5,147.5,67.5,77.5,75,2.034516133,1.030000001,1.88805842,0.867300396,1.140952366,2.326450204,3.376451109,4.287746575,3.208572451,63.07000011,12.36000001,22.4085716,34.4438095,2.622857094,25.59095225,116.65619,31.75809508,97.82571426,19.21240982,23.35584625,23.40556822,22.17883586,23.94456446,21.25361649,17.18897092,16.17245816,13.35906413,14.04935483,18.68749992,27.50851283,26.23633728,28.78071431,29.31692664,28.41638555,26.44500865,23.15297547,1.686774175,4.439999988,12.92699036,12.85534504,13.89476193,15.65588736,16.863818,13.58818034,10.55762265,4.511298309,6.607155497,12.88765676,12.33330427,13.7996272,14.74166699,14.82295673,12.66050813,10.26842414,0.447315667,0.804761906,0.999400038,0.994542932,1,0.999880088,0.994843294,0.949842165,42.726117,-76.655339,2016,NYH2
PHG39/TX205,GAH1_2016,N,16.25,722.7545088,1.5,1,215,105,63,61.5,6.466250051,4.395000041,0.566421492,2.549627568,3.17469698,5.859943136,4.096967014,2.330999996,2.476261007,206.9200016,35.16000032,6.21000006,86.0200003,9.52409094,52.42727233,105.6731797,11.65499998,76.76409122,15.95696127,18.25385642,20.33100053,20.74024209,20.01064868,19.54302735,19.38198769,19.26953352,18.21451922,23.62687498,22.98249984,28.56134937,29.4983659,33.37075638,32.62719045,33.25026907,34.51499955,33.94928126,11.29749997,10.47000009,15.64744728,16.2846205,20.78287862,20.61269551,21.56927107,22.51809092,22.40467728,10.53971422,9.962440438,14.36481163,15.11313475,19.02952924,18.56859265,19.26668195,20.34390963,19.99415841,0.993928569,1,1,1,1,1,1,1,31.5079175,-83.55854775,2016,GAH1
PHW52/PHN82,WIH1_2018,Y,21.505,804.0402564,0,2,249.5,100.75,68.25,67.75,1.609999989,7.097692302,4.543300024,5.384655594,12.90857152,6.684415526,1.835393967,1.490247701,3.282350194,49.90999967,92.26999992,56.1414287,188.537143,17.774286,73.52857079,76.14071582,18.50214262,100.642856,20.21844376,17.61529163,19.67186989,21.74517717,19.19342093,18.08513378,19.62003162,16.98075827,12.74863056,13.31193533,16.25923072,24.73561688,28.00164855,31.39095186,28.11097395,26.99453296,26.15077082,19.9357303,1.183225821,5.521538512,13.28283365,14.89542408,18.89249983,17.62870117,14.61713968,12.9208708,8.385953947,4.208379921,6.163069931,11.75441076,13.86262536,17.16453014,14.91796624,13.29691021,12.54059059,8.511099252,0.430714275,0.66777473,1,1,1,0.987929958,0.939058758,0.805939432,43.0544,-89.5317,2018,WIH1
B37/H95,IAH1_2019,Y,27.25,696.3672116,0,12.5,215,107.5,65,64,8.157187574,0.75333335,7.315577374,1.144389074,0.212857144,0.731688293,3.103679801,5.185721735,4.918979992,261.0300024,4.5200001,87.30642721,32.26642813,0.212857144,8.04857122,121.5035704,46.39999972,147.9399989,18.01904646,22.72114833,18.53868323,20.84617194,19.20093738,21.91428985,16.4832458,14.23349405,11.00878768,22.30999994,27.52999973,24.52617789,31.4481278,28.63047609,29.47870132,27.11002697,25.00731411,20.46577188,10.93062501,14.96333329,14.91684483,20.02766766,18.36452364,16.34071412,15.67686671,13.06746994,9.592819484,10.11779152,13.58137929,12.09039624,17.73903178,15.5681627,15.08353594,13.70818638,12.14295105,9.387875541,0.879263394,1,1,1,1,0.994329881,0.928985237,0.797752907,41.1992562,-91.4941418,2019,IAH1
F42/H95,MNH1_2015,N,17.1,736.2699538,17,10,234,125,78,78,2.676451665,6.10285713,1.587216104,4.707726326,2.093823531,4.685775359,5.935015669,2.223261507,2.198788145,82.97000162,42.71999991,19.59000013,155.007059,3.965294123,52.23235247,227.0947085,20.90117698,67.40117758,19.81693462,15.87546921,21.62818458,20.65236193,17.21434565,21.12123323,17.7408483,14.5374504,12.06297535,17.43387093,22.63000025,27.28921799,28.46423671,28.36529418,28.07899716,26.14089523,24.73259507,17.90095705,4.567419307,13.73428563,14.30007362,16.89716897,18.65411764,16.19745995,14.75643511,13.57280729,6.634647692,6.2838161,10.87437977,13.26905608,14.87023808,15.64114514,14.35392043,12.99006372,12.46836687,7.55733068,0.722983866,1,1,1,1,0.977703003,0.878626049,0.721229646,44.07038575,-93.53519625,2015,MNH1
TX777/LH195,IAH4_2015,Y,18.75,739.4879169,0.5,4.5,265,131.5,65,64,1.42451612,4.854615514,2.513668144,6.351127419,5.46999979,2.154687441,1.85099418,0.335758934,4.064770202,44.15999973,63.11000168,35.58999979,218.2399999,10.93999958,20.30812445,58.48687407,2.377500039,125.1143763,19.83997888,19.28772805,16.02270398,20.69822917,17.27718186,21.35831173,20.17303565,19.59360772,15.6142427,15.83032262,16.78769229,22.26164163,27.88725423,29.37999988,31.52784708,28.69895342,30.18404469,25.46833276,2.473548389,5.024615425,13.48280789,16.59868734,20.37374985,19.78628468,17.37298211,16.89515858,12.68514048,5.318693913,6.228847238,10.78291245,14.47529064,16.87687486,17.66054739,15.18141656,15.71210426,12.05907357,0.585391697,0.659230777,0.98994413,1,1,1,1,0.952600636,41.19970961,-91.49362406,2015,IAH4
B97/PHB47,OHH1_2016,N,16.7,725.9724719,0,69,290,132,65,64,4.328064465,1.776000023,3.915145208,2.580740659,3.890757626,4.17049496,5.079069289,3.957741935,3.614594814,134.1699984,8.880000114,44.70363614,85.9177286,9.330454675,39.94818193,160.1854537,27.69772666,110.1186362,18.3437644,22.24283047,20.73146956,20.35982518,19.15233416,18.82824642,16.72048491,17.98730955,14.71797893,19.63580645,29.63200035,26.56953589,28.59263588,29.59106055,30.69283836,29.21689182,28.27188687,26.30588322,8.120967747,16.89599972,14.9739129,16.70528562,18.30318191,19.74443426,18.9160149,15.44500838,13.40262461,8.117657052,15.32722009,13.17028057,14.81678154,15.96857054,17.23303236,16.11713161,14.21502474,12.5845871,0.859331788,1,1,1,1,1,0.999172078,0.989049277,39.860924,-83.6755995,2016,OHH1
2369/LH123HT,OHH1_2018,Y,18.65,736.2699538,0,1.5,289.5,131,61,60.5,3.056774178,9.537500136,1.922452157,2.385565957,3.342142727,1.8544286,3.625787622,3.100846839,2.007798001,94.75999951,76.30000108,21.73714328,80.43785755,3.342142727,18.544286,121.7649994,22.15357072,61.29071423,19.31095449,14.64635724,20.72885596,20.94366931,19.27592959,20.95649317,17.99811894,17.37176276,15.4204415,15.33419351,20.99500024,26.65036435,28.81994394,32.41071347,30.66092864,28.53085842,26.94730604,24.73435724,3.376129027,12.14624989,14.55931522,16.57316253,19.49428545,18.47499986,17.24720124,15.03980618,12.05347394,5.35712311,9.832246518,13.13485159,14.9051591,17.95401161,16.59941793,15.03822312,13.39555861,11.48513665,0.534285712,0.926785712,1,1,1,1,0.999125,0.970735544,39.85688825,-83.671225,2018,OHH1
B73/DK3IIH6,IAH4_2017,Y,17.7,731.1212129,0,2,229,110,65,64,3.054193612,4.63857133,5.654282844,2.356146022,0.145000003,0.823262634,3.029939984,2.506485397,3.022032747,94.68000197,32.46999931,92.55000019,79.81000018,0.290000005,7.931363713,110.0431818,17.65818187,91.79227275,19.60434628,22.37855189,18.81628808,21.46940114,22.42332305,21.26952374,19.1513695,15.94205759,15.34138578,17.83935482,25.21428544,21.76755785,28.88340452,30.88984893,30.99338411,28.30609907,26.26622464,25.93438806,4.952580655,10.13999993,10.24708413,15.02150207,17.47128796,18.07608078,15.80662465,13.87026602,12.51354651,6.575243948,10.82301274,9.649960621,14.3656457,16.22810104,16.57398155,14.36597852,12.57546566,12.06214068,0.727396317,1,0.910082199,1,1,1,1,0.987168831,41.99455432,-93.69030947,2017,IAH4
F42/H95,TXH1-Dry_2018,N,10.25,751.072584,0,2,226,84,72.5,71,2.442333295,0.87833333,4.91741256,2.91095925,1.112321411,5.987347663,3.094033648,2.445309502,2.573656677,73.26999886,5.269999981,55.2178573,113.3721426,4.449285643,64.36357035,86.72785865,13.67714274,77.357857,13.4988633,14.49154552,13.92485348,19.6618496,19.390827,19.64184359,19.38410293,21.21373351,18.01258323,19.68933331,26.95833333,25.66614373,26.56996845,30.24238085,29.14372996,31.91805433,33.2644762,34.51160554,6.357666679,15.03999996,15.13755815,13.69055459,18.24071415,16.44843436,20.63070323,20.50154739,23.97494014,7.613570572,13.40715604,12.87528071,12.79536137,16.34410207,15.0664779,18.21233438,18.75919739,20.40606275,0.821476194,1,0.991620595,0.99408643,1,1,1,0.999013392,30.546318,-96.4329965,2018,TXH1-Dry
CG60/LH162,NYH2_2015,N,15.65,731.1212129,1.5,2.5,192,86,72,71,3.814193487,2.822857129,1.806874641,1.427310218,14.28882354,6.323155046,2.553769654,1.263651931,1.70374005,118.2399981,39.5199998,23.5252947,50.99705838,17.86235295,65.18176435,90.43176518,10.71352917,51.74117684,19.21827184,21.58410556,20.44972798,21.8367517,17.34067749,18.34945618,18.49425604,17.55625849,13.84215422,11.26903224,15.86071418,24.70888252,27.12764594,29.5805878,28.55383422,27.75922879,25.11594081,20.73318661,0.676451599,3.065714287,12.68317757,14.19692254,19.48862723,17.66257776,16.12899413,12.03346763,8.797239788,3.458861152,5.522653893,11.65565145,13.2498794,16.56577659,15.18766176,14.16580901,11.53845799,8.731216192,0.261509218,0.568112238,0.971160735,0.994106254,1,0.999864887,0.980226591,0.898542131,42.7324825,-76.65277775,2015,NYH2
B37/MO17,MIH1_2019,Y,28.85,670.6235069,15,14.5,245.25,139.25,73.5,71.5,3.720322615,6.189999878,7.0818969,2.961916884,8.70871786,0.913986013,1.817216317,4.468053866,4.013250907,115.3300011,49.51999903,106.8900002,93.8269235,16.81999984,10.80615383,84.36076873,63.3192304,120.886153,19.31986936,19.65939665,18.51979106,21.00444556,17.01540622,20.04742627,16.96863927,12.02893287,10.87568864,17.60709666,21.67250037,22.690749,28.9340566,30.56538516,27.94921954,26.00654686,21.50260694,17.46530245,6.210322559,10.31875008,12.21847794,16.86604701,18.743333,15.85306519,14.00590995,11.32576155,7.161163464,6.876773896,9.314382636,10.39761731,15.10453275,16.86261297,14.19391073,12.58553183,10.00606366,7.511656803,0.696382483,1,0.995173883,1,1,0.988904737,0.895422602,0.709438731,42.70789125,-84.4706665,2019,MIH1
2369/LH123HT,GAH1_2018,N,14.73,677.1237923,0,2,240,125,61,60,4.231249915,1.934999943,5.575464231,3.801027214,1.067857163,3.256190501,3.932246866,3.816857059,2.685023025,135.3999973,11.60999966,76.79571342,135.0185695,1.516428607,29.30571451,107.1921429,19.08428529,83.23571379,16.89130574,18.83037901,19.9789379,20.32622599,17.16636637,17.47509449,19.98058203,18.77657547,18.35496912,25.6268748,28.56500022,25.46428012,27.96417186,30.5753573,30.54857133,31.9994497,33.07128549,33.68336431,12.70062498,14.46999963,11.35988473,14.27301998,20.47928579,20.42444427,20.68398901,21.82542842,22.30905548,11.99291119,13.91639365,11.33534042,13.63652225,17.52732154,17.4865078,18.33967815,19.36985553,19.8838857,0.988973219,1,1,1,1,1,1,1,31.50582525,-83.55515025,2018,GAH1
PHG39/TX205,MIH1_2016,Y,21.25,678.9902109,0,1.5,257.5,138.5,64.5,64,3.213870927,0.372000003,1.277668238,2.072144594,0.204761899,2.382636341,6.277866916,3.129595251,4.115734243,99.62999874,1.860000014,16.77857134,74.4033328,0.614285696,24.34142835,217.3680916,23.88571438,123.5814282,20.04481233,22.69628944,22.57460654,21.19066928,19.62511718,19.41470496,17.43536011,14.16523572,12.41239439,17.74322581,29.20999985,25.57947765,28.1508514,27.23547651,30.32783564,28.27294529,26.6388532,22.50219404,5.299677434,16.33600006,11.90361174,14.70447611,15.74579377,17.52671,16.25511672,15.58650841,10.86825081,6.615827776,14.89908974,11.62365975,13.82943527,13.70908531,16.01583991,14.48649579,13.48265,10.09129455,0.734400922,1,1,1,1,0.999987733,0.99326559,0.936590208,42.41206675,-84.2952625,2016,MIH1
PHN11_OH43_0001/PHB47,ARH1_2017,N,14.05,675.7722478,0,2,191.75,96.55,65.5,59,3.058125025,3.532857077,9.871688678,6.405160528,0.516363615,5.988171668,5.119232493,3.102318153,5.34158356,97.86000079,24.72999954,132.0327285,211.6218184,0.569545432,54.36818138,136.8913653,16.08272713,165.5890903,17.13974981,16.55343887,20.38424011,18.76225527,22.81364793,19.06964508,19.53553475,19.77193111,17.12972935,24.60906261,23.96000045,24.77057006,28.06605652,30.35469691,31.5146664,31.30577636,32.78459133,30.91587993,11.9175,14.17857156,11.8445801,17.60850246,18.97249995,21.30615642,21.39979275,22.50533316,21.62237538,11.1639709,11.77578055,11.22655186,14.97537354,16.74359516,18.41041141,18.33049426,19.54768126,18.22457608,1,1,1,1,1,1,1,1,34.7272515,-90.76032575,2017,ARH1
TX777/LH195,TXH1-Dry_2018,N,10.9,723.3981015,0,2,245,94,65,70,2.442333295,0.87833333,4.91741256,2.91095925,1.112321411,5.987347663,3.094033648,2.445309502,2.573656677,73.26999886,5.269999981,55.2178573,113.3721426,4.449285643,64.36357035,86.72785865,13.67714274,77.357857,13.4988633,14.49154552,13.92485348,19.6618496,19.390827,19.64184359,19.38410293,21.21373351,18.01258323,19.68933331,26.95833333,25.66614373,26.56996845,30.24238085,29.14372996,31.91805433,33.2644762,34.51160554,6.357666679,15.03999996,15.13755815,13.69055459,18.24071415,16.44843436,20.63070323,20.50154739,23.97494014,7.613570572,13.40715604,12.87528071,12.79536137,16.34410207,15.0664779,18.21233438,18.75919739,20.40606275,0.821476194,1,0.991620595,0.99408643,1,1,1,0.999013392,30.546318,-96.4329965,2018,TXH1-Dry
B73/PHZ51,ONH1_2017,Y,24.5,692.5056558,0,2.5,244.5,117.5,72.5,72,4.42290319,4.904999876,1.545173221,3.420435244,1.695375006,2.594700004,1.855534774,1.54565171,2.383111348,137.1099989,49.04999876,23.52600009,140.8034994,5.378000009,36.46150006,95.23350107,29.85300009,72.44250006,18.65662235,17.08545341,23.10813164,20.12586768,18.11232318,19.44819915,16.33652997,11.62209215,7.957733996,13.94322577,18.20700026,22.35689536,24.80045755,25.17183321,25.2296929,22.79396283,22.13957367,13.29532023,3.578387066,9.706999969,10.10387851,14.12185296,14.82349991,13.63261195,10.3904862,9.847475595,3.166289439,4.958212412,8.025894563,9.659097931,11.97096233,12.35740613,11.98311106,9.953455995,10.0654016,5.273375752,0.439723498,0.877642858,1,1,1,0.972410901,0.840292505,0.515578473,43.49546,-80.42596875,2017,ONH1
W10004_0216/PHZ51,IAH3_2015,Y,17.4,740.7751021,3,6.5,309,167,65,64,1.888124991,2.913571392,3.784813995,6.971928843,0,3.257500064,1.487385228,2.541446469,4.507444947,60.41999972,40.78999949,55.43999982,241.6600003,0,32.57500064,50.31437471,24.68500039,138.7756267,19.80172794,20.03998334,15.9141292,20.68283491,21.69136486,21.24428636,20.63784564,18.68301758,14.92198489,14.64187506,16.6814285,21.6371088,27.61372247,30.87885427,30.3035625,28.596254,28.51656267,24.33389908,0.83250004,3.600714236,12.24542872,16.05178152,19.47364565,18.11006255,15.99319583,14.30373217,10.64901215,4.605131548,5.787499831,10.11465775,14.1164012,17.17624996,16.25391669,14.57670766,13.97583386,10.87542788,0.501462055,0.634540813,0.981270753,1,1,1,0.968879463,0.933929792,41.97585629,-92.24291804,2015,IAH3
B73/MO17,NYH2_2017,N,17.7,731.1212129,0,2,229,110,65,64,4.985806354,2.593333337,3.453715005,5.89688957,0.948070192,3.208418109,2.379655727,2.694333021,3.397972982,154.559997,23.34000003,55.2357889,222.9889478,1.763157895,41.81263091,117.7794744,23.637895,104.1910535,18.91896409,18.22902181,21.62310913,19.28169434,21.2024166,18.91678159,16.97406986,13.88043676,9.439494818,16.54903238,19.80111122,22.34881997,25.65461899,27.16105275,25.3148988,23.28803047,24.25146582,18.24460841,5.239677404,10.2422222,10.55939387,15.21770316,15.87359667,14.84504335,11.5614249,11.15398494,7.352427253,6.267898103,8.570747831,9.793885142,12.80097944,13.68904673,12.46138399,10.55155578,10.87663924,7.688896934,0.638917053,1,1,1,1,0.981507475,0.966916282,0.722284214,42.73248125,-76.65275025,2017,NYH2
B73/DK3IIH6,GAH2_2017,Y,17.7,731.1212129,0,2,229,110,65,64,5.215806507,2.59000005,0.877047008,6.976424555,36.66571527,11.68990473,2.766634194,6.717714339,5.237281131,161.6900017,18.13000035,10.98809533,219.4985743,69.630002,116.6428568,77.55666748,33.5885717,162.3557151,18.59375843,20.97986943,21.98193589,18.54567619,14.33990901,17.7663424,19.78523868,18.86354985,17.57616326,25.93516134,24.17571449,30.47339418,29.31252372,29.52904774,29.72980419,32.72601502,32.10511542,30.76784952,12.17225799,9.938571385,16.15324828,18.06353156,20.43476164,19.51114297,21.20992787,20.86352373,19.95543778,11.90954616,10.38538115,15.45655397,15.75249851,16.98190469,16.63412837,18.90169131,18.47155665,17.41241638,0.999631335,0.985714285,1,1,1,1,1,1,33.727145,-83.29821525,2017,GAH2
PHW52/PHM49,IAH4_2019,N,35.7,651.3157284,1.75,2,255.75,128,63,61.75,7.44874995,0,6.508814674,5.652572602,2.433809479,0.731547632,2.455795253,7.856419535,5.758725846,238.3599984,0,89.12928634,169.456428,4.779285618,8.60571444,106.5300014,62.81714391,173.1250012,18.61457558,24.25652275,18.80062453,19.64217675,17.01762246,21.29967345,16.82875041,12.82062273,10.73648339,20.72718754,29.98400002,24.57226332,29.58102216,28.11761892,27.58625519,26.21902431,25.70162766,18.66579105,8.655312385,16.39199963,13.30590142,18.52555793,18.42333308,15.4118289,14.78252205,14.57801647,7.354403302,8.719182336,15.28713381,11.55896644,16.12377034,15.4195504,13.79277779,12.9189296,12.78184671,8.051480754,0.866629464,1,1,1,1,0.996735112,0.969646609,0.721601517,42.03193798,-93.79333213,2019,IAH4
CG119/CG108,NYH3_2017,N,14.55,727.2596572,0.5,20.5,222.5,107,64,64,4.985806354,2.593333337,3.440292244,5.924553407,1.051666657,3.381140065,2.23243854,2.798625029,4.018371008,154.559997,23.34000003,54.13749945,222.2425004,2.049999952,44.44499943,102.8575006,24.55750025,123.6625012,18.91896409,18.22902181,21.60070221,19.42377057,18.75741065,18.65984774,17.28846846,13.47436078,9.528870152,16.54903238,19.80111122,22.34799835,25.7161787,25.88750029,25.25326924,23.49877068,24.29574993,19.15391932,5.239677404,10.2422222,10.56618324,15.20414844,15.99166679,14.88818678,11.70967484,11.14050002,8.077069991,6.267898103,8.570747831,9.800943694,12.82521906,13.14722321,12.44715548,10.67530521,10.86002668,8.093424028,0.638917053,1,1,1,1,0.987943118,0.977741071,0.791930495,42.73339625,-76.652747,2017,NYH3
F42/OH43,IAH4_2017,Y,17.7,731.1212129,0,2,229,110,65,64,3.054193612,4.63857133,5.654282844,2.356146022,0.145000003,0.823262634,3.029939984,2.506485397,3.022032747,94.68000197,32.46999931,92.55000019,79.81000018,0.290000005,7.931363713,110.0431818,17.65818187,91.79227275,19.60434628,22.37855189,18.81628808,21.46940114,22.42332305,21.26952374,19.1513695,15.94205759,15.34138578,17.83935482,25.21428544,21.76755785,28.88340452,30.88984893,30.99338411,28.30609907,26.26622464,25.93438806,4.952580655,10.13999993,10.24708413,15.02150207,17.47128796,18.07608078,15.80662465,13.87026602,12.51354651,6.575243948,10.82301274,9.649960621,14.3656457,16.22810104,16.57398155,14.36597852,12.57546566,12.06214068,0.727396317,1,0.910082199,1,1,1,1,0.987168831,41.99455432,-93.69030947,2017,IAH4
CG44/CGR01,WIH2_2020,Y,21.1875,722.5936107,10.625,1.75,230.375,116.75,63.5,61.5,1.142258063,7.375000167,3.772605813,4.528143625,15.91411821,3.015240613,2.848395651,6.559665308,3.073983535,35.40999997,73.75000167,42.96999988,163.850588,31.01764819,33.16764674,117.7699986,59.84176376,94.45823468,20.73953056,16.04352899,21.23354675,21.58093245,19.01370295,17.88573252,19.32013515,13.57540027,12.27254504,13.56999995,18.91099977,26.0938683,28.2322475,29.46647072,27.75422455,27.09322103,24.80509675,19.00189054,0.762580661,9.396999884,13.99892158,14.99589118,17.7452939,17.49807463,14.22893102,13.29211059,7.459399134,4.176897214,8.107987139,12.68677404,14.02444379,15.66411489,14.70790633,13.20588953,12.26960615,7.833960257,0.443168195,0.881928567,1,1,1,0.990384734,0.880973437,0.780679991,43.294786,-89.383968,2020,WIH2
B14A/OH43,IAH4_2015,N,17.55,697.6543968,9.5,19.5,250,110,65,64,1.42451612,4.854615514,2.513668144,6.351127419,5.46999979,2.154687441,1.85099418,0.335758934,4.064770202,44.15999973,63.11000168,35.58999979,218.2399999,10.93999958,20.30812445,58.48687407,2.377500039,125.1143763,19.83997888,19.28772805,16.02270398,20.69822917,17.27718186,21.35831173,20.17303565,19.59360772,15.6142427,15.83032262,16.78769229,22.26164163,27.88725423,29.37999988,31.52784708,28.69895342,30.18404469,25.46833276,2.473548389,5.024615425,13.48280789,16.59868734,20.37374985,19.78628468,17.37298211,16.89515858,12.68514048,5.318693913,6.228847238,10.78291245,14.47529064,16.87687486,17.66054739,15.18141656,15.71210426,12.05907357,0.585391697,0.659230777,0.98994413,1,1,1,1,0.952600636,41.19970961,-91.49362406,2015,IAH4
CG108/CGR03,ONH1_2016,Y,21.825,694.1146374,0,2.25,172.75,112.5,73.25,72.5,1.979032247,2.105714291,0.92181366,1.439738287,4.720833318,2.435439396,4.62931563,1.31185227,2.043303741,61.34999967,29.48000008,13.31600007,60.28400005,10.99249999,28.54150001,172.0475013,11.37649985,61.38049932,20.24883872,21.56727634,23.77365349,22.41142308,19.3081847,20.61473607,17.12813691,15.31534219,11.6349499,10.49290321,16.47999988,25.01561457,25.51466922,28.22516696,27.99415914,27.31356147,24.49017951,20.3886015,-0.735806467,3.753571405,10.93050922,11.61184699,15.55325019,14.71775745,15.07244109,12.71620509,9.185787659,3.269306411,5.688768484,11.09209761,11.56175859,14.2216101,13.76399544,13.57642435,11.5133866,8.776899495,0.291105988,0.684668367,0.99891379,0.988093962,1,0.998165816,0.971212584,0.877977401,43.4997965,-80.451125,2016,ONH1
PHG39/TX205,ONH1_2017,N,32.75,648.0977653,0,2,260,127.5,84.5,84.5,4.42290319,4.904999876,1.545173221,3.420435244,1.695375006,2.594700004,1.855534774,1.54565171,2.383111348,137.1099989,49.04999876,23.52600009,140.8034994,5.378000009,36.46150006,95.23350107,29.85300009,72.44250006,18.65662235,17.08545341,23.10813164,20.12586768,18.11232318,19.44819915,16.33652997,11.62209215,7.957733996,13.94322577,18.20700026,22.35689536,24.80045755,25.17183321,25.2296929,22.79396283,22.13957367,13.29532023,3.578387066,9.706999969,10.10387851,14.12185296,14.82349991,13.63261195,10.3904862,9.847475595,3.166289439,4.958212412,8.025894563,9.659097931,11.97096233,12.35740613,11.98311106,9.953455995,10.0654016,5.273375752,0.439723498,0.877642858,1,1,1,0.972410901,0.840292505,0.515578473,43.49546,-80.42596875,2017,ONH1
TX714/PHZ51,ILH1_2015,Y,11.9,724.6852867,0,0,265,145,70,69,4.343437491,1.296153843,7.654899739,5.34311295,3.674999952,2.467291633,4.647268051,0.712819956,1.951907909,138.9899997,16.84999996,99.86750055,177.342501,7.349999905,22.2056247,144.0256246,5.039375113,60.06187434,19.4076893,20.21820178,17.58012378,22.59231729,17.35775694,20.12242863,18.79551315,20.37165926,16.80998738,15.69375022,16.27615364,23.81483975,28.77428317,30.28249967,31.91701372,28.65899596,28.4854072,27.09877011,2.916875011,4.602307732,13.93389792,16.26044709,20.47749984,20.41381959,17.79543547,15.77196732,14.62672175,5.339800043,5.921635642,11.53105666,14.7484369,17.37999976,18.17178164,15.31569586,14.44648847,13.36421336,0.599162964,0.636840646,1,1,1,1,1,0.99828125,40.05982425,-88.23397575,2015,ILH1
B14A/MO17,NYH1_2018,N,17.73333333,731.1212129,0.666666667,7.333333333,219,104.6666667,70,67,4.394516057,1.637142931,0.546464292,3.461265884,6.062261837,4.338061718,2.067540981,1.177456758,2.359527655,136.2299978,11.46000051,7.340000123,113.5449994,14.95785693,45.27285745,83.63714323,15.50214277,71.28500016,21.14905797,19.51909583,22.50012197,20.49014312,17.37909559,18.62357236,17.54437735,14.42309006,11.11333684,16.43838702,24.34714304,24.48084385,28.4079325,28.47095262,28.85558784,26.25577716,21.21730113,17.53723965,4.181612903,13.18428578,11.78804566,16.02970596,18.15166677,17.53428468,14.37510127,9.649634667,6.532510054,6.046172102,11.82070517,11.18993529,14.50776692,15.35223703,15.26441478,12.8637381,9.179788733,7.084201569,0.564688941,0.946581643,0.98880424,0.99833546,1,0.984010821,0.898581807,0.740508559,42.72940418,-76.65161667,2018,NYH1
PHW52/PHN82,ILH1_2019,Y,18.1,759.439288,0,0,224,101,61.5,60,3.922903261,5.481666605,1.00366755,4.244691953,0.864761892,1.289377346,1.227411081,2.864647074,2.116070648,121.6100011,32.88999963,10.01785682,147.0385723,1.34571428,11.77428573,45.42428628,20.70571404,64.49999962,18.80145381,19.65322081,22.67392072,19.84274881,20.61125065,20.0231267,19.28032854,15.59344345,14.97056188,19.78774188,27.49499989,27.66771062,28.39175175,31.90428638,30.86753304,28.53869606,27.75133519,26.64299619,8.822580737,16.11666648,15.73801632,17.44140675,20.6435711,19.81749468,16.71837596,16.74759351,14.38373492,8.392897398,14.01107102,13.933587,15.08804109,18.28423173,17.40393302,14.78980986,14.45116262,13.1086535,0.871382484,1,1,1,1,1,1,0.979387755,40.0587105,-88.2298385,2019,ILH1
LH195/PHZ51,WIH1_2015,N,35.8,771.0239551,0,0,271.75,148.25,65,64,4.730000059,9.059999784,2.430610682,6.190059866,3.242812514,1.739310909,2.563222068,2.582604527,2.064862235,151.3600019,54.3599987,32.30062549,198.0887501,6.485625029,21.11437514,113.2525011,35.42937557,62.48000012,19.32367544,22.19104989,23.8972515,19.04105101,21.62804324,20.72553659,16.09255797,13.7227876,9.595561915,19.95718755,28.15000025,26.05326099,28.85932006,29.07385437,26.51056077,24.82739399,20.18089026,14.51549808,8.517187543,15.30499983,11.82802944,17.48783518,16.48010375,14.49615378,12.31509137,8.581945626,2.680440183,8.558350873,13.98301754,11.81015597,15.26183828,14.95581898,12.98753542,11.68123469,8.628108428,5.087550731,0.777276777,1,1,1,1,0.929186389,0.833919484,0.505939954,43.05511725,-89.528525,2015,WIH1
WF9/H95,OHH1_2016,N,19.25,709.2390639,0,67,269,117,65,64,4.328064465,1.776000023,3.915145208,2.580740659,3.890757626,4.17049496,5.079069289,3.957741935,3.614594814,134.1699984,8.880000114,44.70363614,85.9177286,9.330454675,39.94818193,160.1854537,27.69772666,110.1186362,18.3437644,22.24283047,20.73146956,20.35982518,19.15233416,18.82824642,16.72048491,17.98730955,14.71797893,19.63580645,29.63200035,26.56953589,28.59263588,29.59106055,30.69283836,29.21689182,28.27188687,26.30588322,8.120967747,16.89599972,14.9739129,16.70528562,18.30318191,19.74443426,18.9160149,15.44500838,13.40262461,8.117657052,15.32722009,13.17028057,14.81678154,15.96857054,17.23303236,16.11713161,14.21502474,12.5845871,0.859331788,1,1,1,1,1,0.999172078,0.989049277,39.860924,-83.6755995,2016,OHH1
F42/H95,INH1_2020,Y,23.8575,698.684145,0.5,1.75,226.45,111.675,66.75,65,2.63064515,6.092222161,2.380905542,2.638028789,0.629411796,2.977235278,3.349803369,1.095052516,1.575144189,81.54999965,54.82999945,26.35000017,86.90176377,0.755294155,29.77235278,114.9176474,7.60117643,48.41470517,19.12040675,14.46862051,21.68340347,21.75389977,20.24839053,19.66959435,18.78188958,18.00828299,15.45076636,15.20677414,20.6899999,27.1104927,29.42650107,32.0752936,30.36388222,28.15834081,28.66782236,25.41333794,2.934193564,11.51555562,15.17811918,16.46944194,19.37588254,18.23752946,16.66734055,16.5683672,12.52337519,5.193705795,9.337664252,13.54219901,15.16026165,17.73146127,16.3694037,14.61167179,14.83949529,11.90095499,0.576025338,0.994801587,1,1,1,1,1,0.975702381,40.4787965,-86.9895995,2020,INH1
LH195/PHZ51,ONH2_2015,Y,23.975,771.6675477,0,1,274,128.5,80.75,80.25,1.876451608,4.282666683,1.928005431,1.58261263,10.80264742,1.923208582,3.114388399,4.294901914,2.356388962,58.16999984,64.24000025,23.61999965,57.22470651,21.60529484,21.1552944,115.5017658,31.56294079,72.1164696,18.95380112,18.76709785,21.17743809,22.45418875,20.04103015,18.4543581,18.45373918,15.80078253,13.34539525,11.17387095,14.38466663,23.91200153,26.61279381,30.15176526,27.65053462,26.77986929,25.87464046,20.7920557,2.006774224,5.636000033,13.64950245,15.64688346,19.32647026,18.51812829,16.74694623,15.4972221,11.03054456,3.742938436,5.617129505,11.53065914,13.52353119,16.78542678,15.13421866,13.95153495,13.1846932,9.37660249,0.276970043,0.589690475,0.985132406,1,1,1,0.993019959,0.931831119,42.45408625,-81.8816065,2015,ONH2
TX714/TX779,GAH2_2019,Y,11.95,738.8443243,0,1.5,251.5,120.5,59.5,62,1.545000002,4.557500124,0.250380961,1.26115813,2.257142884,9.485350662,1.336144097,0.813952387,3.350460841,49.44000006,36.46000099,3.755714417,38.36428595,2.257142884,98.62571442,36.52428579,4.78428575,103.8642861,18.18435833,18.19265985,22.8847832,21.24247432,23.3434718,16.19739035,20.40643492,19.78647718,19.94823177,21.36937484,23.13125002,27.34691779,30.77499698,32.53285762,28.60028574,32.70957317,33.58714258,33.18838734,7.029687526,9.771250069,11.28150206,17.20030934,17.5714283,19.08651926,20.35438482,22.40104739,20.7990781,8.377064876,9.945548605,12.20340126,16.01551644,17.09277291,15.89283108,18.47046504,19.81563867,18.90725155,0.94271205,0.94334821,1,1,1,1,1,1,33.7204165,-83.308125,2019,GAH2
PHP02/PHB47,WIH2_2017,Y,20.1,760.0828806,0,2,252.5,112,73,73,5.048709616,4.636666616,1.142383575,5.763857885,8.001590729,6.160048604,1.607776433,1.167726513,2.257555268,156.5099981,41.72999954,17.5799998,219.3963643,12.14409065,74.04090792,72.28863683,15.04409093,68.0204557,18.1690344,19.72049554,20.64727683,20.23287988,19.13163679,19.37493243,18.51401576,14.93340477,10.89478233,16.03129027,21.86555545,22.15746071,26.59689143,27.90045501,26.76799254,24.73062069,22.38533393,20.51274781,3.24419354,8.791111098,9.553497601,14.54337319,16.81037892,15.37831158,12.19271258,9.193202486,7.868866577,5.438218202,9.209131236,9.451203107,13.05708411,14.51682301,13.37610723,11.31306373,9.686333754,8.853113959,0.624158991,0.847976183,0.950288768,1,1,0.998699911,0.954544862,0.834596302,43.3246415,-89.33688775,2017,WIH2
B73/PHZ51,NYS1_2020,Y,16.4,733.6955833,0,2.5,288,138,66.5,67,4.422257993,0,1.465106888,3.112730419,5.226388772,3.791500035,2.252145842,1.205606062,2.258500008,137.0899978,0,18.69000064,111.7083327,11.12166643,40.23500037,81.04333365,12.37166667,67.75500025,20.93932216,21.78258165,21.50902141,20.73125831,19.36904918,18.75308368,18.06102422,15.18229782,12.07034185,14.51129027,27.91833337,23.80048522,27.65661692,28.12555557,28.75518193,26.95460769,22.41267031,19.20822226,2.574516131,15.64333328,11.50500006,15.28648379,16.42583349,17.59142435,15.02631586,10.71009203,7.777611178,4.955392842,14.00347271,10.82536169,13.9247866,14.40689442,15.2259098,13.37336426,9.961154016,7.871549184,0.467914747,1,0.970676975,0.994134504,1,0.998779762,0.945742115,0.836474207,42.7322645,-76.651743,2020,NYS1
B14A/H95,TXH1_2019,Y,10.65,848.8986618,0,0,179,63.5,70,69,1.71448275,0.072857141,3.656594302,9.095434564,0.409285716,1.207678571,5.355850783,1.246142852,1.574419343,49.71999974,0.50999999,52.00785631,328.2121388,0.592857139,9.661428571,146.4478573,6.531428533,47.51499965,15.42805705,20.52131135,18.76898834,18.57032559,21.42349659,18.85281525,20.14881361,21.03072751,19.84089234,18.45000007,25.76428577,24.43254944,27.27586732,31.09000002,32.37866099,32.72435205,34.04471448,34.98200776,6.826206914,10.35000004,10.67963154,14.78766739,18.65857179,21.85071427,21.02442735,21.79614282,22.6049739,7.457816468,11.1589152,10.85119479,13.46630403,16.91193677,19.11412105,18.84765314,19.77807102,20.01419559,0.749667494,1,0.945308164,1,1,1,1,0.999698925,30.546318,-96.4329965,2019,TXH1
B37/H95,MIH1_2019,N,27.3,711.8134344,14,22,235,131,72.5,71.5,3.720322615,6.189999878,7.0818969,2.961916884,8.70871786,0.913986013,1.817216317,4.468053866,4.013250907,115.3300011,49.51999903,106.8900002,93.8269235,16.81999984,10.80615383,84.36076873,63.3192304,120.886153,19.31986936,19.65939665,18.51979106,21.00444556,17.01540622,20.04742627,16.96863927,12.02893287,10.87568864,17.60709666,21.67250037,22.690749,28.9340566,30.56538516,27.94921954,26.00654686,21.50260694,17.46530245,6.210322559,10.31875008,12.21847794,16.86604701,18.743333,15.85306519,14.00590995,11.32576155,7.161163464,6.876773896,9.314382636,10.39761731,15.10453275,16.86261297,14.19391073,12.58553183,10.00606366,7.511656803,0.696382483,1,0.995173883,1,1,0.988904737,0.895422602,0.709438731,42.70789125,-84.4706665,2019,MIH1
PHW52/PHN82,NEH4_2017,N,15.6,783.8958075,11,4,174,42,65,64,4.590322548,9.024000108,0.479867887,3.811963874,0.538484848,1.684924238,2.267850047,4.65714279,3.86350146,142.299999,90.24000108,5.110000134,117.465454,1.615454544,15.13454541,79.63181698,32.59999953,117.4254543,19.43913734,17.21531701,24.1724839,20.95919975,19.50871722,19.21508163,18.90739129,17.69743939,15.39985704,20.62225799,19.52599983,28.59420128,30.06742287,31.22545445,32.42712118,28.61649727,28.47933405,26.83248677,7.519354824,9.509000063,13.57084537,16.75424147,19.44181835,20.40977276,17.16375472,15.74751643,13.71007622,8.50655754,8.450389052,13.62685976,15.58817353,17.34314748,18.36849178,14.97842881,14.34457974,12.87682879,0.797626729,0.881249991,1,1,1,1,1,0.994264069,41.162,-96.409,2017,NEH4
PHW52/PHN82,NEH2_2015,N,15.05,754.2905471,0,0,229,110,90,90,1.358750008,3.755999994,3.031264216,1.286090902,0.286666671,1.657187527,3.751759362,0.157499999,0.616713691,43.48000026,37.55999994,66.29000026,43.49999976,0.860000014,16.57187527,117.6431233,0.944999993,18.99062441,19.53783247,19.98656282,18.8528682,23.65152674,23.21232343,22.7312118,19.62767813,21.61948185,18.20728239,15.03874992,23.15200024,18.66927583,30.14561768,32.37510385,32.60862507,30.36489819,32.31320816,28.31448706,-2.426562488,5.230999994,5.264051067,13.5723423,16.5714581,16.13087479,15.9646131,15.56819047,11.19634675,4.192485347,8.478296732,6.894904354,14.37610508,16.560328,16.47008009,15.3434088,16.05261291,12.83173005,0.519497764,0.97653572,0.809891265,1,1,1,1,0.922021698,41.0514495,-100.7471915,2015,NEH2
B73/TX779,GAH1_2018,N,15.15,647.5185319,0,2,217.5,115,62,61.5,4.231249915,1.934999943,5.575464231,3.801027214,1.067857163,3.256190501,3.932246866,3.816857059,2.685023025,135.3999973,11.60999966,76.79571342,135.0185695,1.516428607,29.30571451,107.1921429,19.08428529,83.23571379,16.89130574,18.83037901,19.9789379,20.32622599,17.16636637,17.47509449,19.98058203,18.77657547,18.35496912,25.6268748,28.56500022,25.46428012,27.96417186,30.5753573,30.54857133,31.9994497,33.07128549,33.68336431,12.70062498,14.46999963,11.35988473,14.27301998,20.47928579,20.42444427,20.68398901,21.82542842,22.30905548,11.99291119,13.91639365,11.33534042,13.63652225,17.52732154,17.4865078,18.33967815,19.36985553,19.8838857,0.988973219,1,1,1,1,1,1,1,31.50582525,-83.55515025,2018,GAH1
TX714/PHZ51,WIH2_2020,N,25.85,731.1212129,10,0,302,173,74.5,73,1.142258063,7.375000167,3.772605813,4.528143625,15.91411821,3.015240613,2.848395651,6.559665308,3.073983535,35.40999997,73.75000167,42.96999988,163.850588,31.01764819,33.16764674,117.7699986,59.84176376,94.45823468,20.73953056,16.04352899,21.23354675,21.58093245,19.01370295,17.88573252,19.32013515,13.57540027,12.27254504,13.56999995,18.91099977,26.0938683,28.2322475,29.46647072,27.75422455,27.09322103,24.80509675,19.00189054,0.762580661,9.396999884,13.99892158,14.99589118,17.7452939,17.49807463,14.22893102,13.29211059,7.459399134,4.176897214,8.107987139,12.68677404,14.02444379,15.66411489,14.70790633,13.20588953,12.26960615,7.833960257,0.443168195,0.881928567,1,1,1,0.990384734,0.880973437,0.780679991,43.294786,-89.383968,2020,WIH2
PHN11_PHW65_0323/LH195,ILH1_2018,Y,16.85,748.4982135,0,2,225.25,102.25,61.25,59.25,4.93870967,7.677000022,2.588106254,5.605117571,0.281428576,3.456349163,4.202656593,1.004543384,2.183824858,153.0999998,76.77000022,33.4678576,176.7721435,0.281428576,32.73642816,135.7042854,6.586428666,67.2342849,18.91812334,19.3164753,20.10278531,22.12028957,18.91592986,20.16297878,19.11980649,19.09856314,16.2127272,15.99580652,18.50399971,25.32625123,29.19453127,30.85535676,31.83740471,28.20358558,28.86124239,26.43877647,3.618387117,7.573000085,14.94700907,16.75211974,20.46500043,20.0205478,17.14982155,16.71822788,13.95248539,5.629456993,7.587936205,12.64486739,15.17263993,17.66017859,17.94105007,14.82889519,14.97382886,12.85823928,0.640783421,0.72660713,1,1,1,1,1,0.984431123,40.06300125,-88.2291765,2018,ILH1
LH74/PHN82,TXH2_2019,N,10.905,795.5641416,0,0,173,62.5,67.5,68,1.71448275,0.072857141,3.656594302,9.095434564,0.409285716,1.207678571,5.355850783,1.246142852,1.574419343,49.71999974,0.50999999,52.00785631,328.2121388,0.592857139,9.661428571,146.4478573,6.531428533,47.51499965,15.42805705,20.52131135,18.76898834,18.57032559,21.42349659,18.85281525,20.14881361,21.03072751,19.84089234,18.45000007,25.76428577,24.43254944,27.27586732,31.09000002,32.37866099,32.72435205,34.04471448,34.98200776,6.826206914,10.35000004,10.67963154,14.78766739,18.65857179,21.85071427,21.02442735,21.79614282,22.6049739,7.457816468,11.1589152,10.85119479,13.46630403,16.91193677,19.11412105,18.84765314,19.77807102,20.01419559,0.749667494,1,0.945308164,1,1,1,1,0.999698925,30.546318,-96.4329965,2019,TXH2
CG44/CGR01,MNH1_2020,Y,16.65,753.6469545,0,0,226,102,61,59,0.943005099,6.546073051,4.140359128,4.707487639,0.452236841,2.543512757,5.928901117,4.270615044,2.501087783,29.23315806,64.90105435,50.61684199,155.384737,0.714736844,28.61736839,219.2994748,34.34473765,76.93105461,20.83516212,15.73399946,19.74828467,20.97522671,19.78574355,20.20086134,18.41063051,15.8353279,12.84776632,15.708455,18.53155205,25.82840423,28.49526052,29.92499944,28.21992409,26.52185226,25.93987928,19.74067922,2.261239378,9.186207707,13.99244036,16.68286788,19.34447405,16.90528318,15.09377646,14.30914312,8.593217323,5.370680578,7.953384306,12.46596379,14.77865871,16.66236577,14.75116185,13.25288188,13.01752467,8.666130292,0.622613994,0.838417993,1,1,1,0.988450437,0.93066422,0.780758993,44.06907839,-93.53263028,2020,MNH1
LH82/PHB47,MNH1_2018,Y,19.575,719.5365458,0,2,230,102.5,59,57.5,2.793871032,5.664285694,1.881383508,4.66962568,0.280777779,5.314848416,5.503097756,4.902593174,1.744490341,86.61000198,39.64999986,19.66333312,156.0266671,0.653333338,61.18466587,207.3246693,42.5680015,52.61600056,18.68617175,18.6483766,23.22190313,20.23498137,21.88409551,21.20453879,17.43849101,14.02805899,11.47763682,18.24580648,23.51142883,30.49568208,28.40295697,27.67288871,27.88288382,26.24424925,23.489937,17.2954947,6.62290317,13.35285704,16.1020056,17.07111629,16.25377796,15.7901465,14.83515609,12.42970144,6.347470975,7.12789267,11.15082684,15.42136783,14.91719499,14.1582049,14.10491894,13.08066536,11.20324133,7.126560519,0.79756912,1,1,1,1,0.978734696,0.910102722,0.699884152,44.07044721,-93.53494127,2018,MNH1
PHW52/PHM49,IAH2_2019,Y,23.2,712.457027,2.5,0,224.5,112.5,65,64,1.624999978,4.994666719,7.633826981,4.023414549,10.53523836,1.22350002,2.763567443,7.261517829,4.773321835,51.99999928,74.92000079,126.7292866,144.3807149,31.60571507,12.2350002,103.2057142,58.23357121,145.3535721,19.40078695,15.59915857,17.73377221,20.37141966,18.69170743,21.11460887,19.04896103,16.46108124,13.94542613,15.78031255,14.78666655,21.30773964,26.90560141,30.4667857,29.3667858,27.70213024,26.0789087,24.69893011,1.823749996,4.276000045,9.222208134,15.06467224,19.71440506,18.17542877,16.74212177,15.32632928,13.45358666,5.188982368,5.371381143,9.150668224,13.41851256,17.10626668,15.79657396,14.44283917,13.04517908,11.92357614,0.546495539,0.532857125,0.866155154,0.998157434,1,1,1,0.956872449,42.06583499,-94.72067796,2019,IAH2
B37/MO17,NCH1_2016,N,14.25,731.1212129,12.5,5,227,128,65,64,2.901562452,3.125714166,7.137907935,4.683034439,4.3177271,0.863030289,5.226283407,5.104181825,4.507668668,92.84999847,21.87999916,91.86318315,160.7736342,8.497726928,8.495454409,139.9318182,26.12772732,139.7377287,16.36857818,22.27138465,15.49498623,18.72849078,21.8793198,21.8664799,18.529992,18.05675722,17.32656161,20.86125001,25.58571407,25.68946269,27.1054564,30.20318166,31.0559697,32.42423852,33.59766701,33.26035177,7.692187494,8.212857212,14.27003911,16.07300028,18.02681784,18.80169681,21.2796372,22.62190931,22.7218182,8.383421821,10.43985322,12.46468669,13.95599298,16.17160042,16.99727481,18.83160592,19.980567,19.86697781,0.913761163,1,1,1,1,1,1,1,35.30015175,-77.57127825,2016,NCH1
LH74/PHN82,MNH1_2016,Y,21.9,731.1212129,0,2,229,110,68.5,66.5,2.893225764,0.170000008,5.030425272,6.121705224,6.438583227,6.210954471,8.179238718,7.617170889,9.394742846,89.68999869,1.190000057,67.79499967,212.8530004,13.67999972,65.11499918,295.599999,62.20750045,287.315495,17.89673604,26.28611401,18.122652,20.29948324,15.80941307,17.87578139,16.93568638,15.29315111,12.15008877,17.5148386,25.45428576,24.53269911,27.63337014,28.14450006,28.70269129,27.15887183,24.8505404,22.53032632,6.338387108,9.824285678,13.68155402,15.81410535,17.82425013,18.42635015,16.92976579,13.57123889,11.50456607,6.871134867,10.90204251,11.6566452,13.98369248,15.05511886,15.68076391,14.22086787,11.86153057,10.26982602,0.734527645,1,1,1,1,0.999952477,0.98729881,0.936092645,44.06646925,-93.533648,2016,MNH1
PHW52/PHM49,GAH1_2015,N,15.3,828.9472906,0,0.5,175,80,63,61,4.231249915,0,5.95843649,3.852603143,2.594000032,2.429925956,4.217759372,2.225466652,2.667397826,135.3999973,0,82.56599903,137.5619979,4.851333332,21.8693336,117.5779999,11.12733326,82.68933261,16.59936112,21.58269278,19.11661296,20.61616366,14.5260024,17.86473659,19.792993,19.1551459,18.46432438,25.43281227,26.81500022,26.00854227,27.82657943,29.9603331,30.57562955,31.8228303,33.58693334,33.75221527,12.50374998,10.5999999,12.24448314,13.90452364,20.76811106,20.25348139,20.64254904,22.17719986,22.29090342,11.85447967,11.72664631,11.94062668,13.41492991,17.36422208,17.41455547,18.23714923,19.83066815,19.89653894,0.988973219,1,1,1,1,1,1,1,31.505771,-83.555095,2015,GAH1
B73/PHM49,NEH4_2015,N,15.1,785.8265853,0,2,235,125,65,58.5,2.821875036,0,3.668207424,2.0125769,1.951249957,2.654893884,1.684158262,0.190010425,1.166079967,90.30000114,0,33.89000034,59.04687595,1.951249957,28.04999942,59.1787506,1.401875056,35.09749981,18.84220009,27.31064491,20.41342533,20.52862815,19.03072298,18.81303122,18.33826559,17.15407273,12.68489203,24.01437524,30.79399948,29.66091772,30.90712841,30.81250072,28.65153035,29.50292414,26.73776808,20.93262179,13.35843744,15.59799976,18.4981335,19.26878801,20.26031268,17.34358901,16.24316685,11.04417556,7.09840123,11.80342709,15.44887437,16.14310254,17.09436255,17.53736601,15.18702607,15.25106182,11.88303257,8.618375536,0.931774556,1,1,1,1,0.97284651,0.984144349,0.784438609,41.16732275,-96.41663225,2015,NEH4
LH195/PHZ51,GAH1_2015,N,14.2,765.8752142,0,5.5,190,95,62,62,4.231249915,0,5.95843649,3.852603143,2.594000032,2.429925956,4.217759372,2.225466652,2.667397826,135.3999973,0,82.56599903,137.5619979,4.851333332,21.8693336,117.5779999,11.12733326,82.68933261,16.59936112,21.58269278,19.11661296,20.61616366,14.5260024,17.86473659,19.792993,19.1551459,18.46432438,25.43281227,26.81500022,26.00854227,27.82657943,29.9603331,30.57562955,31.8228303,33.58693334,33.75221527,12.50374998,10.5999999,12.24448314,13.90452364,20.76811106,20.25348139,20.64254904,22.17719986,22.29090342,11.85447967,11.72664631,11.94062668,13.41492991,17.36422208,17.41455547,18.23714923,19.83066815,19.89653894,0.988973219,1,1,1,1,1,1,1,31.505771,-83.555095,2015,GAH1
B14A/MO17,ONH1_2015,Y,35.4,678.3466183,0,0,260,150,87,87,1.605625002,2.296315821,1.411426091,1.973297954,0.512941169,3.436769168,2.641035405,1.799953816,2.360571209,51.38000005,43.63000059,20.30117703,73.50294104,0.81882352,40.73352947,103.9364728,19.58470627,71.14882509,18.02169462,20.4737019,23.34007091,22.64543997,20.24065375,18.07254412,18.60447299,14.22755231,12.21920895,9.771562532,12.63473691,23.7578119,26.83441686,29.90941261,27.46928249,26.11972075,22.82201755,18.35250846,-0.327500018,2.045263152,11.01347606,13.31919887,17.43313718,16.50329302,14.06775752,11.69572195,7.013714688,2.851211725,4.201400589,10.67713105,12.77399982,15.76589753,14.15032606,12.63577386,10.48249806,7.379159901,0.167098218,0.403345874,0.957007131,0.991950294,1,0.994472794,0.939113043,0.772366561,43.49741975,-80.44806025,2015,ONH1
PB80/PHZ51,NYH3_2015,N,19.93333333,731.1212129,0,3.666666667,227.6666667,121.3333333,81.33333333,80.33333333,4.268387075,0,1.234803629,3.315485905,3.744705864,3.708743319,2.034738589,2.091907533,2.160160663,132.3199993,0,17.66999944,111.4647067,9.843529393,38.42352946,75.35117763,21.49235322,65.37235311,20.95885717,21.76160183,22.01003167,20.47654391,19.37507164,18.84800849,18.09954582,14.25866518,12.17165493,15.21516129,28.41399994,23.9726608,27.94852153,28.22411762,29.00645443,26.88612691,22.65429039,19.02039094,3.206451565,16.00799999,11.62235867,15.61032629,16.7502941,17.72633694,14.88804443,11.60832066,7.356588233,5.349626667,14.38734971,10.95773449,14.17183136,14.61937489,15.41213998,13.31670354,10.34569698,7.707711279,0.504331792,1,0.97267375,0.996219796,1,0.995345527,0.95775528,0.812032548,42.7233625,-76.6555945,2015,NYH3
PHN11_PHW65_0323/LH195,GAH1_2016,N,17.25,753.6469545,0,2,180,85,62,61,6.466250051,4.395000041,0.566421492,2.549627568,3.17469698,5.859943136,4.096967014,2.330999996,2.476261007,206.9200016,35.16000032,6.21000006,86.0200003,9.52409094,52.42727233,105.6731797,11.65499998,76.76409122,15.95696127,18.25385642,20.33100053,20.74024209,20.01064868,19.54302735,19.38198769,19.26953352,18.21451922,23.62687498,22.98249984,28.56134937,29.4983659,33.37075638,32.62719045,33.25026907,34.51499955,33.94928126,11.29749997,10.47000009,15.64744728,16.2846205,20.78287862,20.61269551,21.56927107,22.51809092,22.40467728,10.53971422,9.962440438,14.36481163,15.11313475,19.02952924,18.56859265,19.26668195,20.34390963,19.99415841,0.993928569,1,1,1,1,1,1,1,31.5079175,-83.55854775,2016,GAH1
B73/PHZ51,IAH3_2015,Y,17.75,734.9827686,0,13,283.5,151,65,64,1.888124991,2.913571392,3.784813995,6.971928843,0,3.257500064,1.487385228,2.541446469,4.507444947,60.41999972,40.78999949,55.43999982,241.6600003,0,32.57500064,50.31437471,24.68500039,138.7756267,19.80172794,20.03998334,15.9141292,20.68283491,21.69136486,21.24428636,20.63784564,18.68301758,14.92198489,14.64187506,16.6814285,21.6371088,27.61372247,30.87885427,30.3035625,28.596254,28.51656267,24.33389908,0.83250004,3.600714236,12.24542872,16.05178152,19.47364565,18.11006255,15.99319583,14.30373217,10.64901215,4.605131548,5.787499831,10.11465775,14.1164012,17.17624996,16.25391669,14.57670766,13.97583386,10.87542788,0.501462055,0.634540813,0.981270753,1,1,1,0.968879463,0.933929792,41.97585629,-92.24291804,2015,IAH3
B37/OH43,ONH1_2015,Y,34.1,700.2287673,0,0,255,140,85,85,1.605625002,2.296315821,1.411426091,1.973297954,0.512941169,3.436769168,2.641035405,1.799953816,2.360571209,51.38000005,43.63000059,20.30117703,73.50294104,0.81882352,40.73352947,103.9364728,19.58470627,71.14882509,18.02169462,20.4737019,23.34007091,22.64543997,20.24065375,18.07254412,18.60447299,14.22755231,12.21920895,9.771562532,12.63473691,23.7578119,26.83441686,29.90941261,27.46928249,26.11972075,22.82201755,18.35250846,-0.327500018,2.045263152,11.01347606,13.31919887,17.43313718,16.50329302,14.06775752,11.69572195,7.013714688,2.851211725,4.201400589,10.67713105,12.77399982,15.76589753,14.15032606,12.63577386,10.48249806,7.379159901,0.167098218,0.403345874,0.957007131,0.991950294,1,0.994472794,0.939113043,0.772366561,43.49741975,-80.44806025,2015,ONH1
LH212HT/LH195,ARH2_2017,N,15.1,731.1212129,0,2,177,99,67,60,2.789999995,15.83285686,4.776016413,2.853949028,1.142500003,5.651818152,3.905948255,2.4430325,4.688621725,89.27999985,110.829998,61.6427269,88.95863769,3.003181826,52.42863608,105.2449988,13.33772746,145.3472735,17.14489296,19.09436907,20.93439511,19.65670258,19.84409681,19.1211903,18.81176407,19.65259997,17.546866,23.65656266,24.55142866,25.38541455,28.9612549,32.40098458,30.84565692,31.84241473,32.83627249,30.20087953,12.07343751,12.16142872,12.7110645,18.0477898,21.78734854,20.24410098,21.87781566,22.25639174,20.26112908,10.83878158,11.22094165,11.88579938,15.62584547,19.09416656,17.54487895,18.8103181,19.27693671,17.25265116,0.991674107,1,0.97315368,1,1,1,1,1,35.67418125,-90.0752695,2017,ARH2
B14A/MO17,MOH1_2_2020,N,17.7,731.1212129,0.2,0.4,243.2,108,56,54.8,2.765624954,8.119999743,10.23533287,1.900197364,6.862941181,7.496322061,3.61617108,2.901626778,3.303786197,88.49999854,40.59999871,96.12411712,56.39411764,8.455882353,68.01117661,117.8082348,21.52705885,101.3270584,18.75466287,21.25211372,22.58999711,20.28617166,20.64270943,17.48834951,18.15902921,17.2011884,14.69335169,22.18656257,30.76999931,28.84882905,30.74339714,30.90558787,31.2308437,28.74780649,29.21697892,24.17436303,12.23093753,19.21800041,17.30516703,20.0610583,19.70343171,21.50444419,18.15153395,17.40346693,12.7162556,10.41798935,16.99399986,15.18178367,17.42227064,17.30450979,18.37429674,15.5665539,15.53509051,11.41105442,0.936383936,1,1,1,1,1,0.996694042,0.965786214,38.8958275,-92.2071575,2020,MOH1
B73/TX779,IAH2_2017,Y,21.75,704.090323,0,9.5,241,135,65,64,2.991935476,4.003749907,5.594154361,1.824159742,2.965909053,1.138616173,3.544395797,5.525860929,3.224964342,92.74999976,32.02999926,86.83999968,64.74363607,5.880909015,11.03545466,133.6850016,39.36636487,98.02272796,18.91811151,22.03083944,18.39067038,21.91300981,21.59707026,21.00058551,18.76246256,16.50136756,14.56336975,16.70258062,25.25375009,21.16444029,28.78792803,31.34295403,31.03890899,27.79230679,26.54138994,25.01808603,3.836129038,9.060000002,9.836484062,14.72352594,17.1804546,18.00485339,15.61890002,13.9478747,12.25710857,5.884356407,10.52058178,9.325556586,14.19611432,16.29393371,16.57150033,14.05801276,12.73803514,11.57992501,0.659274195,1,0.882113053,1,1,1,1,0.976890029,42.06582876,-94.72050129,2017,IAH2
B73/PHZ51,MOH1_2015,N,13.95,731.1212129,0.5,4.5,242.5,115,76.5,74,3.914838722,3.002727248,2.7038834,5.646226268,2.268750012,1.183333344,4.736744086,1.740401796,3.666491943,121.3600004,33.02999973,34.41999933,178.8712478,5.868750036,10.6500001,140.2618746,11.88312507,113.6612502,18.81846694,18.88703156,16.92919735,21.70591481,15.72154266,19.94530069,18.47422179,20.12873028,17.02653892,18.28451609,18.00181831,23.77805456,28.93028285,29.85593748,31.76118019,30.42140763,28.58050013,28.43143147,5.857096827,7.500000065,15.21487777,17.6487962,21.67281234,21.45979159,20.28182538,17.09899995,17.28669369,7.068544315,7.302193139,11.97142579,15.39796361,17.76437491,18.61048589,17.380694,14.99182695,15.05317439,0.723283405,0.814935086,1,1,1,1,1,1,38.8965375,-92.20800417,2015,MOH1
B14A/OH43,ILH1_2018,Y,15.4,722.7545088,0,2,220,102,58,55.5,4.93870967,7.677000022,2.588106254,5.605117571,0.281428576,3.456349163,4.202656593,1.004543384,2.183824858,153.0999998,76.77000022,33.4678576,176.7721435,0.281428576,32.73642816,135.7042854,6.586428666,67.2342849,18.91812334,19.3164753,20.10278531,22.12028957,18.91592986,20.16297878,19.11980649,19.09856314,16.2127272,15.99580652,18.50399971,25.32625123,29.19453127,30.85535676,31.83740471,28.20358558,28.86124239,26.43877647,3.618387117,7.573000085,14.94700907,16.75211974,20.46500043,20.0205478,17.14982155,16.71822788,13.95248539,5.629456993,7.587936205,12.64486739,15.17263993,17.66017859,17.94105007,14.82889519,14.97382886,12.85823928,0.640783421,0.72660713,1,1,1,1,1,0.984431123,40.06300125,-88.2291765,2018,ILH1
PHW52/PHN82,TXH3_2019,Y,11.055,801.3114237,0,0,203.5,61,69.5,70,1.71448275,0.072857141,3.656594302,9.095434564,0.409285716,1.207678571,5.355850783,1.246142852,1.574419343,49.71999974,0.50999999,52.00785631,328.2121388,0.592857139,9.661428571,146.4478573,6.531428533,47.51499965,15.42805705,20.52131135,18.76898834,18.57032559,21.42349659,18.85281525,20.14881361,21.03072751,19.84089234,18.45000007,25.76428577,24.43254944,27.27586732,31.09000002,32.37866099,32.72435205,34.04471448,34.98200776,6.826206914,10.35000004,10.67963154,14.78766739,18.65857179,21.85071427,21.02442735,21.79614282,22.6049739,7.457816468,11.1589152,10.85119479,13.46630403,16.91193677,19.11412105,18.84765314,19.77807102,20.01419559,0.749667494,1,0.945308164,1,1,1,1,0.999698925,30.546318,-96.4329965,2019,TXH3
PHN11_OH43_0001/PHB47,OHH1_2015,N,13.2,734.9827686,0,0,249,112,60,62,4.820000016,2.056666652,1.801667061,2.430255425,2.070588264,2.75488235,3.664772063,1.623969288,1.874022108,149.4200005,12.33999991,20.27235275,82.00588303,2.23529414,26.29176468,128.0200007,12.16764697,57.18411674,17.71339239,20.831882,20.85048625,20.93566426,20.28419298,19.59839119,17.66236547,17.23782846,14.83481447,16.95064511,28.03666687,26.64173705,29.01382079,31.07970569,30.59522857,27.99762273,26.69097183,23.34659959,5.9283871,15.42166694,14.66308043,16.74801267,19.23764672,18.74322206,16.69895781,13.90980629,10.26308727,6.580773377,14.04730329,13.19467995,15.08203889,17.16864649,16.69143216,14.53513226,12.92347397,10.29932856,0.672569122,1,1,1,1,1,0.994932126,0.947361455,39.855785,-83.66477375,2015,OHH1
PHG80/PHZ51,MNH1_2016,Y,24.45,731.1212129,0,2,229,110,74.5,71.5,2.893225764,0.170000008,5.030425272,6.121705224,6.438583227,6.210954471,8.179238718,7.617170889,9.394742846,89.68999869,1.190000057,67.79499967,212.8530004,13.67999972,65.11499918,295.599999,62.20750045,287.315495,17.89673604,26.28611401,18.122652,20.29948324,15.80941307,17.87578139,16.93568638,15.29315111,12.15008877,17.5148386,25.45428576,24.53269911,27.63337014,28.14450006,28.70269129,27.15887183,24.8505404,22.53032632,6.338387108,9.824285678,13.68155402,15.81410535,17.82425013,18.42635015,16.92976579,13.57123889,11.50456607,6.871134867,10.90204251,11.6566452,13.98369248,15.05511886,15.68076391,14.22086787,11.86153057,10.26982602,0.734527645,1,1,1,1,0.999952477,0.98729881,0.936092645,44.06646925,-93.533648,2016,MNH1
PHN11_PHW65_0323/LH195,SCH1_2019,N,15.14,731.1212129,0,2,182.88,63.5,56,57,3.522580645,3.026666641,1.832071666,3.15534991,1.497023807,2.439880971,1.838213127,1.715047598,2.162465429,109.2,18.15999985,19.94999987,97.87357193,2.846428582,21.92714303,50.9164284,9.481428444,67.0364283,18.2238054,19.24788825,19.83816148,19.9388592,17.79349522,20.88775084,19.93011295,20.19525604,17.6553152,24.08129043,27.55666669,26.86360264,30.30302253,30.15095266,31.81823454,32.87501498,31.84457125,32.33357145,10.7222581,15.88833332,14.78977791,18.33498627,20.49666657,19.48954379,21.18366564,19.1694286,20.16504603,10.62715993,13.88239503,13.27455789,16.3672742,17.32380961,17.64580353,19.00989067,17.48787314,18.15917061,0.967315668,1,1,1,1,1,1,1,34.62248225,-82.73756775,2019,SCH1
B73/PHN82,ILH1_2016,N,14,758.1521028,0,2,269,122,72.5,71,2.976905237,4.388409027,2.266536067,5.61207631,2.384848472,3.596551307,3.312350719,4.357499975,4.793790319,93.71999985,46.35499933,33.46068128,180.4177266,4.628863606,41.73386359,104.1413657,28.32431801,148.2020453,18.82488241,16.77241452,21.32061235,20.18653607,20.74234538,18.07981042,18.8666989,17.85818253,16.07680721,18.05081144,19.20204525,23.0422997,29.42292662,27.90308728,26.97317812,29.60218573,29.15938829,28.17592877,4.960040295,8.531272602,10.4507586,17.10049505,15.99717794,16.84881478,19.41054858,18.84383108,17.09740687,6.781235125,7.969267807,10.17119166,15.41614171,14.29579798,14.15384892,16.51995977,16.04951253,14.84458937,0.666766271,0.897956159,0.946860721,1,1,1,1,0.999883117,40.0607245,-88.2338815,2016,ILH1
B37/H95,MOH1_2_2018,Y,17.75,731.1212129,0,2,247.5,113.5,60.5,59,4.419032262,0.120000001,6.56660792,4.995913726,0,0.865952386,4.867908623,7.318145406,3.629241153,136.9900001,0.840000004,71.60142667,150.6285707,0,7.793571472,145.6157139,39.85928573,112.0157138,18.39395777,18.46565301,20.1607481,20.70593221,19.87326009,21.97749135,18.06982858,17.46468943,16.31914076,19.5254839,22.76714298,27.16554273,29.60936822,31.6271427,32.32420578,29.51628185,29.85375934,27.04843165,7.99741943,14.14714282,16.43732974,18.81172612,21.79964249,20.71007941,19.44316189,19.21155699,15.91814144,7.992986492,11.1555316,14.00535673,16.26359619,18.7133926,18.51714259,16.54699664,16.60044059,13.86670431,0.872361758,1,1,1,1,1,1,0.995607144,38.89555425,-92.20964575,2018,MOH1
B37/OH43,MNH1_2015,N,20.8,723.3981015,37,15,240,118,78,76,2.676451665,6.10285713,1.587216104,4.707726326,2.093823531,4.685775359,5.935015669,2.223261507,2.198788145,82.97000162,42.71999991,19.59000013,155.007059,3.965294123,52.23235247,227.0947085,20.90117698,67.40117758,19.81693462,15.87546921,21.62818458,20.65236193,17.21434565,21.12123323,17.7408483,14.5374504,12.06297535,17.43387093,22.63000025,27.28921799,28.46423671,28.36529418,28.07899716,26.14089523,24.73259507,17.90095705,4.567419307,13.73428563,14.30007362,16.89716897,18.65411764,16.19745995,14.75643511,13.57280729,6.634647692,6.2838161,10.87437977,13.26905608,14.87023808,15.64114514,14.35392043,12.99006372,12.46836687,7.55733068,0.722983866,1,1,1,1,0.977703003,0.878626049,0.721229646,44.07038575,-93.53519625,2015,MNH1
F42/H95,GAH1_2020,N,18.93,745.3446097,2.5,1.5,182.5,82.5,68,66.5,4.279687563,0,6.08243138,3.811420537,2.267976227,2.530000055,3.98378478,1.741833346,2.910207357,136.950002,0,84.37571335,135.9278565,4.833571502,22.77000049,107.9378566,9.115000069,90.21642806,16.61263859,21.5972875,19.10636237,20.72286693,14.54687945,18.15584731,20.08605453,19.68634889,18.27781732,25.37343752,26.77166684,25.94144379,27.77824619,29.55357116,30.6518255,31.78195276,33.48178532,33.56322575,12.43875006,10.55666669,12.19035929,13.80720781,20.58059497,20.26111097,20.57386992,21.96838095,22.25456222,11.80508215,11.69113274,11.88989525,13.35432975,17.06708306,17.45646823,18.17996521,19.67032327,19.80166763,0.988537947,1,1,1,1,1,1,1,31.5079775,-83.558517,2020,GAH1
B14A/MO17,WIH1_2020,N,23.65,657.1080619,1,0,281.5,158,76,74.5,1.598387111,6.507143004,4.413520471,5.455426438,9.576153682,6.848251811,1.847198819,1.302442385,3.233674973,49.55000043,91.10000205,54.05307698,191.9769218,14.76999958,75.33076992,75.52923148,17.19923096,99.29769339,20.3303612,17.70938441,19.63774696,21.71928057,19.47191414,18.08778093,19.52506722,17.02277317,12.74244368,13.80935484,15.78214281,24.71870171,28.0331271,31.3961547,28.17125902,26.95535567,26.2427393,20.06715065,1.332903252,5.150000061,13.25869882,14.90724568,18.80923077,17.63741262,14.66820073,13.00544381,8.429758508,4.404075426,5.920121855,11.73838603,13.88054584,17.12955683,14.95247276,13.30208011,12.63591888,8.588509069,0.46481566,0.623010193,1,1,1,0.987099279,0.934776512,0.808464704,43.05505505,-89.52853825,2020,WIH1
B14A/OH43,IAH1_2020,N,16.86666667,731.1212129,5.5,6.833333333,229,110,65,64,1.688064506,6.196000195,3.0793737,6.533057926,1.271428551,2.673269776,1.85421064,0.708456624,3.755616013,52.32999969,61.96000195,37.23499918,213.6221428,2.198571375,25.9085708,60.11785651,6.012142782,115.3728583,19.46953177,15.04660187,20.64247086,20.31598349,21.99207742,21.09552252,19.7297914,19.80455556,15.11692591,15.87290319,18.70700045,25.72176895,28.50674309,31.92999949,30.87921407,28.61147391,29.37327705,24.63079501,3.348387095,9.753000152,14.65929334,17.38633346,19.85714286,19.28849194,17.27261165,15.46819038,11.83183106,5.5584858,8.125456457,12.65757338,15.09801966,17.89357117,17.09078834,15.12121856,14.7539709,11.47694483,0.621440085,0.927035726,1,1,1,0.998514142,0.992713009,0.918334154,41.19774214,-91.48767072,2020,IAH1
B14A/MO17,WIH1_2019,Y,23.85,676.4158404,0,0,235.835,130,74.5,73.5,3.104193578,4.990909143,3.989206625,5.063632664,7.174102343,5.657788874,3.979490855,4.117971668,7.043559998,96.23000091,54.90000057,56.46538491,184.9676922,7.656153606,56.9199983,170.6046141,43.34153838,211.8461548,19.32800511,20.47989629,21.14585761,19.94081469,20.4834897,19.00171798,17.70480678,14.70759561,11.13260624,14.4303226,19.6027272,23.71186264,26.54399323,29.1737175,29.51828996,25.99775321,22.10125555,19.22207941,3.044193574,6.375454621,11.90649765,15.02653282,17.46782019,18.4264638,14.78313726,11.24849031,9.42963116,4.974875238,7.497369644,10.75801096,13.26663909,15.42227287,16.03343447,12.80151602,10.12875121,8.730340077,0.520449311,0.882272729,0.994529143,0.999440504,1,0.998245342,0.92932789,0.792629622,43.060857,-89.494068,2019,WIH1
W10001_0022/PHB47,IAH4_2017,Y,17.7,731.1212129,0,2,229,110,65,64,3.054193612,4.63857133,5.654282844,2.356146022,0.145000003,0.823262634,3.029939984,2.506485397,3.022032747,94.68000197,32.46999931,92.55000019,79.81000018,0.290000005,7.931363713,110.0431818,17.65818187,91.79227275,19.60434628,22.37855189,18.81628808,21.46940114,22.42332305,21.26952374,19.1513695,15.94205759,15.34138578,17.83935482,25.21428544,21.76755785,28.88340452,30.88984893,30.99338411,28.30609907,26.26622464,25.93438806,4.952580655,10.13999993,10.24708413,15.02150207,17.47128796,18.07608078,15.80662465,13.87026602,12.51354651,6.575243948,10.82301274,9.649960621,14.3656457,16.22810104,16.57398155,14.36597852,12.57546566,12.06214068,0.727396317,1,0.910082199,1,1,1,1,0.987168831,41.99455432,-93.69030947,2017,IAH4
B14A/OH43,WIH1_2017,Y,21.05,651.3157284,0,2,257.5,124.5,76,76,3.894838602,1.694000003,3.49156578,6.251914317,26.29780264,12.3515148,1.782621048,1.031219451,2.019413967,120.7399967,16.94000003,60.77000046,238.2086357,55.48409002,148.2181776,77.27181808,11.13545426,60.74545419,17.96009764,21.56986256,18.71582301,20.73316127,19.69440102,19.58726141,19.1692292,15.69151392,12.21998586,16.03451621,20.2119998,20.22998088,26.71060266,27.00553033,27.16428033,24.80808837,24.03641879,21.845045,3.37838715,6.260000002,9.268565708,14.6662765,15.35575767,16.21109857,13.17589581,11.52521119,9.509429623,5.507434962,7.720411242,8.664602637,13.14891279,13.46068042,13.9043846,11.67856357,10.90146065,9.608265423,0.606900932,0.8735357,0.867893568,1,1,0.998220242,0.971647403,0.89569217,43.05668125,-89.5308135,2017,WIH1
LH82/PHB47,NEH4_2017,N,14.1,808.9959195,12,3,105,47,65,64,4.590322548,9.024000108,0.479867887,3.811963874,0.538484848,1.684924238,2.267850047,4.65714279,3.86350146,142.299999,90.24000108,5.110000134,117.465454,1.615454544,15.13454541,79.63181698,32.59999953,117.4254543,19.43913734,17.21531701,24.1724839,20.95919975,19.50871722,19.21508163,18.90739129,17.69743939,15.39985704,20.62225799,19.52599983,28.59420128,30.06742287,31.22545445,32.42712118,28.61649727,28.47933405,26.83248677,7.519354824,9.509000063,13.57084537,16.75424147,19.44181835,20.40977276,17.16375472,15.74751643,13.71007622,8.50655754,8.450389052,13.62685976,15.58817353,17.34314748,18.36849178,14.97842881,14.34457974,12.87682879,0.797626729,0.881249991,1,1,1,1,1,0.994264069,41.162,-96.409,2017,NEH4
B37/H95,NYH2_2015,N,17.95,731.1212129,0,8.5,234,110,84.5,84.5,3.814193487,2.822857129,1.806874641,1.427310218,14.28882354,6.323155046,2.553769654,1.263651931,1.70374005,118.2399981,39.5199998,23.5252947,50.99705838,17.86235295,65.18176435,90.43176518,10.71352917,51.74117684,19.21827184,21.58410556,20.44972798,21.8367517,17.34067749,18.34945618,18.49425604,17.55625849,13.84215422,11.26903224,15.86071418,24.70888252,27.12764594,29.5805878,28.55383422,27.75922879,25.11594081,20.73318661,0.676451599,3.065714287,12.68317757,14.19692254,19.48862723,17.66257776,16.12899413,12.03346763,8.797239788,3.458861152,5.522653893,11.65565145,13.2498794,16.56577659,15.18766176,14.16580901,11.53845799,8.731216192,0.261509218,0.568112238,0.971160735,0.994106254,1,0.999864887,0.980226591,0.898542131,42.7324825,-76.65277775,2015,NYH2
B73/PHZ51,DEH1_2015,Y,18.55,724.0416941,0,0,281.5,147,64,62.5,2.877187484,6.848000002,1.658122271,2.899811139,0.533124998,6.398055441,4.542065261,4.666333417,5.694818618,92.06999949,68.48000002,26.86312445,94.40374921,0.778750002,57.58249897,115.8581242,26.73625046,176.5393772,18.09789148,17.20138936,20.11151884,21.0089777,21.53492481,19.24730516,17.70191113,15.05628078,15.14846735,16.82656264,19.24400005,20.72376954,27.68890342,31.56656283,31.86354174,32.09465687,30.43364003,29.09395151,6.265937505,9.858999991,10.7453803,17.67876376,20.38750017,21.35659703,22.77220607,22.28250884,20.56647162,6.521960329,8.412914767,9.229957748,14.85993723,17.9770315,18.58170739,19.36170697,18.35807444,16.86736745,0.750435273,0.870857151,0.962682184,1,1,1,1,1,38.62935675,-75.4656925,2015,DEH1
CG60/LH162,NYH1_2017,N,16,731.1212129,0,1.5,199,89.25,65,64,4.758709581,4.139999986,2.953024942,5.715506232,4.320872878,2.701732063,2.616328443,1.022630585,3.614268439,147.519997,37.25999987,45.12618999,219.9223815,11.26857107,35.6957141,128.4247627,13.30476207,110.8900009,18.97444351,17.81005277,22.0763727,19.38397475,18.56141379,19.22534974,16.71382568,13.43506643,9.037548332,17.06967752,20.23333359,22.7745171,25.66488699,26.70396817,25.32691524,23.26007272,23.96840526,17.61119819,5.964193534,10.19,10.93717632,15.20362294,16.36293638,14.60656728,11.31793404,11.56685323,6.669544781,6.641127344,8.727253675,10.15270493,12.79474615,13.71935226,12.37567782,10.45035179,10.9124923,7.239151369,0.685760371,1,1,1,1,0.982493678,0.953634339,0.701363064,42.72880835,-76.6515625,2017,NYH1
CG44/CGR01,INH1_2019,Y,17.065,940.0957356,6,7,202.75,110.5,55,55,4.638124973,1.291666667,4.254883356,1.873002707,7.542143106,0.579848493,2.745608418,1.194209184,2.037834084,148.4199991,7.75,53.11714339,53.83785783,14.64785763,6.669285808,98.22214476,12.45785718,61.58714233,19.82387961,19.183822,19.33565513,20.5079362,16.64856858,22.30931036,17.46113557,15.79330395,12.43542766,23.34687504,26.15000025,24.44131608,31.06458042,27.9682139,28.43625549,27.60941131,25.59340811,22.91422815,11.29093746,15.88166634,14.27159151,19.40569109,18.2715475,15.1189393,15.69895629,13.38685715,10.33005226,10.62626718,13.2428989,11.86638398,17.27971266,15.26406297,14.09359416,13.93027737,12.23653025,10.46761426,0.918526784,1,1,1,1,0.999060374,0.966691327,0.86252861,40.477063,-87.00020175,2019,INH1
F42/MO17,NYH2_2020,N,13.85,742.70588,0.5,5.5,222.5,104.5,65.5,65.5,4.422257993,0,1.391731236,3.182357247,6.170888774,3.507901041,2.283490724,1.426918664,2.172175634,137.0899978,0,18.68266731,113.2706661,12.6093331,36.98266699,88.46933366,18.14666667,65.61600019,20.94267544,21.78244971,21.55666085,20.64321436,19.27786447,18.92984529,17.76882093,13.77968924,11.70490539,14.55447306,27.94977782,23.62933928,27.86541297,27.88688897,28.78672537,26.53302948,21.56675493,18.20507674,2.61195699,15.66431106,11.35573055,15.51025755,16.31100023,17.48208292,14.53826355,10.86377734,6.879177126,4.979415324,14.02697238,10.70801105,14.09392345,14.22879085,15.20067311,13.04971037,9.749522427,7.387680802,0.470065285,1,0.969822941,0.995242037,1,0.988859641,0.904446401,0.765938608,42.73230075,-76.65036275,2020,NYH2
PHG39/PHN82,ONH2_2016,Y,19.7,735.6263612,0,2,240,107,76.5,72,1.435483875,1.740833327,1.463802716,3.022687524,0.150999999,1.134659085,3.046446673,1.693503778,2.765116665,44.50000012,20.88999993,18.84600039,117.1590009,0.150999999,12.25349994,101.0444998,13.16149993,84.26899996,19.72563927,22.19747464,21.68954048,21.77365896,18.98664827,19.92678304,16.69906166,15.68152671,12.9072029,14.10741935,17.58083336,26.00758685,26.04894451,27.78099985,28.79287246,28.2480382,25.9224786,23.75348014,4.257419363,7.13166666,15.03828811,14.1477789,17.72699971,17.33924119,18.24672102,15.95494667,14.17526013,5.131346137,6.986841243,12.85116395,12.65171997,14.84296497,15.26027205,15.31782021,13.26534606,11.67621189,0.511244241,0.799851209,1,1,1,1,1,0.975829282,42.4530035,-81.88279875,2016,ONH2
CG44/CGR01,GAH1_2017,N,13.5,530.3203164,0,2,145,65,52.5,52,1.929687474,5.730000019,0.343252103,3.449286585,2.107618968,4.586772466,5.884115127,3.462793619,5.790337869,61.74999917,45.84000015,4.185237975,115.4628578,3.161428452,44.24761888,164.3961923,18.00285697,179.500474,16.80249013,20.13732326,20.17342047,19.27076224,21.20480144,16.6798163,18.15858085,19.37517402,17.73704587,23.5584375,24.76124978,28.73884546,29.02932191,29.79031757,30.11825943,30.88468736,33.04158726,32.39466959,8.654999979,9.073749959,13.81601286,15.94569083,16.85142871,20.07059283,21.0580027,22.24365102,22.03411694,9.935165979,10.3201674,13.6844889,14.81363998,15.5596332,17.10789698,17.95959829,19.61349988,19.1980032,0.8834375,1,1,1,1,1,1,1,31.50794425,-83.55854475,2017,GAH1
F42/H95,OHH1_2020,Y,20.55,686.7133223,0,0,229,110,58.5,56.5,4.175312527,1.24000001,2.003453903,2.609830299,3.238461531,4.458868342,3.000365612,1.621237519,2.44580479,133.6100008,6.200000048,24.41307693,78.60461595,5.612307695,46.13538504,105.0992289,18.40384625,73.98230748,19.06994028,20.34349766,22.26062964,20.30125672,18.94980258,17.72364635,17.47781057,14.69815231,13.31876726,20.75593752,29.31000023,26.9862925,30.26951119,31.92230738,29.63458284,27.3548547,24.45496262,20.91339716,9.301875014,17.61400032,14.18652547,18.22082699,19.47423084,18.74255468,15.66305293,13.07056974,8.164555027,9.098127154,15.53923951,13.05396234,16.29356655,17.69826911,16.21360084,13.84725457,11.75523116,8.713632263,0.810993302,1,1,1,1,0.998602591,0.941606618,0.857376019,39.85643475,-83.67288725,2020,OHH1
F42/H95,TXH1_2020,N,12.825,792.5843078,0,2,205.74,71.755,72,69.75,2.284333333,0,4.613530444,2.949806388,1.362941181,6.741056464,2.844869093,3.829088224,2.301094231,68.53,0,55.97058804,110.7988238,1.362941181,71.52235312,82.32059028,18.97352936,69.29117607,13.91343843,13.3863348,15.08816438,19.79337859,19.48130546,19.24170726,19.77113757,20.7945973,17.91495332,20.02266652,27.17999992,26.60815942,26.52479293,29.39617636,29.12989124,32.2266946,33.03076485,34.59511331,6.794333295,17.20400028,15.2455437,13.65359797,17.29686298,16.61337131,20.73348334,20.06167624,24.24037069,7.901247141,14.27292515,13.38037585,12.76738989,15.58009007,15.11126374,18.39892159,18.53701373,20.50202011,0.821357143,1,0.99243504,0.993791594,1,1,1,0.999042533,30.53781575,-96.4283715,2020,TXH1
LH195/LH82,WIH2_2016,N,20.8,793.5496967,0,14.25,243.5,112.25,64.25,63.75,2.185483832,6.563333432,3.447094458,4.124693788,6.707159024,6.158880111,5.945293137,1.654273513,4.758742445,67.74999878,39.38000059,44.45545418,149.2718189,18.91272705,63.86318129,228.7613642,17.11772738,143.1609097,20.07161814,17.64681498,20.48120554,20.03716075,21.00097141,18.73971629,16.31911952,14.94670844,10.3303759,18.34677419,27.65666644,25.59626749,27.3504729,29.44640147,29.15349181,26.70938079,24.21329019,20.37268081,4.840000014,15.2516667,12.43660419,15.21846351,16.18390156,17.81047537,15.29826924,12.0891497,9.537770322,6.76617685,13.67923016,11.77429452,13.6256578,15.0809804,15.56950508,13.35737665,11.10536848,8.849967039,0.729688939,1,1,1,1,0.998061418,0.979766622,0.886131912,43.32649075,-89.33882925,2016,WIH2
B73/PHM49,MOH1_1_2018,N,18.7,731.1212129,0,2,241.3333333,118.3333333,56.33333333,54.33333333,4.419032262,0.120000001,6.56660792,4.995913726,0,0.865952386,4.867908623,7.318145406,3.629241153,136.9900001,0.840000004,71.60142667,150.6285707,0,7.793571472,145.6157139,39.85928573,112.0157138,18.39395777,18.46565301,20.1607481,20.70593221,19.87326009,21.97749135,18.06982858,17.46468943,16.31914076,19.5254839,22.76714298,27.16554273,29.60936822,31.6271427,32.32420578,29.51628185,29.85375934,27.04843165,7.99741943,14.14714282,16.43732974,18.81172612,21.79964249,20.71007941,19.44316189,19.21155699,15.91814144,7.992986492,11.1555316,14.00535673,16.26359619,18.7133926,18.51714259,16.54699664,16.60044059,13.86670431,0.872361758,1,1,1,1,1,1,0.995607144,38.89791675,-92.20952075,2018,MOH1
PHB47/PHZ51,NCH1_2015,N,16.23333333,731.1212129,0,0,231.6666667,109.6666667,65,64,3.0140625,9.692856925,3.043308324,7.00027835,0,3.411347986,2.886716411,10.31533332,6.56176467,96.44999999,67.84999847,47.46470581,233.8535261,0,30.12176424,80.44058821,53.94764695,203.4147048,18.56641886,18.5514961,20.38733283,17.18369043,24.39251002,21.03629604,20.30189304,17.27178406,15.58503138,22.38312501,24.94999995,23.18034629,27.40244989,31.82117664,31.76743482,33.30845927,33.22968591,31.16039845,8.592187501,12.50999982,10.48535005,18.40286831,19.92058833,21.46261411,22.34001137,22.61282364,21.92468694,9.285127697,11.46773529,10.15801447,14.99239002,17.87088248,18.60652477,19.71826945,19.84422869,18.53531879,0.955334819,1,0.995809598,1,1,1,1,1,35.29657708,-77.5664625,2015,NCH1
WF9/H95,MOH1_2017,Y,16.6,731.1212129,9.5,6,254,119,65.5,63,8.937741737,9.40166688,2.512230721,3.318030003,5.035714369,1.794490762,1.996986524,1.220079397,1.67255761,277.0699939,56.41000128,33.26619119,103.9014299,11.93095259,15.87761924,65.30142803,7.334762096,51.25476209,18.72482054,18.08832916,22.62422694,21.00800173,18.77514496,19.93438148,19.70533138,19.36646121,17.34329115,21.92032254,25.32999992,25.47495036,29.30087203,30.46650729,32.25412016,29.92026774,28.22145964,28.04827898,10.06000005,15.27666648,12.99827088,17.39768618,19.78222205,21.21359122,18.70404881,16.33857143,14.9717184,9.612847321,12.76903024,11.94928206,15.49761919,17.12130987,18.67277384,16.20463701,14.48208578,13.92850008,0.915472353,1,1,1,1,1,1,0.999239796,38.89264,-92.2057525,2017,MOH1
TX714/TX779,TXH2_2019,N,11.26,798.3444617,0,0,206,58,68,67,1.71448275,0.072857141,3.656594302,9.095434564,0.409285716,1.207678571,5.355850783,1.246142852,1.574419343,49.71999974,0.50999999,52.00785631,328.2121388,0.592857139,9.661428571,146.4478573,6.531428533,47.51499965,15.42805705,20.52131135,18.76898834,18.57032559,21.42349659,18.85281525,20.14881361,21.03072751,19.84089234,18.45000007,25.76428577,24.43254944,27.27586732,31.09000002,32.37866099,32.72435205,34.04471448,34.98200776,6.826206914,10.35000004,10.67963154,14.78766739,18.65857179,21.85071427,21.02442735,21.79614282,22.6049739,7.457816468,11.1589152,10.85119479,13.46630403,16.91193677,19.11412105,18.84765314,19.77807102,20.01419559,0.749667494,1,0.945308164,1,1,1,1,0.999698925,30.546318,-96.4329965,2019,TXH2
B37/MO17,KSH1_2018,N,15.66666667,770.5948934,30.66666667,11.33333333,229,110,65,64,0.123225804,1.309000027,2.835063753,1.245921432,6.190769489,0.847777789,5.121826591,3.691923017,0.576771715,3.819999933,13.09000027,33.35999966,37.39923182,6.190769489,7.630000105,140.8584615,22.1515381,17.82230777,23.1370286,19.20606413,23.76917973,25.01946837,21.72317813,23.99633906,18.76579115,18.12170014,19.24157322,22.75709664,20.771,27.08892973,34.13484851,36.79923102,35.27700868,33.17677556,30.51957897,31.48973893,3.915806478,6.778999925,10.75682887,16.60383588,18.26846137,18.37008543,18.87125761,16.15291204,15.043086,8.255034949,8.267600828,11.90551203,16.73972083,17.84021903,17.73256873,17.54545708,15.43757555,15.43621363,0.847615199,0.789999991,1,1,1,1,1,0.970122947,37.810107,-100.775188,2018,KSH1
TX714/PHZ51,NCH1_2015,Y,17.5,731.1212129,0,0,241.5,154,65,64,3.0140625,9.692856925,3.043308324,7.00027835,0,3.411347986,2.886716411,10.31533332,6.56176467,96.44999999,67.84999847,47.46470581,233.8535261,0,30.12176424,80.44058821,53.94764695,203.4147048,18.56641886,18.5514961,20.38733283,17.18369043,24.39251002,21.03629604,20.30189304,17.27178406,15.58503138,22.38312501,24.94999995,23.18034629,27.40244989,31.82117664,31.76743482,33.30845927,33.22968591,31.16039845,8.592187501,12.50999982,10.48535005,18.40286831,19.92058833,21.46261411,22.34001137,22.61282364,21.92468694,9.285127697,11.46773529,10.15801447,14.99239002,17.87088248,18.60652477,19.71826945,19.84422869,18.53531879,0.955334819,1,0.995809598,1,1,1,1,1,35.29657708,-77.5664625,2015,NCH1
B97/PHB47,MOH1_2016,N,16.65,731.1212129,25.5,2.5,250,115,57,56,2.465483877,8.058000231,0.264259377,6.282521268,1.94553035,9.25680559,4.358907121,3.354664451,5.453130527,76.43000019,40.29000115,2.879999995,172.8372758,4.262727369,83.20363667,125.2090916,21.13363606,168.2240918,20.2309363,16.93509369,22.49829557,20.20959989,18.68177986,19.21408964,18.0090922,17.17714413,15.87534947,21.83193548,27.56600037,27.88644765,31.21215235,30.25795442,31.2505745,30.57423065,29.80077912,28.25339236,10.073871,16.74400005,16.26474463,19.86215984,19.98371223,20.49117413,20.76153791,19.91431794,17.56318368,9.497798547,14.24343349,14.21296425,17.47336946,17.12232598,17.8699151,17.65104862,16.90998551,15.09561117,0.937315665,1,1,1,1,1,1,0.999442641,38.8955475,-92.2072025,2016,MOH1
PHG39/PHN82,GAH1_2019,N,15.23,727.5814535,12,0,202.5,102.5,59.5,59.5,4.224827643,1.980000006,1.908236784,2.106472486,0,0.090714284,5.691865924,1.473428559,3.045620547,122.5200016,17.82000005,22.37999977,72.04999958,0,0.725714275,156.5528547,7.367142797,92.8692846,16.4500471,17.48633936,17.40259385,20.9384506,22.51147406,21.84430948,17.66714436,19.76491442,19.71139218,21.20655165,22.58666695,26.81574745,29.5228407,35.04273814,35.70196446,32.62270198,33.62814315,33.36893722,7.214827602,8.595555623,14.04498416,14.47543411,19.21654783,20.58464301,20.89661115,21.78014287,21.253149,8.370628681,9.274220075,12.91642218,14.40044999,18.67726543,19.28313207,18.63395398,19.63555568,19.18049021,0.90216748,0.984365085,1,1,1,1,1,1,31.50582525,-83.55515025,2019,GAH1
F42/OH43,OHH1_2015,N,16.3,727.2596572,0,0,255,121.5,62,61,4.820000016,2.056666652,1.801667061,2.430255425,2.070588264,2.75488235,3.664772063,1.623969288,1.874022108,149.4200005,12.33999991,20.27235275,82.00588303,2.23529414,26.29176468,128.0200007,12.16764697,57.18411674,17.71339239,20.831882,20.85048625,20.93566426,20.28419298,19.59839119,17.66236547,17.23782846,14.83481447,16.95064511,28.03666687,26.64173705,29.01382079,31.07970569,30.59522857,27.99762273,26.69097183,23.34659959,5.9283871,15.42166694,14.66308043,16.74801267,19.23764672,18.74322206,16.69895781,13.90980629,10.26308727,6.580773377,14.04730329,13.19467995,15.08203889,17.16864649,16.69143216,14.53513226,12.92347397,10.29932856,0.672569122,1,1,1,1,1,0.994932126,0.947361455,39.855785,-83.66477375,2015,OHH1
PHG80/PHZ51,NYH3_2015,N,19.75,731.1212129,0,3,233.5,132,81,81,4.268387075,0,1.234803629,3.315485905,3.744705864,3.708743319,2.034738589,2.091907533,2.160160663,132.3199993,0,17.66999944,111.4647067,9.843529393,38.42352946,75.35117763,21.49235322,65.37235311,20.95885717,21.76160183,22.01003167,20.47654391,19.37507164,18.84800849,18.09954582,14.25866518,12.17165493,15.21516129,28.41399994,23.9726608,27.94852153,28.22411762,29.00645443,26.88612691,22.65429039,19.02039094,3.206451565,16.00799999,11.62235867,15.61032629,16.7502941,17.72633694,14.88804443,11.60832066,7.356588233,5.349626667,14.38734971,10.95773449,14.17183136,14.61937489,15.41213998,13.31670354,10.34569698,7.707711279,0.504331792,1,0.97267375,0.996219796,1,0.995345527,0.95775528,0.812032548,42.7233625,-76.6555945,2015,NYH3
B73/PHN82,WIH2_2015,N,41.15,836.670402,0,0,249,148.5,65,64,3.126774188,2.655000041,4.103605878,5.336067251,1.868823528,3.142847566,3.066358713,6.463272165,3.426278957,96.92999983,15.93000025,53.58117651,186.0694135,5.435882344,36.03705852,132.4747064,52.80117733,103.4994124,19.63646212,20.57311455,21.5892617,21.07111177,18.36300238,19.20517036,18.54583572,13.68038168,11.37476292,15.6409678,24.97666677,26.11823115,28.09529077,27.51588227,27.91298604,26.4469062,23.95331443,17.63645543,3.355806466,13.62666686,13.88922494,15.17788174,17.2276475,16.92946091,13.73434519,12.63733902,6.343913375,5.370860554,11.93138906,12.65256426,14.04290221,14.43586033,14.57588984,12.76646014,11.49482956,7.023163717,0.588214292,1,1,1,1,0.979783322,0.914260835,0.715230077,43.3264485,-89.33359975,2015,WIH2
PHB47/PHN82,ONH2_2017,N,21.85,894.5937376,0.5,3,227.5,98.5,39,37.5,3.566774253,5.816000056,0.640467161,2.602850346,0.276190468,0.553043346,1.774150425,1.832219351,2.40528059,110.5700018,58.16000056,8.999047586,96.02571482,0.552380936,6.918571438,78.70857161,24.06619065,72.98142847,18.8542372,16.74867072,24.21291039,19.37094181,21.19715784,20.84705237,17.61151759,14.253685,9.927824707,15.7532257,18.68899984,23.40262829,26.34974997,26.59380949,26.86065013,24.57225317,22.91748616,20.00596815,5.764838726,10.96000004,12.03359118,16.18007827,16.63301581,15.91920336,13.14574071,11.27177775,10.10650586,6.141928302,8.38660306,10.68394655,13.52521671,13.7753985,13.64998718,11.58821465,10.41552723,9.107414304,0.598502303,0.966571423,1,1,1,0.999084662,0.956230826,0.8300025,42.45293025,-81.8827315,2017,ONH2
B37/H95,GAH2_2019,Y,13.38333333,757.723041,0.333333333,1.5,235,110.5,63.83333333,63.5,1.545000002,4.557500124,0.250380961,1.26115813,2.257142884,9.485350662,1.336144097,0.813952387,3.350460841,49.44000006,36.46000099,3.755714417,38.36428595,2.257142884,98.62571442,36.52428579,4.78428575,103.8642861,18.18435833,18.19265985,22.8847832,21.24247432,23.3434718,16.19739035,20.40643492,19.78647718,19.94823177,21.36937484,23.13125002,27.34691779,30.77499698,32.53285762,28.60028574,32.70957317,33.58714258,33.18838734,7.029687526,9.771250069,11.28150206,17.20030934,17.5714283,19.08651926,20.35438482,22.40104739,20.7990781,8.377064876,9.945548605,12.20340126,16.01551644,17.09277291,15.89283108,18.47046504,19.81563867,18.90725155,0.94271205,0.94334821,1,1,1,1,1,1,33.7204165,-83.308125,2019,GAH2
B97/PHB47,NYH2_2017,Y,17.7,731.1212129,0,2,229,110,65,64,4.985806354,2.593333337,3.453715005,5.89688957,0.948070192,3.208418109,2.379655727,2.694333021,3.397972982,154.559997,23.34000003,55.2357889,222.9889478,1.763157895,41.81263091,117.7794744,23.637895,104.1910535,18.91896409,18.22902181,21.62310913,19.28169434,21.2024166,18.91678159,16.97406986,13.88043676,9.439494818,16.54903238,19.80111122,22.34881997,25.65461899,27.16105275,25.3148988,23.28803047,24.25146582,18.24460841,5.239677404,10.2422222,10.55939387,15.21770316,15.87359667,14.84504335,11.5614249,11.15398494,7.352427253,6.267898103,8.570747831,9.793885142,12.80097944,13.68904673,12.46138399,10.55155578,10.87663924,7.688896934,0.638917053,1,1,1,1,0.981507475,0.966916282,0.722284214,42.73248125,-76.65275025,2017,NYH2
PHG39/PHN82,NYH2_2020,Y,14.15,752.3597692,0,3.5,231,104,66.5,66,4.422257993,0,1.391731236,3.182357247,6.170888774,3.507901041,2.283490724,1.426918664,2.172175634,137.0899978,0,18.68266731,113.2706661,12.6093331,36.98266699,88.46933366,18.14666667,65.61600019,20.94267544,21.78244971,21.55666085,20.64321436,19.27786447,18.92984529,17.76882093,13.77968924,11.70490539,14.55447306,27.94977782,23.62933928,27.86541297,27.88688897,28.78672537,26.53302948,21.56675493,18.20507674,2.61195699,15.66431106,11.35573055,15.51025755,16.31100023,17.48208292,14.53826355,10.86377734,6.879177126,4.979415324,14.02697238,10.70801105,14.09392345,14.22879085,15.20067311,13.04971037,9.749522427,7.387680802,0.470065285,1,0.969822941,0.995242037,1,0.988859641,0.904446401,0.765938608,42.73230075,-76.65036275,2020,NYH2
B14A/H95,DEH1_2016,N,22.5,698.941582,0.5,9.5,254,131.5,79,79,2.701875035,7.431818214,3.891344367,3.01543569,5.358105985,2.453055546,7.028031294,2.624318106,3.1968602,86.46000111,81.75000036,66.39499953,101.6163622,13.33454524,24.02227264,188.3231781,15.05272682,98.58045408,18.33047433,10.1000462,19.40971708,21.02938559,18.25055452,17.64652011,18.94468483,17.7865103,16.44449792,18.09,16.60090897,19.90208421,27.67646738,27.79681775,28.9030859,31.91379825,31.21812112,30.57169607,5.529687506,9.93090907,10.11289786,16.8589893,18.02106052,19.78800518,21.90881045,21.62957593,20.16127331,6.825577378,7.645605865,8.606637786,14.43603228,14.98401645,16.37610101,18.85541374,18.37748956,17.3477875,0.726328134,0.729318176,0.990929859,1,1,1,1,1,38.6482025,-75.44606,2016,DEH1
B73/PHM49,OHH1_2017,N,17.7,731.1212129,0,2,229,110,65,64,4.401935447,12.29571451,4.299880116,6.252045262,18.36299991,4.892395558,3.195317293,3.431958172,3.794688752,136.4599988,86.0700016,53.63949916,223.8204996,40.86499989,50.26800107,124.097,30.99400014,115.4320013,19.0647902,19.03427505,21.00226491,20.15032754,19.69555429,18.89580098,18.69837911,16.0400155,13.85510684,20.47903239,25.43142836,25.24002704,27.25803818,28.09541678,28.73270468,26.30456447,24.69395371,24.25720733,8.011935501,13.44999967,12.59882409,15.91673102,16.75358336,18.39824095,14.97688189,13.11535887,11.81284403,8.407228033,12.106522,11.63721293,13.8931373,14.6377479,15.63224373,13.07252875,11.66012039,11.13333271,0.85352535,1,1,1,1,0.996926048,1,0.96495674,39.855785,-83.66477375,2017,OHH1
PHG39/TX205,TXH1_2015,Y,13.55,715.0313974,0,2,179,86.5,73,71,2.435333351,0.886666695,4.529386736,2.992210444,0,5.407499953,3.236240411,4.528416659,2.205666663,73.06000052,5.320000172,54.16999972,113.7899998,0,59.48249948,89.11249819,24.54499996,66.1699999,13.38128519,15.80308406,13.73749678,19.48289484,22.46598899,19.96463979,19.54848583,19.57031498,18.03135075,19.61999995,26.26833312,25.8489028,26.4780255,30.37177098,28.79539756,31.9014052,33.48070828,34.35516661,6.122333375,12.74499997,15.39155332,13.69439061,15.83385423,15.9580683,20.41172374,21.45270844,23.93220836,7.516768444,12.28221354,13.06030889,12.7550996,15.35592881,14.67426974,18.11040569,19.30603111,20.37775841,0.822428569,1,0.992325397,0.994092815,1,1,1,0.999431249,30.54708625,-96.43393475,2015,TXH1
W10004_0216/PHZ51,GAH1_2016,N,14.25,778.7470665,6.5,5,230,100,59,57,6.466250051,4.395000041,0.566421492,2.549627568,3.17469698,5.859943136,4.096967014,2.330999996,2.476261007,206.9200016,35.16000032,6.21000006,86.0200003,9.52409094,52.42727233,105.6731797,11.65499998,76.76409122,15.95696127,18.25385642,20.33100053,20.74024209,20.01064868,19.54302735,19.38198769,19.26953352,18.21451922,23.62687498,22.98249984,28.56134937,29.4983659,33.37075638,32.62719045,33.25026907,34.51499955,33.94928126,11.29749997,10.47000009,15.64744728,16.2846205,20.78287862,20.61269551,21.56927107,22.51809092,22.40467728,10.53971422,9.962440438,14.36481163,15.11313475,19.02952924,18.56859265,19.26668195,20.34390963,19.99415841,0.993928569,1,1,1,1,1,1,1,31.5079175,-83.55854775,2016,GAH1
LH74/PHN82,ONH1_2016,Y,29.6,650.0285431,0,1.5,196,108.5,82,80,1.979032247,2.105714291,0.92181366,1.439738287,4.720833318,2.435439396,4.62931563,1.31185227,2.043303741,61.34999967,29.48000008,13.31600007,60.28400005,10.99249999,28.54150001,172.0475013,11.37649985,61.38049932,20.24883872,21.56727634,23.77365349,22.41142308,19.3081847,20.61473607,17.12813691,15.31534219,11.6349499,10.49290321,16.47999988,25.01561457,25.51466922,28.22516696,27.99415914,27.31356147,24.49017951,20.3886015,-0.735806467,3.753571405,10.93050922,11.61184699,15.55325019,14.71775745,15.07244109,12.71620509,9.185787659,3.269306411,5.688768484,11.09209761,11.56175859,14.2216101,13.76399544,13.57642435,11.5133866,8.776899495,0.291105988,0.684668367,0.99891379,0.988093962,1,0.998165816,0.971212584,0.877977401,43.4997965,-80.451125,2016,ONH1
F42/OH43,GAH2_2020,N,15,721.4673236,5.25,29.5,259,118.5,58.5,57.25,4.57387094,0.441111114,8.353941854,2.596292498,5.733571683,2.103095203,2.179001438,2.485142878,3.918548365,141.7899991,3.970000029,91.39071568,80.77428585,11.41500051,18.92785683,57.71499962,12.42571439,121.4749993,20.66171874,23.27184486,17.58943298,19.5164109,18.75300796,20.35385684,20.26001561,17.11426864,16.01109332,24.32935487,22.81222216,27.25049476,29.76903398,31.23452386,32.73428517,34.13891635,33.4245718,31.64458511,9.683548431,7.437777784,15.07002369,18.41195949,20.46821458,20.95039675,21.2406723,21.91714281,20.83905522,10.34437265,8.95024402,13.55540875,16.15181668,17.85136922,18.84234096,19.40061188,19.58004094,18.23728962,0.993479262,1,1,1,1,1,1,1,33.72355555,-83.30265185,2020,GAH2
F42/OH43,ONH1_2017,Y,25.85,689.2876928,0,2,249.5,117.5,72,71.5,4.42290319,4.904999876,1.545173221,3.420435244,1.695375006,2.594700004,1.855534774,1.54565171,2.383111348,137.1099989,49.04999876,23.52600009,140.8034994,5.378000009,36.46150006,95.23350107,29.85300009,72.44250006,18.65662235,17.08545341,23.10813164,20.12586768,18.11232318,19.44819915,16.33652997,11.62209215,7.957733996,13.94322577,18.20700026,22.35689536,24.80045755,25.17183321,25.2296929,22.79396283,22.13957367,13.29532023,3.578387066,9.706999969,10.10387851,14.12185296,14.82349991,13.63261195,10.3904862,9.847475595,3.166289439,4.958212412,8.025894563,9.659097931,11.97096233,12.35740613,11.98311106,9.953455995,10.0654016,5.273375752,0.439723498,0.877642858,1,1,1,0.972410901,0.840292505,0.515578473,43.49546,-80.42596875,2017,ONH1
B73/PHZ51,NYH3_2015,Y,20.3,731.1212129,0,1.5,267,139.5,76,76.5,4.268387075,0,1.234803629,3.315485905,3.744705864,3.708743319,2.034738589,2.091907533,2.160160663,132.3199993,0,17.66999944,111.4647067,9.843529393,38.42352946,75.35117763,21.49235322,65.37235311,20.95885717,21.76160183,22.01003167,20.47654391,19.37507164,18.84800849,18.09954582,14.25866518,12.17165493,15.21516129,28.41399994,23.9726608,27.94852153,28.22411762,29.00645443,26.88612691,22.65429039,19.02039094,3.206451565,16.00799999,11.62235867,15.61032629,16.7502941,17.72633694,14.88804443,11.60832066,7.356588233,5.349626667,14.38734971,10.95773449,14.17183136,14.61937489,15.41213998,13.31670354,10.34569698,7.707711279,0.504331792,1,0.97267375,0.996219796,1,0.995345527,0.95775528,0.812032548,42.7233625,-76.6555945,2015,NYH3
B14A/MO17,ONH2_2019,N,41.55,649.7711061,2,8,266.5,120.5,56,55,3.148749955,1.707142813,2.884788786,4.447732757,0.559615387,2.381315681,1.591062148,2.963873616,2.693056068,100.7599986,11.94999969,28.24076917,155.5976948,1.398461539,27.51692318,83.67846091,41.8892306,82.50307587,19.66548085,22.32332843,21.1459014,19.53903082,19.21471346,16.24443645,13.80926932,11.15414419,7.415876262,21.25437486,24.3300002,28.12065395,27.65940311,26.58807711,26.0777262,22.19925608,19.8977064,9.549499144,11.33624993,14.43999985,17.94791472,17.45486711,16.31807709,16.95925516,13.13253797,10.95349597,1.834706344,9.515816833,11.92539607,15.12217856,14.69848405,13.62366511,13.69445237,10.64536319,9.344594814,3.453371008,0.985803572,1,1,1,1,0.93986372,0.838029257,0.289255913,42.45221275,-81.881844,2019,ONH2
B37/H95,OHH1_2016,N,21.6,731.1212129,0,13.5,271.5,127,65,64,4.328064465,1.776000023,3.915145208,2.580740659,3.890757626,4.17049496,5.079069289,3.957741935,3.614594814,134.1699984,8.880000114,44.70363614,85.9177286,9.330454675,39.94818193,160.1854537,27.69772666,110.1186362,18.3437644,22.24283047,20.73146956,20.35982518,19.15233416,18.82824642,16.72048491,17.98730955,14.71797893,19.63580645,29.63200035,26.56953589,28.59263588,29.59106055,30.69283836,29.21689182,28.27188687,26.30588322,8.120967747,16.89599972,14.9739129,16.70528562,18.30318191,19.74443426,18.9160149,15.44500838,13.40262461,8.117657052,15.32722009,13.17028057,14.81678154,15.96857054,17.23303236,16.11713161,14.21502474,12.5845871,0.859331788,1,1,1,1,1,0.999172078,0.989049277,39.860924,-83.6755995,2016,OHH1
PB80/PHZ51,NYH2_2016,N,18.55,731.1212129,0.5,1.5,194.5,96.5,76,73,2.034516133,1.030000001,1.88805842,0.867300396,1.140952366,2.326450204,3.376451109,4.287746575,3.208572451,63.07000011,12.36000001,22.4085716,34.4438095,2.622857094,25.59095225,116.65619,31.75809508,97.82571426,19.21240982,23.35584625,23.40556822,22.17883586,23.94456446,21.25361649,17.18897092,16.17245816,13.35906413,14.04935483,18.68749992,27.50851283,26.23633728,28.78071431,29.31692664,28.41638555,26.44500865,23.15297547,1.686774175,4.439999988,12.92699036,12.85534504,13.89476193,15.65588736,16.863818,13.58818034,10.55762265,4.511298309,6.607155497,12.88765676,12.33330427,13.7996272,14.74166699,14.82295673,12.66050813,10.26842414,0.447315667,0.804761906,0.999400038,0.994542932,1,0.999880088,0.994843294,0.949842165,42.726117,-76.655339,2016,NYH2
PHW52/PHN82,GAH1_2015,Y,15.1,702.1595451,0,0,185,75,62,61,4.231249915,0,5.95843649,3.852603143,2.594000032,2.429925956,4.217759372,2.225466652,2.667397826,135.3999973,0,82.56599903,137.5619979,4.851333332,21.8693336,117.5779999,11.12733326,82.68933261,16.59936112,21.58269278,19.11661296,20.61616366,14.5260024,17.86473659,19.792993,19.1551459,18.46432438,25.43281227,26.81500022,26.00854227,27.82657943,29.9603331,30.57562955,31.8228303,33.58693334,33.75221527,12.50374998,10.5999999,12.24448314,13.90452364,20.76811106,20.25348139,20.64254904,22.17719986,22.29090342,11.85447967,11.72664631,11.94062668,13.41492991,17.36422208,17.41455547,18.23714923,19.83066815,19.89653894,0.988973219,1,1,1,1,1,1,1,31.505771,-83.555095,2015,GAH1
B14A/H95,OHH1_2017,Y,19.3,734.339176,0,2,229,110,65,64,4.401935447,12.29571451,4.299880116,6.252045262,18.36299991,4.892395558,3.195317293,3.431958172,3.794688752,136.4599988,86.0700016,53.63949916,223.8204996,40.86499989,50.26800107,124.097,30.99400014,115.4320013,19.0647902,19.03427505,21.00226491,20.15032754,19.69555429,18.89580098,18.69837911,16.0400155,13.85510684,20.47903239,25.43142836,25.24002704,27.25803818,28.09541678,28.73270468,26.30456447,24.69395371,24.25720733,8.011935501,13.44999967,12.59882409,15.91673102,16.75358336,18.39824095,14.97688189,13.11535887,11.81284403,8.407228033,12.106522,11.63721293,13.8931373,14.6377479,15.63224373,13.07252875,11.66012039,11.13333271,0.85352535,1,1,1,1,0.996926048,1,0.96495674,39.855785,-83.66477375,2017,OHH1
B37/H95,WIH3_2020,N,24.225,661.2914139,0.5,2.25,261.75,128,69.75,67,2.733870995,5.446666638,6.112394342,4.74655674,3.655208389,1.04360979,2.527373572,3.69928986,2.61452892,84.75000083,32.67999983,82.9068754,167.6149986,8.003125131,12.58312517,113.8450009,40.74312496,78.93437568,20.41919384,18.2775027,21.33639865,20.40337995,19.49413761,18.99324058,17.80850823,14.15156863,10.1168501,15.48354838,26.52499994,25.39100386,27.30541678,28.00124967,27.24401428,25.77617537,21.78088819,14.67245705,3.106129019,15.18500026,12.31273591,15.12317531,16.14624966,16.31340126,13.17330579,9.92591724,4.431311843,5.287102842,13.2823578,11.70416503,13.61992535,14.28505882,13.97808988,12.29059579,9.657643491,5.630137727,0.571854837,1,1,1,1,0.965668942,0.879609054,0.560799012,44.115703,-89.54491325,2020,WIH3
CG119/CG108,MNH1_2016,Y,16.55,731.1212129,0,2,229,110,66,64.5,2.893225764,0.170000008,5.030425272,6.121705224,6.438583227,6.210954471,8.179238718,7.617170889,9.394742846,89.68999869,1.190000057,67.79499967,212.8530004,13.67999972,65.11499918,295.599999,62.20750045,287.315495,17.89673604,26.28611401,18.122652,20.29948324,15.80941307,17.87578139,16.93568638,15.29315111,12.15008877,17.5148386,25.45428576,24.53269911,27.63337014,28.14450006,28.70269129,27.15887183,24.8505404,22.53032632,6.338387108,9.824285678,13.68155402,15.81410535,17.82425013,18.42635015,16.92976579,13.57123889,11.50456607,6.871134867,10.90204251,11.6566452,13.98369248,15.05511886,15.68076391,14.22086787,11.86153057,10.26982602,0.734527645,1,1,1,1,0.999952477,0.98729881,0.936092645,44.06646925,-93.533648,2016,MNH1
B73/PHZ51,MNH1_2016,Y,19.2,731.1212129,0,2,229,110,71,69.5,2.893225764,0.170000008,5.030425272,6.121705224,6.438583227,6.210954471,8.179238718,7.617170889,9.394742846,89.68999869,1.190000057,67.79499967,212.8530004,13.67999972,65.11499918,295.599999,62.20750045,287.315495,17.89673604,26.28611401,18.122652,20.29948324,15.80941307,17.87578139,16.93568638,15.29315111,12.15008877,17.5148386,25.45428576,24.53269911,27.63337014,28.14450006,28.70269129,27.15887183,24.8505404,22.53032632,6.338387108,9.824285678,13.68155402,15.81410535,17.82425013,18.42635015,16.92976579,13.57123889,11.50456607,6.871134867,10.90204251,11.6566452,13.98369248,15.05511886,15.68076391,14.22086787,11.86153057,10.26982602,0.734527645,1,1,1,1,0.999952477,0.98729881,0.936092645,44.06646925,-93.533648,2016,MNH1
B37/OH43,MOH1_2016,N,17.65,731.1212129,2.5,2,272.5,125,58,56,2.465483877,8.058000231,0.264259377,6.282521268,1.94553035,9.25680559,4.358907121,3.354664451,5.453130527,76.43000019,40.29000115,2.879999995,172.8372758,4.262727369,83.20363667,125.2090916,21.13363606,168.2240918,20.2309363,16.93509369,22.49829557,20.20959989,18.68177986,19.21408964,18.0090922,17.17714413,15.87534947,21.83193548,27.56600037,27.88644765,31.21215235,30.25795442,31.2505745,30.57423065,29.80077912,28.25339236,10.073871,16.74400005,16.26474463,19.86215984,19.98371223,20.49117413,20.76153791,19.91431794,17.56318368,9.497798547,14.24343349,14.21296425,17.47336946,17.12232598,17.8699151,17.65104862,16.90998551,15.09561117,0.937315665,1,1,1,1,1,1,0.999442641,38.8955475,-92.2072025,2016,MOH1
LH74/PHN82,IAH1_2017,Y,16.1,742.70588,0.5,1.5,177.5,88.5,65,64,3.40562493,4.965384584,4.756276119,1.833606587,3.814090996,2.221484887,3.670808328,1.81325484,2.347473118,108.9799978,64.54999959,71.28272616,63.78727258,4.177727374,22.83863677,118.9068186,13.7622725,72.03681816,16.19865167,17.41178014,18.84198651,22.07722619,19.57094626,20.6423577,19.65334879,19.12382584,16.87809105,17.11343735,15.37846162,22.95951679,28.09807267,26.50742381,30.27960591,29.79948923,26.92834941,26.37674051,5.413125027,4.923076978,11.46549016,14.16962528,11.61757578,16.65775237,16.66504091,13.38757222,12.41510662,6.530778339,5.768563812,10.45370215,13.71965113,11.94783378,15.64262598,15.39964617,12.71239892,12.1737806,0.629988832,0.555054952,0.946458762,1,1,1,1,0.998130952,41.19924609,-91.49402296,2017,IAH1
CG119/CG108,TXH1-Late_2018,N,11.55,691.8620632,0,2,184.5,70,56,56,3.579375003,7.22999986,0.880950212,3.393996506,5.74642872,3.619146949,3.455600496,0.428285708,2.278709721,114.5400001,43.37999916,11.7107143,109.309285,11.49285744,35.41714406,87.15857094,2.141428539,70.64000136,15.18905504,16.98149872,20.4111462,19.99876216,15.81608334,20.1152116,19.58230121,16.39417859,18.61523184,25.42156261,25.48166672,24.9240565,29.86096768,30.55928573,31.11103384,33.47173554,33.67857067,35.62923946,13.73406251,14.7233332,12.14174484,16.97683375,21.17380969,19.92907914,21.60030195,24.8844286,24.53525352,12.24876106,12.9546326,11.47321097,15.6369769,17.86869493,17.49319399,19.34856645,20.63058471,20.90474588,0.995234379,0.961607144,1,1,1,0.999944236,0.999152383,0.999033412,30.546318,-96.4329965,2018,TXH1-Late
B14A/OH43,IAH1_2015,Y,20.1,676.4158404,0.5,16,285.5,148.5,65,64,1.566451638,2.213076954,8.402418557,1.323463692,0.084411761,2.297359398,2.93999255,2.37101191,2.732793763,48.56000078,28.7700004,122.1399999,43.52999979,0.168823523,22.82352863,100.1182349,16.67000003,83.81294001,20.43214903,18.85811498,14.63317728,22.31276759,19.14227258,22.20806523,19.83862588,18.33763158,15.0581957,16.08774191,16.64538457,21.84697853,28.7334183,30.26852911,31.30747052,29.05105531,29.39636272,24.66946357,1.839032284,4.865384661,13.12892854,16.86768962,20.05941139,18.05705196,16.3929614,15.43749916,11.17229855,5.447129731,6.098188577,10.48240964,14.99632473,17.16639266,16.72884186,14.96924927,14.77137221,11.30644361,0.593087559,0.682994502,0.988452545,1,1,0.997626801,1,0.896934674,41.9980952,-93.69336973,2015,IAH1
LH74/PHN82,MOH1_2015,N,14.25,731.1212129,0,5,165,72.5,75.5,74,3.914838722,3.002727248,2.7038834,5.646226268,2.268750012,1.183333344,4.736744086,1.740401796,3.666491943,121.3600004,33.02999973,34.41999933,178.8712478,5.868750036,10.6500001,140.2618746,11.88312507,113.6612502,18.81846694,18.88703156,16.92919735,21.70591481,15.72154266,19.94530069,18.47422179,20.12873028,17.02653892,18.28451609,18.00181831,23.77805456,28.93028285,29.85593748,31.76118019,30.42140763,28.58050013,28.43143147,5.857096827,7.500000065,15.21487777,17.6487962,21.67281234,21.45979159,20.28182538,17.09899995,17.28669369,7.068544315,7.302193139,11.97142579,15.39796361,17.76437491,18.61048589,17.380694,14.99182695,15.05317439,0.723283405,0.814935086,1,1,1,1,1,1,38.8965375,-92.20800417,2015,MOH1
B37/H95,MNH1_2015,N,19.4,731.7648055,9.5,15.5,246,122,76,75,2.676451665,6.10285713,1.587216104,4.707726326,2.093823531,4.685775359,5.935015669,2.223261507,2.198788145,82.97000162,42.71999991,19.59000013,155.007059,3.965294123,52.23235247,227.0947085,20.90117698,67.40117758,19.81693462,15.87546921,21.62818458,20.65236193,17.21434565,21.12123323,17.7408483,14.5374504,12.06297535,17.43387093,22.63000025,27.28921799,28.46423671,28.36529418,28.07899716,26.14089523,24.73259507,17.90095705,4.567419307,13.73428563,14.30007362,16.89716897,18.65411764,16.19745995,14.75643511,13.57280729,6.634647692,6.2838161,10.87437977,13.26905608,14.87023808,15.64114514,14.35392043,12.99006372,12.46836687,7.55733068,0.722983866,1,1,1,1,0.977703003,0.878626049,0.721229646,44.07038575,-93.53519625,2015,MNH1
PHN11_PHW65_0323/LH195,MOH1_2019,N,17.8,731.1212129,0,1,180,85,63,62,4.907419428,9.604285649,1.196872498,5.110410132,2.801666578,0.134444442,2.379708247,7.113428694,4.895301043,152.1300023,67.22999954,11.80625023,164.838749,8.404999733,1.209999979,75.06875065,40.48125055,151.407499,17.06584337,18.93672998,19.67293901,19.7601386,19.15913832,21.9354776,19.8853634,16.02367873,15.25367059,21.02129029,24.39000021,28.1749685,28.34324165,30.6675001,31.10263872,30.50513849,30.12964257,28.72433606,9.960645122,13.42857129,17.39529908,18.05620523,21.36166632,20.47986097,19.32223721,20.23911926,18.26780907,9.14854411,11.68484074,14.86417974,15.32069344,18.01458321,17.78759074,16.90970541,17.17973687,15.57482707,0.941624426,1,1,1,1,1,1,1,38.8956125,-92.20883,2019,MOH1
PHG80/PHZ51,NCH1_2015,Y,18.7,731.1212129,0,0,250.5,131,65,64,3.0140625,9.692856925,3.043308324,7.00027835,0,3.411347986,2.886716411,10.31533332,6.56176467,96.44999999,67.84999847,47.46470581,233.8535261,0,30.12176424,80.44058821,53.94764695,203.4147048,18.56641886,18.5514961,20.38733283,17.18369043,24.39251002,21.03629604,20.30189304,17.27178406,15.58503138,22.38312501,24.94999995,23.18034629,27.40244989,31.82117664,31.76743482,33.30845927,33.22968591,31.16039845,8.592187501,12.50999982,10.48535005,18.40286831,19.92058833,21.46261411,22.34001137,22.61282364,21.92468694,9.285127697,11.46773529,10.15801447,14.99239002,17.87088248,18.60652477,19.71826945,19.84422869,18.53531879,0.955334819,1,0.995809598,1,1,1,1,1,35.29657708,-77.5664625,2015,NCH1
B14A/OH43,SCH1_2018,N,15.8,731.1212129,0,3,196,109.5,63,63,5.509375073,3.372500002,5.775327928,7.728127661,4.71095229,3.130603142,3.123485158,2.01328566,5.79306447,176.3000023,26.98000002,97.60999952,245.6735731,5.415714213,31.8442854,83.93428482,10.53785687,179.5849986,18.64772365,19.28692877,21.1730546,18.16318131,18.84742333,19.2548603,19.994513,19.31783344,16.30139442,22.53906247,22.53374982,23.09020479,27.61870045,28.0654766,28.90856809,32.58479132,33.48333298,31.1168664,9.301562469,9.311250091,8.762400081,17.50665347,16.7615475,18.38295894,21.20797915,21.67128537,20.80767273,9.591191253,9.400074843,9.574505228,14.76793775,14.51962258,15.72381397,18.86169653,19.45105318,17.96288574,0.951841518,1,0.982626499,0.991514695,1,1,1,1,34.6223015,-82.7364835,2018,SCH1
W10004_0216/PHZ51,NYH2_2017,Y,17.7,731.1212129,0,2,229,110,65,64,4.985806354,2.593333337,3.453715005,5.89688957,0.948070192,3.208418109,2.379655727,2.694333021,3.397972982,154.559997,23.34000003,55.2357889,222.9889478,1.763157895,41.81263091,117.7794744,23.637895,104.1910535,18.91896409,18.22902181,21.62310913,19.28169434,21.2024166,18.91678159,16.97406986,13.88043676,9.439494818,16.54903238,19.80111122,22.34881997,25.65461899,27.16105275,25.3148988,23.28803047,24.25146582,18.24460841,5.239677404,10.2422222,10.55939387,15.21770316,15.87359667,14.84504335,11.5614249,11.15398494,7.352427253,6.267898103,8.570747831,9.793885142,12.80097944,13.68904673,12.46138399,10.55155578,10.87663924,7.688896934,0.638917053,1,1,1,1,0.981507475,0.966916282,0.722284214,42.73248125,-76.65275025,2017,NYH2
PHW52/PHN82,ONH1_2015,Y,35.5,719.5365458,0,0,232.5,130,88,88,1.605625002,2.296315821,1.411426091,1.973297954,0.512941169,3.436769168,2.641035405,1.799953816,2.360571209,51.38000005,43.63000059,20.30117703,73.50294104,0.81882352,40.73352947,103.9364728,19.58470627,71.14882509,18.02169462,20.4737019,23.34007091,22.64543997,20.24065375,18.07254412,18.60447299,14.22755231,12.21920895,9.771562532,12.63473691,23.7578119,26.83441686,29.90941261,27.46928249,26.11972075,22.82201755,18.35250846,-0.327500018,2.045263152,11.01347606,13.31919887,17.43313718,16.50329302,14.06775752,11.69572195,7.013714688,2.851211725,4.201400589,10.67713105,12.77399982,15.76589753,14.15032606,12.63577386,10.48249806,7.379159901,0.167098218,0.403345874,0.957007131,0.991950294,1,0.994472794,0.939113043,0.772366561,43.49741975,-80.44806025,2015,ONH1
CG44/CGR01,TXH1-Dry_2018,N,9.8,706.0211008,0,2,201,61,67.5,64,2.442333295,0.87833333,4.91741256,2.91095925,1.112321411,5.987347663,3.094033648,2.445309502,2.573656677,73.26999886,5.269999981,55.2178573,113.3721426,4.449285643,64.36357035,86.72785865,13.67714274,77.357857,13.4988633,14.49154552,13.92485348,19.6618496,19.390827,19.64184359,19.38410293,21.21373351,18.01258323,19.68933331,26.95833333,25.66614373,26.56996845,30.24238085,29.14372996,31.91805433,33.2644762,34.51160554,6.357666679,15.03999996,15.13755815,13.69055459,18.24071415,16.44843436,20.63070323,20.50154739,23.97494014,7.613570572,13.40715604,12.87528071,12.79536137,16.34410207,15.0664779,18.21233438,18.75919739,20.40606275,0.821476194,1,0.991620595,0.99408643,1,1,1,0.999013392,30.546318,-96.4329965,2018,TXH1-Dry
PHN11_PHW65_0323/LH195,IAH4_2017,N,22.6,704.7339156,31,1.5,217,109,73.5,70.5,3.054193612,4.63857133,5.654282844,2.356146022,0.145000003,0.823262634,3.029939984,2.506485397,3.022032747,94.68000197,32.46999931,92.55000019,79.81000018,0.290000005,7.931363713,110.0431818,17.65818187,91.79227275,19.60434628,22.37855189,18.81628808,21.46940114,22.42332305,21.26952374,19.1513695,15.94205759,15.34138578,17.83935482,25.21428544,21.76755785,28.88340452,30.88984893,30.99338411,28.30609907,26.26622464,25.93438806,4.952580655,10.13999993,10.24708413,15.02150207,17.47128796,18.07608078,15.80662465,13.87026602,12.51354651,6.575243948,10.82301274,9.649960621,14.3656457,16.22810104,16.57398155,14.36597852,12.57546566,12.06214068,0.727396317,1,0.910082199,1,1,1,1,0.987168831,41.99455432,-93.69030947,2017,IAH4
F42/MO17,INH1_2016,N,20.45,667.4055438,29.5,27.5,286,150.5,64.5,63.5,3.034516148,1.382857186,3.106568823,3.966270256,3.500454469,6.752636371,3.451172643,3.198528118,3.024422797,94.07000059,9.680000305,31.26000059,138.8759105,3.500454469,67.52636371,113.8927274,21.6654544,92.62590972,17.63328649,23.97511796,20.66441577,20.1236558,19.9706746,19.39149484,18.14527656,15.98533716,14.62820237,18.74516109,26.31142807,27.84898846,28.12893417,28.20272714,29.14504538,29.16779001,27.95564941,27.07739093,7.950322636,11.69428553,16.31817922,16.10606538,16.8522731,18.34872752,18.58889605,17.50284626,15.03841012,7.677100472,11.91689015,14.24288378,14.4184555,14.68521604,15.7994256,15.9329094,14.92238151,13.51734692,0.852649763,1,1,1,1,1,1,0.996102814,40.4787595,-86.98982,2016,INH1
W10001_0022/PHB47,IAH4_2015,N,15.8,720.823731,14,11,244.5,118,65,64,1.42451612,4.854615514,2.513668144,6.351127419,5.46999979,2.154687441,1.85099418,0.335758934,4.064770202,44.15999973,63.11000168,35.58999979,218.2399999,10.93999958,20.30812445,58.48687407,2.377500039,125.1143763,19.83997888,19.28772805,16.02270398,20.69822917,17.27718186,21.35831173,20.17303565,19.59360772,15.6142427,15.83032262,16.78769229,22.26164163,27.88725423,29.37999988,31.52784708,28.69895342,30.18404469,25.46833276,2.473548389,5.024615425,13.48280789,16.59868734,20.37374985,19.78628468,17.37298211,16.89515858,12.68514048,5.318693913,6.228847238,10.78291245,14.47529064,16.87687486,17.66054739,15.18141656,15.71210426,12.05907357,0.585391697,0.659230777,0.98994413,1,1,1,1,0.952600636,41.19970961,-91.49362406,2015,IAH4
F42/MO17,IAH4_2019,Y,29.875,665.4747659,8.25,0.5,258.75,132.25,59.25,58.25,7.44874995,0,6.508814674,5.652572602,2.433809479,0.731547632,2.455795253,7.856419535,5.758725846,238.3599984,0,89.12928634,169.456428,4.779285618,8.60571444,106.5300014,62.81714391,173.1250012,18.61457558,24.25652275,18.80062453,19.64217675,17.01762246,21.29967345,16.82875041,12.82062273,10.73648339,20.72718754,29.98400002,24.57226332,29.58102216,28.11761892,27.58625519,26.21902431,25.70162766,18.66579105,8.655312385,16.39199963,13.30590142,18.52555793,18.42333308,15.4118289,14.78252205,14.57801647,7.354403302,8.719182336,15.28713381,11.55896644,16.12377034,15.4195504,13.79277779,12.9189296,12.78184671,8.051480754,0.866629464,1,1,1,1,0.996735112,0.969646609,0.721601517,42.03193798,-93.79333213,2019,IAH4
B73/PHM49,MIH1_2018,N,23.53333333,680.0628653,0,2,233,117.3333333,65.33333333,63.66666667,5.012258064,1.858571376,2.303311915,3.259516918,0,1.604151199,2.926198314,4.215530212,2.830074039,155.38,13.00999963,29.79071396,101.4421425,0,18.16214306,122.3414291,36.1057143,85.34142821,19.78619528,22.4124418,25.08845985,20.26124585,21.4032747,19.63779009,17.59687557,14.64655727,11.33533343,19.08258061,24.4042857,26.50594484,29.85917276,29.20761908,28.94024759,27.00181445,23.87253837,17.74080494,7.633548365,11.57000004,11.5577044,16.90410614,16.77238059,17.0588351,14.06431329,11.77329027,6.160183734,7.985580948,11.08545818,11.96011996,15.51317333,15.06763476,15.11768347,13.15911947,11.00371024,6.94989994,0.750656678,0.993928569,1,1,1,0.982067155,0.951173414,0.716707841,42.689234,-84.49755575,2018,MIH1
PHG39/TX205,OHH1_2017,N,25.55,687.3569149,0,2,229,110,65,64,4.401935447,12.29571451,4.299880116,6.252045262,18.36299991,4.892395558,3.195317293,3.431958172,3.794688752,136.4599988,86.0700016,53.63949916,223.8204996,40.86499989,50.26800107,124.097,30.99400014,115.4320013,19.0647902,19.03427505,21.00226491,20.15032754,19.69555429,18.89580098,18.69837911,16.0400155,13.85510684,20.47903239,25.43142836,25.24002704,27.25803818,28.09541678,28.73270468,26.30456447,24.69395371,24.25720733,8.011935501,13.44999967,12.59882409,15.91673102,16.75358336,18.39824095,14.97688189,13.11535887,11.81284403,8.407228033,12.106522,11.63721293,13.8931373,14.6377479,15.63224373,13.07252875,11.66012039,11.13333271,0.85352535,1,1,1,1,0.996926048,1,0.96495674,39.855785,-83.66477375,2017,OHH1
2369/LH123HT,MIH1_2017,N,28.8,676.4158404,0,12.5,112,64.5,69,70,2.651290334,1.642500043,0.365195355,3.685889798,0.022982455,0.462972321,1.745768067,1.924198947,6.215848807,82.19000036,13.14000034,4.417894763,131.6678931,0.068947365,5.871578781,77.40789432,25.15789459,187.919471,20.75480046,19.52619267,24.47429891,19.89055103,21.94334328,22.12060477,17.47908742,14.76431364,9.641321864,18.99677434,22.1187501,26.44652255,27.49693157,27.7329823,27.82492569,25.37386911,24.10071042,20.63989867,5.961290348,11.91874993,11.36318641,16.0503933,16.08877179,14.96255052,12.27657104,9.93890341,8.936309075,7.303217139,10.01258026,11.86785018,14.06113521,14.11607898,13.75096176,11.67659513,10.59348898,9.148775778,0.770126733,1,1,1,1,0.999072621,0.949278334,0.816440377,42.68116575,-84.49434125,2017,MIH1
PHG29/PHG47,ONH1_2017,Y,30.7,653.2465062,0,2,250,105,74.5,74.5,4.42290319,4.904999876,1.545173221,3.420435244,1.695375006,2.594700004,1.855534774,1.54565171,2.383111348,137.1099989,49.04999876,23.52600009,140.8034994,5.378000009,36.46150006,95.23350107,29.85300009,72.44250006,18.65662235,17.08545341,23.10813164,20.12586768,18.11232318,19.44819915,16.33652997,11.62209215,7.957733996,13.94322577,18.20700026,22.35689536,24.80045755,25.17183321,25.2296929,22.79396283,22.13957367,13.29532023,3.578387066,9.706999969,10.10387851,14.12185296,14.82349991,13.63261195,10.3904862,9.847475595,3.166289439,4.958212412,8.025894563,9.659097931,11.97096233,12.35740613,11.98311106,9.953455995,10.0654016,5.273375752,0.439723498,0.877642858,1,1,1,0.972410901,0.840292505,0.515578473,43.49546,-80.42596875,2017,ONH1
TX714/PHZ51,TXH1_2015,Y,11.15,750.4289914,0,2,158.5,93,69.5,69,2.435333351,0.886666695,4.529386736,2.992210444,0,5.407499953,3.236240411,4.528416659,2.205666663,73.06000052,5.320000172,54.16999972,113.7899998,0,59.48249948,89.11249819,24.54499996,66.1699999,13.38128519,15.80308406,13.73749678,19.48289484,22.46598899,19.96463979,19.54848583,19.57031498,18.03135075,19.61999995,26.26833312,25.8489028,26.4780255,30.37177098,28.79539756,31.9014052,33.48070828,34.35516661,6.122333375,12.74499997,15.39155332,13.69439061,15.83385423,15.9580683,20.41172374,21.45270844,23.93220836,7.516768444,12.28221354,13.06030889,12.7550996,15.35592881,14.67426974,18.11040569,19.30603111,20.37775841,0.822428569,1,0.992325397,0.994092815,1,1,1,0.999431249,30.54708625,-96.43393475,2015,TXH1
B37/OH43,NYH3_2015,Y,23.2,731.1212129,1,2,247,136,79.5,78.5,4.268387075,0,1.234803629,3.315485905,3.744705864,3.708743319,2.034738589,2.091907533,2.160160663,132.3199993,0,17.66999944,111.4647067,9.843529393,38.42352946,75.35117763,21.49235322,65.37235311,20.95885717,21.76160183,22.01003167,20.47654391,19.37507164,18.84800849,18.09954582,14.25866518,12.17165493,15.21516129,28.41399994,23.9726608,27.94852153,28.22411762,29.00645443,26.88612691,22.65429039,19.02039094,3.206451565,16.00799999,11.62235867,15.61032629,16.7502941,17.72633694,14.88804443,11.60832066,7.356588233,5.349626667,14.38734971,10.95773449,14.17183136,14.61937489,15.41213998,13.31670354,10.34569698,7.707711279,0.504331792,1,0.97267375,0.996219796,1,0.995345527,0.95775528,0.812032548,42.7233625,-76.6555945,2015,NYH3
2369/LH123HT,WIH1_2017,Y,23.1,691.8620632,0,2,293,152.5,80,80,3.894838602,1.694000003,3.49156578,6.251914317,26.29780264,12.3515148,1.782621048,1.031219451,2.019413967,120.7399967,16.94000003,60.77000046,238.2086357,55.48409002,148.2181776,77.27181808,11.13545426,60.74545419,17.96009764,21.56986256,18.71582301,20.73316127,19.69440102,19.58726141,19.1692292,15.69151392,12.21998586,16.03451621,20.2119998,20.22998088,26.71060266,27.00553033,27.16428033,24.80808837,24.03641879,21.845045,3.37838715,6.260000002,9.268565708,14.6662765,15.35575767,16.21109857,13.17589581,11.52521119,9.509429623,5.507434962,7.720411242,8.664602637,13.14891279,13.46068042,13.9043846,11.67856357,10.90146065,9.608265423,0.606900932,0.8735357,0.867893568,1,1,0.998220242,0.971647403,0.89569217,43.05668125,-89.5308135,2017,WIH1
CG119/CG108,ONH1_2015,Y,23.3,718.8929531,0,0,250,135,77,77,1.605625002,2.296315821,1.411426091,1.973297954,0.512941169,3.436769168,2.641035405,1.799953816,2.360571209,51.38000005,43.63000059,20.30117703,73.50294104,0.81882352,40.73352947,103.9364728,19.58470627,71.14882509,18.02169462,20.4737019,23.34007091,22.64543997,20.24065375,18.07254412,18.60447299,14.22755231,12.21920895,9.771562532,12.63473691,23.7578119,26.83441686,29.90941261,27.46928249,26.11972075,22.82201755,18.35250846,-0.327500018,2.045263152,11.01347606,13.31919887,17.43313718,16.50329302,14.06775752,11.69572195,7.013714688,2.851211725,4.201400589,10.67713105,12.77399982,15.76589753,14.15032606,12.63577386,10.48249806,7.379159901,0.167098218,0.403345874,0.957007131,0.991950294,1,0.994472794,0.939113043,0.772366561,43.49741975,-80.44806025,2015,ONH1
PHW52/PHM49,WIH2_2019,N,37.125,638.7656723,0,3.75,247.0833335,118.3333333,71.75,71.25,5.084687524,1.186666648,3.682690384,5.868440751,0.695238091,4.73009737,4.315774648,4.395502279,4.547947068,162.7100008,7.119999886,58.08928529,183.8007161,1.222857135,55.05428533,207.5435701,59.53000056,136.8792876,20.51840827,23.10255337,19.84622659,19.54978709,22.13574316,19.04821964,14.90817086,12.98397937,9.337872891,18.93468753,26.85500018,22.80729416,28.92841129,27.86750015,27.53142967,23.33864799,22.30785619,12.19546616,7.173437506,12.79833317,11.75963315,17.3057567,14.67845241,15.42498763,12.56161555,11.34993986,2.687473085,7.568173943,12.44054354,10.32084191,15.24419851,13.63574066,13.78240318,10.8770868,10.55092288,4.713570865,0.808549105,1,0.995612408,1,1,0.966295589,0.875965566,0.450550638,43.320768,-89.33189475,2019,WIH2
B37/H95,MOH2_2015,N,15.35,731.1212129,0,0.5,225,105,74.5,73.5,3.914838722,3.534545422,2.891676029,5.446623968,2.505882375,1.1137255,5.068586465,0.980448186,4.011119538,121.3600004,38.87999964,35.23176398,173.6929392,5.011764751,10.0235295,148.9223525,6.487058864,124.3447057,19.08701148,18.12534948,17.16717858,21.59629129,16.88945411,20.34516158,18.32895435,19.90608894,16.95494386,18.756129,18.24727275,23.87322904,29.02836507,30.59176479,31.93248319,30.27285599,28.73220747,28.34062618,6.152580692,8.059091026,15.30129973,17.80114352,21.94705907,21.39261428,20.17023127,17.40519331,17.20941189,7.288196993,7.58478923,12.05891064,15.51775091,18.26941193,18.66254873,17.2518739,15.21359182,14.97078901,0.75554147,0.814935086,1,1,1,1,1,1,38.89807917,-92.2079,2015,MOH2
LH195/LH82,NEH3_2017,N,31.4,709.8826565,0,15.5,171.5,76.5,65,64,6.03471326,3.955444498,0.18882913,3.842009577,1.316296295,1.435570981,2.764433094,3.912023778,4.15136979,187.076111,38.21611161,1.987222274,117.8244439,3.948888885,12.8655555,93.99333183,27.38611089,126.3194449,18.53150537,21.70326166,24.15860034,20.80931081,18.66603313,19.02487726,18.75887595,17.51813417,15.15718003,20.20137986,23.21257118,30.13389904,30.13339279,32.06462927,32.76776237,28.39622898,27.87449379,27.0242909,7.908297486,10.26215086,15.17879712,16.87891665,20.62425956,20.98993062,16.95054818,15.08081369,13.75654417,8.47748899,10.0955543,14.95078719,15.67969265,18.3413362,18.75248222,14.77642402,13.79312874,13.00111339,0.783510626,0.953819441,1,1,1,1,1,0.993105158,41.162,-96.409,2017,NEH3
TX714/PHZ51,NCH1_2017,N,16.45,731.1212129,0,1.5,251.5,122,65,64,5.929354779,4.097142833,0.297958702,3.860588722,6.673809642,5.437090039,2.513672686,1.67758051,4.140460835,183.8099982,28.67999983,4.023333254,115.8195228,10.90952401,51.84571517,65.15761944,9.68857149,128.3542859,16.84796118,19.66078799,22.20077414,19.20396089,15.77249108,20.54839894,18.7994723,19.26606379,16.40835168,26.07000006,23.57857159,28.17011276,29.72614366,31.01404729,30.48814813,32.54721675,31.95695904,30.43138246,13.64064524,11.25142826,15.69757802,18.87536398,22.57674573,19.84793622,22.28039625,21.2748593,20.81350234,12.56442422,10.48784987,14.26665949,16.36044911,18.79940835,17.21144066,19.38557496,18.57336573,17.65269876,0.998329492,1,1,1,1,1,1,1,35.29663725,-77.5668065,2017,NCH1
TX779/LH195,NYH2_2020,N,19.45,702.1595451,0,2,223,111.5,78,76,4.422257993,0,1.391731236,3.182357247,6.170888774,3.507901041,2.283490724,1.426918664,2.172175634,137.0899978,0,18.68266731,113.2706661,12.6093331,36.98266699,88.46933366,18.14666667,65.61600019,20.94267544,21.78244971,21.55666085,20.64321436,19.27786447,18.92984529,17.76882093,13.77968924,11.70490539,14.55447306,27.94977782,23.62933928,27.86541297,27.88688897,28.78672537,26.53302948,21.56675493,18.20507674,2.61195699,15.66431106,11.35573055,15.51025755,16.31100023,17.48208292,14.53826355,10.86377734,6.879177126,4.979415324,14.02697238,10.70801105,14.09392345,14.22879085,15.20067311,13.04971037,9.749522427,7.387680802,0.470065285,1,0.969822941,0.995242037,1,0.988859641,0.904446401,0.765938608,42.73230075,-76.65036275,2020,NYH2
PHG39/PHN82,DEH1_2019,N,20.775,712.1352307,0,3.75,225.25,105.25,59.75,58.25,4.885483834,0.129999995,2.22754366,2.838879743,7.092619056,13.09007943,2.376059147,7.246095167,5.291338731,151.4499989,1.169999957,29.41999924,87.75142762,13.32785715,117.8107149,70.17642808,38.82285679,163.7607149,18.09422633,22.52754413,19.09832956,21.10549391,16.87992425,18.38683534,17.43790908,14.47643482,15.18822094,17.49129031,20.55777783,23.08374535,28.61102885,30.70333358,31.53571423,31.96636291,30.10673826,28.44137569,7.04516129,9.184444467,14.30050877,18.34149326,20.74333359,21.70119062,22.68293302,22.03347627,19.57253904,6.992168387,8.735510177,11.41430501,15.6056687,17.71122979,18.59296506,19.259015,18.07354239,16.13042035,0.769815656,0.948412699,0.988507504,1,1,1,1,1,38.670675,-75.433225,2019,DEH1
B73/MO17,WIH1_2019,Y,24.15,691.2184706,0,0,248.335,132.5,80,80,3.104193578,4.990909143,3.989206625,5.063632664,7.174102343,5.657788874,3.979490855,4.117971668,7.043559998,96.23000091,54.90000057,56.46538491,184.9676922,7.656153606,56.9199983,170.6046141,43.34153838,211.8461548,19.32800511,20.47989629,21.14585761,19.94081469,20.4834897,19.00171798,17.70480678,14.70759561,11.13260624,14.4303226,19.6027272,23.71186264,26.54399323,29.1737175,29.51828996,25.99775321,22.10125555,19.22207941,3.044193574,6.375454621,11.90649765,15.02653282,17.46782019,18.4264638,14.78313726,11.24849031,9.42963116,4.974875238,7.497369644,10.75801096,13.26663909,15.42227287,16.03343447,12.80151602,10.12875121,8.730340077,0.520449311,0.882272729,0.994529143,0.999440504,1,0.998245342,0.92932789,0.792629622,43.060857,-89.494068,2019,WIH1
B14A/OH43,MOH1_2016,N,19.4,731.1212129,0,2,267.5,132.5,56.5,55.5,2.465483877,8.058000231,0.264259377,6.282521268,1.94553035,9.25680559,4.358907121,3.354664451,5.453130527,76.43000019,40.29000115,2.879999995,172.8372758,4.262727369,83.20363667,125.2090916,21.13363606,168.2240918,20.2309363,16.93509369,22.49829557,20.20959989,18.68177986,19.21408964,18.0090922,17.17714413,15.87534947,21.83193548,27.56600037,27.88644765,31.21215235,30.25795442,31.2505745,30.57423065,29.80077912,28.25339236,10.073871,16.74400005,16.26474463,19.86215984,19.98371223,20.49117413,20.76153791,19.91431794,17.56318368,9.497798547,14.24343349,14.21296425,17.47336946,17.12232598,17.8699151,17.65104862,16.90998551,15.09561117,0.937315665,1,1,1,1,1,1,0.999442641,38.8955475,-92.2072025,2016,MOH1
B14A/H95,MOH1_2019,N,17.85,731.1212129,0,0.5,193,94.5,64.5,63.5,4.907419428,9.604285649,1.196872498,5.110410132,2.801666578,0.134444442,2.379708247,7.113428694,4.895301043,152.1300023,67.22999954,11.80625023,164.838749,8.404999733,1.209999979,75.06875065,40.48125055,151.407499,17.06584337,18.93672998,19.67293901,19.7601386,19.15913832,21.9354776,19.8853634,16.02367873,15.25367059,21.02129029,24.39000021,28.1749685,28.34324165,30.6675001,31.10263872,30.50513849,30.12964257,28.72433606,9.960645122,13.42857129,17.39529908,18.05620523,21.36166632,20.47986097,19.32223721,20.23911926,18.26780907,9.14854411,11.68484074,14.86417974,15.32069344,18.01458321,17.78759074,16.90970541,17.17973687,15.57482707,0.941624426,1,1,1,1,1,1,1,38.8956125,-92.20883,2019,MOH1
B97/PHB47,OHH1_2017,Y,17.7,731.1212129,0,2,229,110,65,64,4.401935447,12.29571451,4.299880116,6.252045262,18.36299991,4.892395558,3.195317293,3.431958172,3.794688752,136.4599988,86.0700016,53.63949916,223.8204996,40.86499989,50.26800107,124.097,30.99400014,115.4320013,19.0647902,19.03427505,21.00226491,20.15032754,19.69555429,18.89580098,18.69837911,16.0400155,13.85510684,20.47903239,25.43142836,25.24002704,27.25803818,28.09541678,28.73270468,26.30456447,24.69395371,24.25720733,8.011935501,13.44999967,12.59882409,15.91673102,16.75358336,18.39824095,14.97688189,13.11535887,11.81284403,8.407228033,12.106522,11.63721293,13.8931373,14.6377479,15.63224373,13.07252875,11.66012039,11.13333271,0.85352535,1,1,1,1,0.996926048,1,0.96495674,39.855785,-83.66477375,2017,OHH1
PHW52/PHM49,DEH1_2020,N,24.3375,682.208174,0.25,0.375,235.375,118.875,65.125,63.5,3.884838689,2.918749928,0.484801506,3.712682555,3.963928495,10.54878945,3.680508849,4.08975176,5.319973187,120.4299994,23.34999943,5.74999997,113.1935704,6.565714155,94.92928366,102.5935729,23.16642891,164.6128593,19.34389959,17.33862388,21.23126246,20.37262205,20.84469896,18.13380163,16.82964191,15.50064315,15.14081803,17.43483888,21.1624999,25.02143811,29.01024665,32.25440507,31.30417669,31.95048154,29.3682824,28.21514964,6.792903194,12.85250008,15.40184434,18.86790491,21.28607132,21.93053571,22.84339264,21.06525136,19.30786859,6.86665098,10.04482466,12.64072343,16.02028347,18.72161765,18.60397455,19.32804006,17.22313801,15.91003144,0.79362904,0.982098209,1,1,1,1,1,1,38.628981,-75.46566025,2020,DEH1
LH212HT/LH195,MOH2_2015,N,14.35,731.1212129,0,1,217.5,115,77,76.5,3.914838722,3.534545422,2.891676029,5.446623968,2.505882375,1.1137255,5.068586465,0.980448186,4.011119538,121.3600004,38.87999964,35.23176398,173.6929392,5.011764751,10.0235295,148.9223525,6.487058864,124.3447057,19.08701148,18.12534948,17.16717858,21.59629129,16.88945411,20.34516158,18.32895435,19.90608894,16.95494386,18.756129,18.24727275,23.87322904,29.02836507,30.59176479,31.93248319,30.27285599,28.73220747,28.34062618,6.152580692,8.059091026,15.30129973,17.80114352,21.94705907,21.39261428,20.17023127,17.40519331,17.20941189,7.288196993,7.58478923,12.05891064,15.51775091,18.26941193,18.66254873,17.2518739,15.21359182,14.97078901,0.75554147,0.814935086,1,1,1,1,1,1,38.89807917,-92.2079,2015,MOH2
B14A/H95,TXH2_2019,Y,11.27,810.1028988,0,0,198,77.5,71,69.5,1.71448275,0.072857141,3.656594302,9.095434564,0.409285716,1.207678571,5.355850783,1.246142852,1.574419343,49.71999974,0.50999999,52.00785631,328.2121388,0.592857139,9.661428571,146.4478573,6.531428533,47.51499965,15.42805705,20.52131135,18.76898834,18.57032559,21.42349659,18.85281525,20.14881361,21.03072751,19.84089234,18.45000007,25.76428577,24.43254944,27.27586732,31.09000002,32.37866099,32.72435205,34.04471448,34.98200776,6.826206914,10.35000004,10.67963154,14.78766739,18.65857179,21.85071427,21.02442735,21.79614282,22.6049739,7.457816468,11.1589152,10.85119479,13.46630403,16.91193677,19.11412105,18.84765314,19.77807102,20.01419559,0.749667494,1,0.945308164,1,1,1,1,0.999698925,30.546318,-96.4329965,2019,TXH2
CG119/CG108,SDH1_2015,N,12.3,688.0005075,0,5.5,150,83.5,63,63,1.890000034,2.68444448,2.847212523,0.928406021,1.08916667,1.213193166,1.12388612,3.994558873,0.570569385,58.59000105,24.16000032,33.86000057,31.14874977,1.720000006,12.77624983,39.02562428,27.90249949,17.65812508,21.16446504,23.3864585,24.03054242,23.94878495,21.74335716,21.42490048,20.60212775,16.27746828,15.18579983,19.04290341,22.5888888,27.20826416,30.46229654,29.54760476,31.86073879,31.47770382,29.48664523,24.89733582,4.208709664,8.468888919,11.69082143,14.25969647,14.29062517,16.06534098,14.02269822,14.11578116,6.942900096,6.807516906,9.210660666,12.27390437,14.67606113,14.18888263,15.81431879,15.00552731,14.17539039,9.834808296,0.77025346,0.983690483,1,1,1,0.983472358,0.961069402,0.950039755,44.208745,-102.928745,2015,SDH1
CG44/CGR01,INH1_2020,N,16.22,737.2675224,5.75,1.75,199.825,100.575,58.75,57.5,2.63064515,6.092222161,2.380905542,2.638028789,0.629411796,2.977235278,3.349803369,1.095052516,1.575144189,81.54999965,54.82999945,26.35000017,86.90176377,0.755294155,29.77235278,114.9176474,7.60117643,48.41470517,19.12040675,14.46862051,21.68340347,21.75389977,20.24839053,19.66959435,18.78188958,18.00828299,15.45076636,15.20677414,20.6899999,27.1104927,29.42650107,32.0752936,30.36388222,28.15834081,28.66782236,25.41333794,2.934193564,11.51555562,15.17811918,16.46944194,19.37588254,18.23752946,16.66734055,16.5683672,12.52337519,5.193705795,9.337664252,13.54219901,15.16026165,17.73146127,16.3694037,14.61167179,14.83949529,11.90095499,0.576025338,0.994801587,1,1,1,1,1,0.975702381,40.4787965,-86.9895995,2020,INH1
B14A/H95,KSH1_2015,N,13.35,768.4495847,0,2,229,110,85,82,0.688124985,3.518749885,2.537239536,4.634326915,6.340784251,4.013516285,5.753010874,3.95559662,1.81791271,22.01999953,28.14999908,47.40176476,147.1705882,9.165882307,38.18235242,161.646473,23.74705871,56.35529401,19.48910828,20.34062409,19.21958791,21.30664108,18.00351726,18.80818483,18.60066932,17.86718078,18.78253622,17.69406253,22.96750021,19.85221485,29.31892792,29.11705877,31.41670577,31.16760655,30.50505886,29.96204923,3.297187492,8.938749969,8.792561365,16.998743,18.09705929,19.84989561,20.1377744,20.03282345,17.06836811,6.184738542,9.476230158,8.381520189,15.38816616,15.61697663,17.65547515,17.65556265,17.32458654,15.75670183,0.6778125,1,0.850138809,1,1,1,1,0.98304554,39.21641775,-96.60482225,2015,KSH1
B37/MO17,TXH1_2015,Y,11.3,734.339176,0,2,174,90,73.5,69,2.435333351,0.886666695,4.529386736,2.992210444,0,5.407499953,3.236240411,4.528416659,2.205666663,73.06000052,5.320000172,54.16999972,113.7899998,0,59.48249948,89.11249819,24.54499996,66.1699999,13.38128519,15.80308406,13.73749678,19.48289484,22.46598899,19.96463979,19.54848583,19.57031498,18.03135075,19.61999995,26.26833312,25.8489028,26.4780255,30.37177098,28.79539756,31.9014052,33.48070828,34.35516661,6.122333375,12.74499997,15.39155332,13.69439061,15.83385423,15.9580683,20.41172374,21.45270844,23.93220836,7.516768444,12.28221354,13.06030889,12.7550996,15.35592881,14.67426974,18.11040569,19.30603111,20.37775841,0.822428569,1,0.992325397,0.994092815,1,1,1,0.999431249,30.54708625,-96.43393475,2015,TXH1
LH74/PHN82,GAH1_2015,N,14.15,721.4673236,0,0.5,175,80,58,58,4.231249915,0,5.95843649,3.852603143,2.594000032,2.429925956,4.217759372,2.225466652,2.667397826,135.3999973,0,82.56599903,137.5619979,4.851333332,21.8693336,117.5779999,11.12733326,82.68933261,16.59936112,21.58269278,19.11661296,20.61616366,14.5260024,17.86473659,19.792993,19.1551459,18.46432438,25.43281227,26.81500022,26.00854227,27.82657943,29.9603331,30.57562955,31.8228303,33.58693334,33.75221527,12.50374998,10.5999999,12.24448314,13.90452364,20.76811106,20.25348139,20.64254904,22.17719986,22.29090342,11.85447967,11.72664631,11.94062668,13.41492991,17.36422208,17.41455547,18.23714923,19.83066815,19.89653894,0.988973219,1,1,1,1,1,1,1,31.505771,-83.555095,2015,GAH1
PHG80/PHZ51,NYH2_2015,Y,17.45,731.1212129,6.5,0,266,135,82,82,3.814193487,2.822857129,1.806874641,1.427310218,14.28882354,6.323155046,2.553769654,1.263651931,1.70374005,118.2399981,39.5199998,23.5252947,50.99705838,17.86235295,65.18176435,90.43176518,10.71352917,51.74117684,19.21827184,21.58410556,20.44972798,21.8367517,17.34067749,18.34945618,18.49425604,17.55625849,13.84215422,11.26903224,15.86071418,24.70888252,27.12764594,29.5805878,28.55383422,27.75922879,25.11594081,20.73318661,0.676451599,3.065714287,12.68317757,14.19692254,19.48862723,17.66257776,16.12899413,12.03346763,8.797239788,3.458861152,5.522653893,11.65565145,13.2498794,16.56577659,15.18766176,14.16580901,11.53845799,8.731216192,0.261509218,0.568112238,0.971160735,0.994106254,1,0.999864887,0.980226591,0.898542131,42.7324825,-76.65277775,2015,NYH2
B14A/OH43,MIH1_2019,Y,17.85,723.3981015,0.5,19.5,228.5,123.75,65.5,65,3.720322615,6.189999878,7.0818969,2.961916884,8.70871786,0.913986013,1.817216317,4.468053866,4.013250907,115.3300011,49.51999903,106.8900002,93.8269235,16.81999984,10.80615383,84.36076873,63.3192304,120.886153,19.31986936,19.65939665,18.51979106,21.00444556,17.01540622,20.04742627,16.96863927,12.02893287,10.87568864,17.60709666,21.67250037,22.690749,28.9340566,30.56538516,27.94921954,26.00654686,21.50260694,17.46530245,6.210322559,10.31875008,12.21847794,16.86604701,18.743333,15.85306519,14.00590995,11.32576155,7.161163464,6.876773896,9.314382636,10.39761731,15.10453275,16.86261297,14.19391073,12.58553183,10.00606366,7.511656803,0.696382483,1,0.995173883,1,1,0.988904737,0.895422602,0.709438731,42.70789125,-84.4706665,2019,MIH1
PHN11_PHG47_0251/PHB47,WIH1_2017,Y,18.25,700.2287673,0,2,251,115,75,75,3.894838602,1.694000003,3.49156578,6.251914317,26.29780264,12.3515148,1.782621048,1.031219451,2.019413967,120.7399967,16.94000003,60.77000046,238.2086357,55.48409002,148.2181776,77.27181808,11.13545426,60.74545419,17.96009764,21.56986256,18.71582301,20.73316127,19.69440102,19.58726141,19.1692292,15.69151392,12.21998586,16.03451621,20.2119998,20.22998088,26.71060266,27.00553033,27.16428033,24.80808837,24.03641879,21.845045,3.37838715,6.260000002,9.268565708,14.6662765,15.35575767,16.21109857,13.17589581,11.52521119,9.509429623,5.507434962,7.720411242,8.664602637,13.14891279,13.46068042,13.9043846,11.67856357,10.90146065,9.608265423,0.606900932,0.8735357,0.867893568,1,1,0.998220242,0.971647403,0.89569217,43.05668125,-89.5308135,2017,WIH1
F42/MO17,NEH3_2015,N,19.65,698.2979894,0,0.5,229,110,65,62,3.231250057,0.918000031,0.565093977,1.286692195,3.19749999,1.391136354,0.258061221,1.474667183,0.155891338,103.4000018,4.590000153,6.150000095,39.04749978,4.720000029,15.30249989,11.17999983,14.52874985,4.648125023,21.79127574,25.69442635,22.86725485,21.82271665,15.26317632,20.59079,20.06412842,16.27968968,13.53861776,24.28750017,32.64599991,30.58771447,32.67731329,28.91593772,29.87238656,30.80707127,25.39031645,21.32018275,9.278749934,13.0079998,13.8828633,15.7826582,17.05531204,14.62710229,13.18313307,8.87540479,3.334017086,10.46257825,15.28330691,14.45465852,16.22005678,15.0938879,14.496454,14.53020136,10.90039565,7.851747396,0.909587052,1,1,1,1,0.965712824,0.862507779,0.80953931,41.15824525,-101.9872958,2015,NEH3
W10005_0107/PHB47,ONH1_2017,Y,26.7,639.7310613,0,3,245,115,76,76,4.42290319,4.904999876,1.545173221,3.420435244,1.695375006,2.594700004,1.855534774,1.54565171,2.383111348,137.1099989,49.04999876,23.52600009,140.8034994,5.378000009,36.46150006,95.23350107,29.85300009,72.44250006,18.65662235,17.08545341,23.10813164,20.12586768,18.11232318,19.44819915,16.33652997,11.62209215,7.957733996,13.94322577,18.20700026,22.35689536,24.80045755,25.17183321,25.2296929,22.79396283,22.13957367,13.29532023,3.578387066,9.706999969,10.10387851,14.12185296,14.82349991,13.63261195,10.3904862,9.847475595,3.166289439,4.958212412,8.025894563,9.659097931,11.97096233,12.35740613,11.98311106,9.953455995,10.0654016,5.273375752,0.439723498,0.877642858,1,1,1,0.972410901,0.840292505,0.515578473,43.49546,-80.42596875,2017,ONH1
CG60/LH162,WIH1_2015,Y,17.8,787.7573632,0,9,230,116.5,65,64,4.730000059,9.059999784,2.430610682,6.190059866,3.242812514,1.739310909,2.563222068,2.582604527,2.064862235,151.3600019,54.3599987,32.30062549,198.0887501,6.485625029,21.11437514,113.2525011,35.42937557,62.48000012,19.32367544,22.19104989,23.8972515,19.04105101,21.62804324,20.72553659,16.09255797,13.7227876,9.595561915,19.95718755,28.15000025,26.05326099,28.85932006,29.07385437,26.51056077,24.82739399,20.18089026,14.51549808,8.517187543,15.30499983,11.82802944,17.48783518,16.48010375,14.49615378,12.31509137,8.581945626,2.680440183,8.558350873,13.98301754,11.81015597,15.26183828,14.95581898,12.98753542,11.68123469,8.628108428,5.087550731,0.777276777,1,1,1,1,0.929186389,0.833919484,0.505939954,43.05511725,-89.528525,2015,WIH1
CG119/CG108,NYH2_2020,N,11.2,679.6338035,1,2.5,172,81.5,61,60,4.422257993,0,1.391731236,3.182357247,6.170888774,3.507901041,2.283490724,1.426918664,2.172175634,137.0899978,0,18.68266731,113.2706661,12.6093331,36.98266699,88.46933366,18.14666667,65.61600019,20.94267544,21.78244971,21.55666085,20.64321436,19.27786447,18.92984529,17.76882093,13.77968924,11.70490539,14.55447306,27.94977782,23.62933928,27.86541297,27.88688897,28.78672537,26.53302948,21.56675493,18.20507674,2.61195699,15.66431106,11.35573055,15.51025755,16.31100023,17.48208292,14.53826355,10.86377734,6.879177126,4.979415324,14.02697238,10.70801105,14.09392345,14.22879085,15.20067311,13.04971037,9.749522427,7.387680802,0.470065285,1,0.969822941,0.995242037,1,0.988859641,0.904446401,0.765938608,42.73230075,-76.65036275,2020,NYH2
2369/LH123HT,MOH1_1_2020,N,12.63333333,731.1212129,0,0,252.6666667,122.3333333,56.66666667,56.33333333,2.765624954,8.119999743,10.49656654,1.909885915,5.802857127,7.415295831,3.691475556,2.293301892,3.400930865,88.49999854,40.59999871,96.7978566,57.0957143,7.737142835,67.39857156,118.848571,17.52928566,104.715714,18.75466287,21.25211372,22.49923535,20.31658939,20.84622072,17.68630925,18.12476098,17.46293798,14.64158327,22.18656257,30.76999931,28.86546125,30.72469998,30.62226157,31.26253243,28.67352632,29.54480095,24.35225034,12.23093753,19.21800041,17.35636515,20.03188031,19.40511944,21.45309498,18.10676495,17.58972003,12.9136675,10.41798935,16.99399986,15.213465,17.3995364,17.01369051,18.36589209,15.51205264,15.80164337,11.56818364,0.936383936,1,1,1,1,1,0.995985623,0.962870504,38.8978375,-92.2070925,2020,MOH1
B14A/MO17,ONH1_2016,Y,32.2,621.0668754,0,8.5,211.5,125,86.5,84.5,1.979032247,2.105714291,0.92181366,1.439738287,4.720833318,2.435439396,4.62931563,1.31185227,2.043303741,61.34999967,29.48000008,13.31600007,60.28400005,10.99249999,28.54150001,172.0475013,11.37649985,61.38049932,20.24883872,21.56727634,23.77365349,22.41142308,19.3081847,20.61473607,17.12813691,15.31534219,11.6349499,10.49290321,16.47999988,25.01561457,25.51466922,28.22516696,27.99415914,27.31356147,24.49017951,20.3886015,-0.735806467,3.753571405,10.93050922,11.61184699,15.55325019,14.71775745,15.07244109,12.71620509,9.185787659,3.269306411,5.688768484,11.09209761,11.56175859,14.2216101,13.76399544,13.57642435,11.5133866,8.776899495,0.291105988,0.684668367,0.99891379,0.988093962,1,0.998165816,0.971212584,0.877977401,43.4997965,-80.451125,2016,ONH1
2369/LH123HT,OHH1_2017,N,18.75,743.9930652,0,2,229,110,65,64,4.401935447,12.29571451,4.299880116,6.252045262,18.36299991,4.892395558,3.195317293,3.431958172,3.794688752,136.4599988,86.0700016,53.63949916,223.8204996,40.86499989,50.26800107,124.097,30.99400014,115.4320013,19.0647902,19.03427505,21.00226491,20.15032754,19.69555429,18.89580098,18.69837911,16.0400155,13.85510684,20.47903239,25.43142836,25.24002704,27.25803818,28.09541678,28.73270468,26.30456447,24.69395371,24.25720733,8.011935501,13.44999967,12.59882409,15.91673102,16.75358336,18.39824095,14.97688189,13.11535887,11.81284403,8.407228033,12.106522,11.63721293,13.8931373,14.6377479,15.63224373,13.07252875,11.66012039,11.13333271,0.85352535,1,1,1,1,0.996926048,1,0.96495674,39.855785,-83.66477375,2017,OHH1
PHW52/PHM49,MNH1_2018,Y,22.795,694.8654954,0,2,237.5,99.16666667,64.5,62.16666667,2.793871032,5.664285694,1.881383508,4.66962568,0.280777779,5.314848416,5.503097756,4.902593174,1.744490341,86.61000198,39.64999986,19.66333312,156.0266671,0.653333338,61.18466587,207.3246693,42.5680015,52.61600056,18.68617175,18.6483766,23.22190313,20.23498137,21.88409551,21.20453879,17.43849101,14.02805899,11.47763682,18.24580648,23.51142883,30.49568208,28.40295697,27.67288871,27.88288382,26.24424925,23.489937,17.2954947,6.62290317,13.35285704,16.1020056,17.07111629,16.25377796,15.7901465,14.83515609,12.42970144,6.347470975,7.12789267,11.15082684,15.42136783,14.91719499,14.1582049,14.10491894,13.08066536,11.20324133,7.126560519,0.79756912,1,1,1,1,0.978734696,0.910102722,0.699884152,44.07044721,-93.53494127,2018,MNH1
CG60/LH162,MNH1_2018,N,16.81,765.2316216,0,2,235,100,53,49,2.793871032,5.664285694,1.881383508,4.66962568,0.280777779,5.314848416,5.503097756,4.902593174,1.744490341,86.61000198,39.64999986,19.66333312,156.0266671,0.653333338,61.18466587,207.3246693,42.5680015,52.61600056,18.68617175,18.6483766,23.22190313,20.23498137,21.88409551,21.20453879,17.43849101,14.02805899,11.47763682,18.24580648,23.51142883,30.49568208,28.40295697,27.67288871,27.88288382,26.24424925,23.489937,17.2954947,6.62290317,13.35285704,16.1020056,17.07111629,16.25377796,15.7901465,14.83515609,12.42970144,6.347470975,7.12789267,11.15082684,15.42136783,14.91719499,14.1582049,14.10491894,13.08066536,11.20324133,7.126560519,0.79756912,1,1,1,1,0.978734696,0.910102722,0.699884152,44.07044721,-93.53494127,2018,MNH1
LH195/LH82,MOH1_2017,N,17.525,731.1212129,0,1.75,221,105.75,63.75,62.75,8.937741737,9.40166688,2.512230721,3.318030003,5.035714369,1.794490762,1.996986524,1.220079397,1.67255761,277.0699939,56.41000128,33.26619119,103.9014299,11.93095259,15.87761924,65.30142803,7.334762096,51.25476209,18.72482054,18.08832916,22.62422694,21.00800173,18.77514496,19.93438148,19.70533138,19.36646121,17.34329115,21.92032254,25.32999992,25.47495036,29.30087203,30.46650729,32.25412016,29.92026774,28.22145964,28.04827898,10.06000005,15.27666648,12.99827088,17.39768618,19.78222205,21.21359122,18.70404881,16.33857143,14.9717184,9.612847321,12.76903024,11.94928206,15.49761919,17.12130987,18.67277384,16.20463701,14.48208578,13.92850008,0.915472353,1,1,1,1,1,1,0.999239796,38.89264,-92.2057525,2017,MOH1
F42/OH43,NYH2_2015,N,18.75,731.1212129,1,1.5,239.5,105.5,81.5,81.5,3.814193487,2.822857129,1.806874641,1.427310218,14.28882354,6.323155046,2.553769654,1.263651931,1.70374005,118.2399981,39.5199998,23.5252947,50.99705838,17.86235295,65.18176435,90.43176518,10.71352917,51.74117684,19.21827184,21.58410556,20.44972798,21.8367517,17.34067749,18.34945618,18.49425604,17.55625849,13.84215422,11.26903224,15.86071418,24.70888252,27.12764594,29.5805878,28.55383422,27.75922879,25.11594081,20.73318661,0.676451599,3.065714287,12.68317757,14.19692254,19.48862723,17.66257776,16.12899413,12.03346763,8.797239788,3.458861152,5.522653893,11.65565145,13.2498794,16.56577659,15.18766176,14.16580901,11.53845799,8.731216192,0.261509218,0.568112238,0.971160735,0.994106254,1,0.999864887,0.980226591,0.898542131,42.7324825,-76.65277775,2015,NYH2
CG119/CG108,WIH3_2020,N,17.325,757.5085102,0,0.25,211.5,99.75,55,53,2.733870995,5.446666638,6.112394342,4.74655674,3.655208389,1.04360979,2.527373572,3.69928986,2.61452892,84.75000083,32.67999983,82.9068754,167.6149986,8.003125131,12.58312517,113.8450009,40.74312496,78.93437568,20.41919384,18.2775027,21.33639865,20.40337995,19.49413761,18.99324058,17.80850823,14.15156863,10.1168501,15.48354838,26.52499994,25.39100386,27.30541678,28.00124967,27.24401428,25.77617537,21.78088819,14.67245705,3.106129019,15.18500026,12.31273591,15.12317531,16.14624966,16.31340126,13.17330579,9.92591724,4.431311843,5.287102842,13.2823578,11.70416503,13.61992535,14.28505882,13.97808988,12.29059579,9.657643491,5.630137727,0.571854837,1,1,1,1,0.965668942,0.879609054,0.560799012,44.115703,-89.54491325,2020,WIH3
CG60/LH162,NYH2_2017,N,15.125,761.3700659,2,5.75,225.5,104.5,63.25,63.5,4.985806354,2.593333337,3.453715005,5.89688957,0.948070192,3.208418109,2.379655727,2.694333021,3.397972982,154.559997,23.34000003,55.2357889,222.9889478,1.763157895,41.81263091,117.7794744,23.637895,104.1910535,18.91896409,18.22902181,21.62310913,19.28169434,21.2024166,18.91678159,16.97406986,13.88043676,9.439494818,16.54903238,19.80111122,22.34881997,25.65461899,27.16105275,25.3148988,23.28803047,24.25146582,18.24460841,5.239677404,10.2422222,10.55939387,15.21770316,15.87359667,14.84504335,11.5614249,11.15398494,7.352427253,6.267898103,8.570747831,9.793885142,12.80097944,13.68904673,12.46138399,10.55155578,10.87663924,7.688896934,0.638917053,1,1,1,1,0.981507475,0.966916282,0.722284214,42.73248125,-76.65275025,2017,NYH2
B14A/OH43,DEH1_2017,N,17.95,597.8975412,0,19,245,124.5,64.5,64.5,2.917187458,6.201428686,3.00780289,3.517983876,1.211428521,1.632751291,5.214259368,11.31934688,4.882730708,93.34999865,43.4100008,45.34571489,126.7790489,1.268571377,15.48333303,157.8533328,69.24809492,151.3147631,17.05647962,17.73228645,20.71096481,19.57386043,19.15556694,20.88592809,18.21237176,18.15756056,16.58607394,20.26624998,24.66142872,21.72245043,26.82298965,30.35071437,30.31148162,30.69555299,28.43090921,27.29702356,9.32593758,14.19571427,10.68752201,16.75855213,19.906349,19.88150788,21.21690322,18.72144455,17.91444491,8.690479953,12.08402314,9.787934269,14.12431868,17.15482568,17.14050735,17.94790556,15.63546309,14.74613823,0.907287956,1,0.959736116,1,1,1,1,1,38.67025825,-75.4333645,2017,DEH1
B37/OH43,WIH2_2020,N,26.85,678.8293127,9.875,0.25,266.5,126.5,71.75,69,1.142258063,7.375000167,3.772605813,4.528143625,15.91411821,3.015240613,2.848395651,6.559665308,3.073983535,35.40999997,73.75000167,42.96999988,163.850588,31.01764819,33.16764674,117.7699986,59.84176376,94.45823468,20.73953056,16.04352899,21.23354675,21.58093245,19.01370295,17.88573252,19.32013515,13.57540027,12.27254504,13.56999995,18.91099977,26.0938683,28.2322475,29.46647072,27.75422455,27.09322103,24.80509675,19.00189054,0.762580661,9.396999884,13.99892158,14.99589118,17.7452939,17.49807463,14.22893102,13.29211059,7.459399134,4.176897214,8.107987139,12.68677404,14.02444379,15.66411489,14.70790633,13.20588953,12.26960615,7.833960257,0.443168195,0.881928567,1,1,1,0.990384734,0.880973437,0.780679991,43.294786,-89.383968,2020,WIH2
B14A/OH43,SCH1_2020,N,15.805,731.1212129,0,2.5,89.5,39,59.5,58.5,6.726129055,12.61950016,14.6709951,2.000047064,2.505749965,4.425319405,2.268462711,6.18714998,5.023091868,208.5100007,84.13000107,163.6860008,61.50999924,5.011499929,39.68149965,62.57699943,33.64599986,155.4654979,20.36817608,19.66978326,14.75526058,19.85961082,19.96014466,19.24465486,19.87809105,16.40752662,15.64625104,22.32567731,25.33999968,25.31846332,29.19710574,32.4110003,31.66961065,33.32032281,31.92909988,30.24042268,7.936741977,12.70899997,16.31955663,18.65521183,21.09725013,21.1736526,21.46883008,21.19136654,20.48826235,8.963701593,11.76593586,13.23428606,15.98846211,18.75412521,18.42141037,19.32426,18.56023321,17.40294316,0.984170504,1,0.973950938,1,1,1,1,1,34.62225,-82.736661,2020,SCH1
PHG29/PHG47,MNH1_2016,Y,17.2,731.1212129,0,2,229,110,74.5,71.5,2.893225764,0.170000008,5.030425272,6.121705224,6.438583227,6.210954471,8.179238718,7.617170889,9.394742846,89.68999869,1.190000057,67.79499967,212.8530004,13.67999972,65.11499918,295.599999,62.20750045,287.315495,17.89673604,26.28611401,18.122652,20.29948324,15.80941307,17.87578139,16.93568638,15.29315111,12.15008877,17.5148386,25.45428576,24.53269911,27.63337014,28.14450006,28.70269129,27.15887183,24.8505404,22.53032632,6.338387108,9.824285678,13.68155402,15.81410535,17.82425013,18.42635015,16.92976579,13.57123889,11.50456607,6.871134867,10.90204251,11.6566452,13.98369248,15.05511886,15.68076391,14.22086787,11.86153057,10.26982602,0.734527645,1,1,1,1,0.999952477,0.98729881,0.936092645,44.06646925,-93.533648,2016,MNH1
B37/OH43,KSH1_2016,N,16,808.3523269,0,2,145,80,85,85,0.381562503,5.593749881,9.031136959,3.981909994,0,0.897724769,5.011421387,3.322424253,5.670073263,12.2100001,44.74999905,140.9509078,148.5090918,0,8.374091108,139.438637,19.93454552,175.7722711,18.43315426,14.04582843,18.34613738,20.88446512,22.70328743,20.59441801,18.34986672,18.15379387,17.32510191,19.15124996,21.70124984,22.33901244,27.19377063,36.31272689,35.17540036,32.01078432,33.85633352,30.76895891,2.130625044,11.46499991,9.568238579,14.2621368,21.58727247,22.04353923,20.78061301,22.71134866,19.49139311,6.3158573,9.667291017,9.626890379,13.35418843,19.56599107,19.14397536,18.06824645,19.12054732,17.03744615,0.741573662,1,0.921279778,0.986042268,0.991287871,0.998977631,0.993550002,1,39.14480675,-96.62898225,2016,KSH1
PHW52/PHM49,TXH2_2020,N,17.05,775.2073071,0,2,192.405,62.23,73,71.5,2.284333333,0,4.621906019,2.982124861,1.655000005,6.689114015,2.894056698,2.615892851,2.528400138,68.53,0,55.88714266,111.3664289,1.655000005,70.91857161,82.98143064,12.87071426,76.16571382,13.91343843,13.3863348,15.08661116,19.80328892,19.03358821,19.2160028,19.61198116,21.5690046,17.9190584,20.02266652,27.17999992,26.59088772,26.49063582,29.80749984,29.13094588,32.17534358,33.00407163,34.57616138,6.794333295,17.20400028,15.22554111,13.60666406,17.96904786,16.63267817,20.78659354,19.79317827,24.13923583,7.901247141,14.27292515,13.36557264,12.73068931,16.08957262,15.12192719,18.39831967,18.39239984,20.46927813,0.821357143,1,0.992404768,0.99375244,1,1,1,0.999043315,30.53825625,-96.42790225,2020,TXH2
PHG80/PHZ51,NEH2_2015,N,13.3,770.3803625,0,1.5,229,110,97.5,94,1.358750008,3.755999994,3.031264216,1.286090902,0.286666671,1.657187527,3.751759362,0.157499999,0.616713691,43.48000026,37.55999994,66.29000026,43.49999976,0.860000014,16.57187527,117.6431233,0.944999993,18.99062441,19.53783247,19.98656282,18.8528682,23.65152674,23.21232343,22.7312118,19.62767813,21.61948185,18.20728239,15.03874992,23.15200024,18.66927583,30.14561768,32.37510385,32.60862507,30.36489819,32.31320816,28.31448706,-2.426562488,5.230999994,5.264051067,13.5723423,16.5714581,16.13087479,15.9646131,15.56819047,11.19634675,4.192485347,8.478296732,6.894904354,14.37610508,16.560328,16.47008009,15.3434088,16.05261291,12.83173005,0.519497764,0.97653572,0.809891265,1,1,1,1,0.922021698,41.0514495,-100.7471915,2015,NEH2
B73/TX779,DEH1_2017,Y,23,675.7722478,0,7,249,142.5,71.5,71,2.917187458,6.201428686,3.00780289,3.517983876,1.211428521,1.632751291,5.214259368,11.31934688,4.882730708,93.34999865,43.4100008,45.34571489,126.7790489,1.268571377,15.48333303,157.8533328,69.24809492,151.3147631,17.05647962,17.73228645,20.71096481,19.57386043,19.15556694,20.88592809,18.21237176,18.15756056,16.58607394,20.26624998,24.66142872,21.72245043,26.82298965,30.35071437,30.31148162,30.69555299,28.43090921,27.29702356,9.32593758,14.19571427,10.68752201,16.75855213,19.906349,19.88150788,21.21690322,18.72144455,17.91444491,8.690479953,12.08402314,9.787934269,14.12431868,17.15482568,17.14050735,17.94790556,15.63546309,14.74613823,0.907287956,1,0.959736116,1,1,1,1,1,38.67025825,-75.4333645,2017,DEH1
B14A/OH43,WIH2_2019,N,34.625,620.4232827,7.5,13.75,247.9166668,118.3333335,65.25,65,5.084687524,1.186666648,3.682690384,5.868440751,0.695238091,4.73009737,4.315774648,4.395502279,4.547947068,162.7100008,7.119999886,58.08928529,183.8007161,1.222857135,55.05428533,207.5435701,59.53000056,136.8792876,20.51840827,23.10255337,19.84622659,19.54978709,22.13574316,19.04821964,14.90817086,12.98397937,9.337872891,18.93468753,26.85500018,22.80729416,28.92841129,27.86750015,27.53142967,23.33864799,22.30785619,12.19546616,7.173437506,12.79833317,11.75963315,17.3057567,14.67845241,15.42498763,12.56161555,11.34993986,2.687473085,7.568173943,12.44054354,10.32084191,15.24419851,13.63574066,13.78240318,10.8770868,10.55092288,4.713570865,0.808549105,1,0.995612408,1,1,0.966295589,0.875965566,0.450550638,43.320768,-89.33189475,2019,WIH2
PHG80/PHZ51,ONH1_2015,Y,32.85,695.0800263,0,0,255,140,86.5,86.5,1.605625002,2.296315821,1.411426091,1.973297954,0.512941169,3.436769168,2.641035405,1.799953816,2.360571209,51.38000005,43.63000059,20.30117703,73.50294104,0.81882352,40.73352947,103.9364728,19.58470627,71.14882509,18.02169462,20.4737019,23.34007091,22.64543997,20.24065375,18.07254412,18.60447299,14.22755231,12.21920895,9.771562532,12.63473691,23.7578119,26.83441686,29.90941261,27.46928249,26.11972075,22.82201755,18.35250846,-0.327500018,2.045263152,11.01347606,13.31919887,17.43313718,16.50329302,14.06775752,11.69572195,7.013714688,2.851211725,4.201400589,10.67713105,12.77399982,15.76589753,14.15032606,12.63577386,10.48249806,7.379159901,0.167098218,0.403345874,0.957007131,0.991950294,1,0.994472794,0.939113043,0.772366561,43.49741975,-80.44806025,2015,ONH1
LH195/PHZ51,INH1_2015,N,15.1,665.4747659,0.5,4.25,226,99,69.5,69.25,2.968064535,5.608750075,2.401797478,2.620596579,1.049062505,3.048312443,3.454130844,1.332533481,1.484370975,92.01000059,44.8700006,26.44312483,85.12437463,1.715625018,30.48312443,116.5724995,9.316249996,45.68062523,19.44608656,13.59046638,21.88315593,21.65689439,20.60130358,19.73326552,18.77560381,17.99738388,15.64927463,15.67580632,21.0562501,27.44396829,29.52449332,32.66781175,30.16981242,28.17317586,28.46934151,25.5406298,3.004516139,13.05249977,15.22068343,16.62214482,19.56843758,18.02818774,16.71489706,16.46563638,12.56847521,5.360930658,9.9438759,13.725819,15.26696414,18.11812466,16.1828721,14.63810214,14.67667849,11.95902497,0.609504607,1,1,1,1,1,1,0.986081101,40.477075,-87.000205,2015,INH1
LH212HT/LH195,NCH1_2015,Y,17.75,731.1212129,0,0,249.5,129.5,65,64,3.0140625,9.692856925,3.043308324,7.00027835,0,3.411347986,2.886716411,10.31533332,6.56176467,96.44999999,67.84999847,47.46470581,233.8535261,0,30.12176424,80.44058821,53.94764695,203.4147048,18.56641886,18.5514961,20.38733283,17.18369043,24.39251002,21.03629604,20.30189304,17.27178406,15.58503138,22.38312501,24.94999995,23.18034629,27.40244989,31.82117664,31.76743482,33.30845927,33.22968591,31.16039845,8.592187501,12.50999982,10.48535005,18.40286831,19.92058833,21.46261411,22.34001137,22.61282364,21.92468694,9.285127697,11.46773529,10.15801447,14.99239002,17.87088248,18.60652477,19.71826945,19.84422869,18.53531879,0.955334819,1,0.995809598,1,1,1,1,1,35.29657708,-77.5664625,2015,NCH1
B73/PHZ51,TXH1_2020,Y,17.7,731.1212129,0,2,209.55,66.04,65,64,2.284333333,0,4.613530444,2.949806388,1.362941181,6.741056464,2.844869093,3.829088224,2.301094231,68.53,0,55.97058804,110.7988238,1.362941181,71.52235312,82.32059028,18.97352936,69.29117607,13.91343843,13.3863348,15.08816438,19.79337859,19.48130546,19.24170726,19.77113757,20.7945973,17.91495332,20.02266652,27.17999992,26.60815942,26.52479293,29.39617636,29.12989124,32.2266946,33.03076485,34.59511331,6.794333295,17.20400028,15.2455437,13.65359797,17.29686298,16.61337131,20.73348334,20.06167624,24.24037069,7.901247141,14.27292515,13.38037585,12.76738989,15.58009007,15.11126374,18.39892159,18.53701373,20.50202011,0.821357143,1,0.99243504,0.993791594,1,1,1,0.999042533,30.53781575,-96.4283715,2020,TXH1
LH74/PHN82,NYH3_2018,N,20.87,667.212466,0,2,179,85.5,67.5,66.5,4.152903213,0.855714253,1.333281551,1.973054112,19.58384622,4.14286014,1.827699262,3.76173812,1.90156246,128.7399996,5.989999771,17.49230713,69.9676929,40.09153858,44.76538462,69.41461665,34.65000019,57.30153882,20.64383799,23.73438372,20.91517994,21.34827616,15.57480097,18.28181198,18.59806785,13.9987834,13.21485935,12.82806446,24.72714315,24.74142799,27.59651287,28.68307664,28.50629367,27.06434367,24.34345721,20.06623908,1.452258048,10.48999977,13.10088293,14.82547593,19.13846159,17.45270631,15.13507682,13.07327349,8.10410419,4.113027627,10.74522894,11.82730489,13.73068126,15.93834835,15.05075648,13.50240047,11.64767513,8.352187515,0.351670502,1,0.973040659,0.995029228,1,0.992439429,0.946636381,0.843044516,42.7261605,-76.6556765,2018,NYH3
TX714/TX779,ARH2_2018,N,38.83,731.1212129,0,2,181.5,89,73,73,4.523124937,5.877777735,3.202210455,3.225384198,0.461428574,5.0703967,1.707251537,1.546976178,1.915506911,144.739998,52.89999962,46.32285666,103.4992844,0.461428574,45.6335703,42.68714207,7.346428526,59.38071425,17.7541087,19.6455271,19.52097147,20.05684428,23.80737271,19.97823453,19.1297214,18.25489796,18.05597286,19.61875001,21.92000008,22.77345622,28.90718296,31.9800005,30.98396799,32.84130907,33.56595603,31.90391706,8.73406262,10.34777779,11.28771296,17.85430307,18.706429,19.75547635,22.48266054,23.2605133,21.25223495,8.305601359,9.423215554,10.22107903,15.52009327,17.35232514,17.37984482,19.61861005,20.2782542,18.53689778,0.857433028,1,0.994106717,0.995975764,1,1,1,1,35.674241,-90.0749725,2018,ARH2
CG108/CGR03,KSH1_2016,N,14.3,785.1829927,0,10,180,95,91,91,0.381562503,5.593749881,9.031136959,3.981909994,0,0.897724769,5.011421387,3.322424253,5.670073263,12.2100001,44.74999905,140.9509078,148.5090918,0,8.374091108,139.438637,19.93454552,175.7722711,18.43315426,14.04582843,18.34613738,20.88446512,22.70328743,20.59441801,18.34986672,18.15379387,17.32510191,19.15124996,21.70124984,22.33901244,27.19377063,36.31272689,35.17540036,32.01078432,33.85633352,30.76895891,2.130625044,11.46499991,9.568238579,14.2621368,21.58727247,22.04353923,20.78061301,22.71134866,19.49139311,6.3158573,9.667291017,9.626890379,13.35418843,19.56599107,19.14397536,18.06824645,19.12054732,17.03744615,0.741573662,1,0.921279778,0.986042268,0.991287871,0.998977631,0.993550002,1,39.14480675,-96.62898225,2016,KSH1
2369/LH123HT,TXH1-Early_2018,Y,10.2,767.1623994,0,2,259,104,72,72,2.442333295,0.87833333,4.91741256,2.91095925,1.112321411,5.987347663,3.094033648,2.445309502,2.573656677,73.26999886,5.269999981,55.2178573,113.3721426,4.449285643,64.36357035,86.72785865,13.67714274,77.357857,13.4988633,14.49154552,13.92485348,19.6618496,19.390827,19.64184359,19.38410293,21.21373351,18.01258323,19.68933331,26.95833333,25.66614373,26.56996845,30.24238085,29.14372996,31.91805433,33.2644762,34.51160554,6.357666679,15.03999996,15.13755815,13.69055459,18.24071415,16.44843436,20.63070323,20.50154739,23.97494014,7.613570572,13.40715604,12.87528071,12.79536137,16.34410207,15.0664779,18.21233438,18.75919739,20.40606275,0.821476194,1,0.991620595,0.99408643,1,1,1,0.999013392,30.546318,-96.4329965,2018,TXH1-Early
TX714/PHZ51,MOH1_2_2020,N,17.325,731.1212129,1.5,0.5,265.5,131,55,54.5,2.765624954,8.119999743,10.23533287,1.900197364,6.862941181,7.496322061,3.61617108,2.901626778,3.303786197,88.49999854,40.59999871,96.12411712,56.39411764,8.455882353,68.01117661,117.8082348,21.52705885,101.3270584,18.75466287,21.25211372,22.58999711,20.28617166,20.64270943,17.48834951,18.15902921,17.2011884,14.69335169,22.18656257,30.76999931,28.84882905,30.74339714,30.90558787,31.2308437,28.74780649,29.21697892,24.17436303,12.23093753,19.21800041,17.30516703,20.0610583,19.70343171,21.50444419,18.15153395,17.40346693,12.7162556,10.41798935,16.99399986,15.18178367,17.42227064,17.30450979,18.37429674,15.5665539,15.53509051,11.41105442,0.936383936,1,1,1,1,1,0.996694042,0.965786214,38.8958275,-92.2071575,2020,MOH1
PHP02/PHB47,DEH1_2015,Y,19.25,680.9209887,0.5,0,220,102.5,61,60,2.877187484,6.848000002,1.658122271,2.899811139,0.533124998,6.398055441,4.542065261,4.666333417,5.694818618,92.06999949,68.48000002,26.86312445,94.40374921,0.778750002,57.58249897,115.8581242,26.73625046,176.5393772,18.09789148,17.20138936,20.11151884,21.0089777,21.53492481,19.24730516,17.70191113,15.05628078,15.14846735,16.82656264,19.24400005,20.72376954,27.68890342,31.56656283,31.86354174,32.09465687,30.43364003,29.09395151,6.265937505,9.858999991,10.7453803,17.67876376,20.38750017,21.35659703,22.77220607,22.28250884,20.56647162,6.521960329,8.412914767,9.229957748,14.85993723,17.9770315,18.58170739,19.36170697,18.35807444,16.86736745,0.750435273,0.870857151,0.962682184,1,1,1,1,1,38.62935675,-75.4656925,2015,DEH1
B14A/MO17,KSH1_2018,N,14.3,763.62264,32.25,12.75,229,110,65,64,0.123225804,1.309000027,2.835063753,1.245921432,6.190769489,0.847777789,5.121826591,3.691923017,0.576771715,3.819999933,13.09000027,33.35999966,37.39923182,6.190769489,7.630000105,140.8584615,22.1515381,17.82230777,23.1370286,19.20606413,23.76917973,25.01946837,21.72317813,23.99633906,18.76579115,18.12170014,19.24157322,22.75709664,20.771,27.08892973,34.13484851,36.79923102,35.27700868,33.17677556,30.51957897,31.48973893,3.915806478,6.778999925,10.75682887,16.60383588,18.26846137,18.37008543,18.87125761,16.15291204,15.043086,8.255034949,8.267600828,11.90551203,16.73972083,17.84021903,17.73256873,17.54545708,15.43757555,15.43621363,0.847615199,0.789999991,1,1,1,1,1,0.970122947,37.810107,-100.775188,2018,KSH1
PHP02/PHB47,NCH1_2016,N,13.6,731.1212129,10,1.5,217.5,122.5,65,64,2.901562452,3.125714166,7.137907935,4.683034439,4.3177271,0.863030289,5.226283407,5.104181825,4.507668668,92.84999847,21.87999916,91.86318315,160.7736342,8.497726928,8.495454409,139.9318182,26.12772732,139.7377287,16.36857818,22.27138465,15.49498623,18.72849078,21.8793198,21.8664799,18.529992,18.05675722,17.32656161,20.86125001,25.58571407,25.68946269,27.1054564,30.20318166,31.0559697,32.42423852,33.59766701,33.26035177,7.692187494,8.212857212,14.27003911,16.07300028,18.02681784,18.80169681,21.2796372,22.62190931,22.7218182,8.383421821,10.43985322,12.46468669,13.95599298,16.17160042,16.99727481,18.83160592,19.980567,19.86697781,0.913761163,1,1,1,1,1,1,1,35.30015175,-77.57127825,2016,NCH1
PHW52/PHM49,MNH1_2020,N,28.95,691.8620632,0,0.5,221.5,112.5,71.5,69,0.943005099,6.546073051,4.140359128,4.707487639,0.452236841,2.543512757,5.928901117,4.270615044,2.501087783,29.23315806,64.90105435,50.61684199,155.384737,0.714736844,28.61736839,219.2994748,34.34473765,76.93105461,20.83516212,15.73399946,19.74828467,20.97522671,19.78574355,20.20086134,18.41063051,15.8353279,12.84776632,15.708455,18.53155205,25.82840423,28.49526052,29.92499944,28.21992409,26.52185226,25.93987928,19.74067922,2.261239378,9.186207707,13.99244036,16.68286788,19.34447405,16.90528318,15.09377646,14.30914312,8.593217323,5.370680578,7.953384306,12.46596379,14.77865871,16.66236577,14.75116185,13.25288188,13.01752467,8.666130292,0.622613994,0.838417993,1,1,1,0.988450437,0.93066422,0.780758993,44.06907839,-93.53263028,2020,MNH1
PHW52/PHN82,ARH1_2017,N,17.1,751.3943803,0,2,196.975,92.725,68.25,65.25,3.058125025,3.532857077,9.871688678,6.405160528,0.516363615,5.988171668,5.119232493,3.102318153,5.34158356,97.86000079,24.72999954,132.0327285,211.6218184,0.569545432,54.36818138,136.8913653,16.08272713,165.5890903,17.13974981,16.55343887,20.38424011,18.76225527,22.81364793,19.06964508,19.53553475,19.77193111,17.12972935,24.60906261,23.96000045,24.77057006,28.06605652,30.35469691,31.5146664,31.30577636,32.78459133,30.91587993,11.9175,14.17857156,11.8445801,17.60850246,18.97249995,21.30615642,21.39979275,22.50533316,21.62237538,11.1639709,11.77578055,11.22655186,14.97537354,16.74359516,18.41041141,18.33049426,19.54768126,18.22457608,1,1,1,1,1,1,1,1,34.7272515,-90.76032575,2017,ARH1
B73/MO17,WIH2_2017,Y,23.8,748.4982135,0,2,287,158.5,79.5,80.5,5.048709616,4.636666616,1.142383575,5.763857885,8.001590729,6.160048604,1.607776433,1.167726513,2.257555268,156.5099981,41.72999954,17.5799998,219.3963643,12.14409065,74.04090792,72.28863683,15.04409093,68.0204557,18.1690344,19.72049554,20.64727683,20.23287988,19.13163679,19.37493243,18.51401576,14.93340477,10.89478233,16.03129027,21.86555545,22.15746071,26.59689143,27.90045501,26.76799254,24.73062069,22.38533393,20.51274781,3.24419354,8.791111098,9.553497601,14.54337319,16.81037892,15.37831158,12.19271258,9.193202486,7.868866577,5.438218202,9.209131236,9.451203107,13.05708411,14.51682301,13.37610723,11.31306373,9.686333754,8.853113959,0.624158991,0.847976183,0.950288768,1,1,0.998699911,0.954544862,0.834596302,43.3246415,-89.33688775,2017,WIH2
B73/MO17,GAH1_2019,N,15.72,680.0843183,2.5,0.5,207.5,105,64,61,4.224827643,1.980000006,1.908236784,2.106472486,0,0.090714284,5.691865924,1.473428559,3.045620547,122.5200016,17.82000005,22.37999977,72.04999958,0,0.725714275,156.5528547,7.367142797,92.8692846,16.4500471,17.48633936,17.40259385,20.9384506,22.51147406,21.84430948,17.66714436,19.76491442,19.71139218,21.20655165,22.58666695,26.81574745,29.5228407,35.04273814,35.70196446,32.62270198,33.62814315,33.36893722,7.214827602,8.595555623,14.04498416,14.47543411,19.21654783,20.58464301,20.89661115,21.78014287,21.253149,8.370628681,9.274220075,12.91642218,14.40044999,18.67726543,19.28313207,18.63395398,19.63555568,19.18049021,0.90216748,0.984365085,1,1,1,1,1,1,31.50582525,-83.55515025,2019,GAH1
LH195/PHZ51,INH1_2020,Y,23.905,725.4575978,0,2,228.5,110.75,70,67,2.63064515,6.092222161,2.380905542,2.638028789,0.629411796,2.977235278,3.349803369,1.095052516,1.575144189,81.54999965,54.82999945,26.35000017,86.90176377,0.755294155,29.77235278,114.9176474,7.60117643,48.41470517,19.12040675,14.46862051,21.68340347,21.75389977,20.24839053,19.66959435,18.78188958,18.00828299,15.45076636,15.20677414,20.6899999,27.1104927,29.42650107,32.0752936,30.36388222,28.15834081,28.66782236,25.41333794,2.934193564,11.51555562,15.17811918,16.46944194,19.37588254,18.23752946,16.66734055,16.5683672,12.52337519,5.193705795,9.337664252,13.54219901,15.16026165,17.73146127,16.3694037,14.61167179,14.83949529,11.90095499,0.576025338,0.994801587,1,1,1,1,1,0.975702381,40.4787965,-86.9895995,2020,INH1
PHG80/PHZ51,ILH1_2015,Y,11.05,719.5365458,0,0,250,107.5,70,68,4.343437491,1.296153843,7.654899739,5.34311295,3.674999952,2.467291633,4.647268051,0.712819956,1.951907909,138.9899997,16.84999996,99.86750055,177.342501,7.349999905,22.2056247,144.0256246,5.039375113,60.06187434,19.4076893,20.21820178,17.58012378,22.59231729,17.35775694,20.12242863,18.79551315,20.37165926,16.80998738,15.69375022,16.27615364,23.81483975,28.77428317,30.28249967,31.91701372,28.65899596,28.4854072,27.09877011,2.916875011,4.602307732,13.93389792,16.26044709,20.47749984,20.41381959,17.79543547,15.77196732,14.62672175,5.339800043,5.921635642,11.53105666,14.7484369,17.37999976,18.17178164,15.31569586,14.44648847,13.36421336,0.599162964,0.636840646,1,1,1,1,1,0.99828125,40.05982425,-88.23397575,2015,ILH1
F42/MO17,OHH1_2018,N,17.85,735.6263612,0,1.5,260.5,122,60.5,62,3.056774178,9.537500136,1.922452157,2.385565957,3.342142727,1.8544286,3.625787622,3.100846839,2.007798001,94.75999951,76.30000108,21.73714328,80.43785755,3.342142727,18.544286,121.7649994,22.15357072,61.29071423,19.31095449,14.64635724,20.72885596,20.94366931,19.27592959,20.95649317,17.99811894,17.37176276,15.4204415,15.33419351,20.99500024,26.65036435,28.81994394,32.41071347,30.66092864,28.53085842,26.94730604,24.73435724,3.376129027,12.14624989,14.55931522,16.57316253,19.49428545,18.47499986,17.24720124,15.03980618,12.05347394,5.35712311,9.832246518,13.13485159,14.9051591,17.95401161,16.59941793,15.03822312,13.39555861,11.48513665,0.534285712,0.926785712,1,1,1,1,0.999125,0.970735544,39.85688825,-83.671225,2018,OHH1
PHW52/PHN82,NYH2_2016,N,22,731.1212129,0,2,170,68,78,73,2.034516133,1.030000001,1.88805842,0.867300396,1.140952366,2.326450204,3.376451109,4.287746575,3.208572451,63.07000011,12.36000001,22.4085716,34.4438095,2.622857094,25.59095225,116.65619,31.75809508,97.82571426,19.21240982,23.35584625,23.40556822,22.17883586,23.94456446,21.25361649,17.18897092,16.17245816,13.35906413,14.04935483,18.68749992,27.50851283,26.23633728,28.78071431,29.31692664,28.41638555,26.44500865,23.15297547,1.686774175,4.439999988,12.92699036,12.85534504,13.89476193,15.65588736,16.863818,13.58818034,10.55762265,4.511298309,6.607155497,12.88765676,12.33330427,13.7996272,14.74166699,14.82295673,12.66050813,10.26842414,0.447315667,0.804761906,0.999400038,0.994542932,1,0.999880088,0.994843294,0.949842165,42.726117,-76.655339,2016,NYH2
B37/H95,ONH2_2017,N,23.4,895.2373302,4,30.5,241.5,121,42.5,38,3.566774253,5.816000056,0.640467161,2.602850346,0.276190468,0.553043346,1.774150425,1.832219351,2.40528059,110.5700018,58.16000056,8.999047586,96.02571482,0.552380936,6.918571438,78.70857161,24.06619065,72.98142847,18.8542372,16.74867072,24.21291039,19.37094181,21.19715784,20.84705237,17.61151759,14.253685,9.927824707,15.7532257,18.68899984,23.40262829,26.34974997,26.59380949,26.86065013,24.57225317,22.91748616,20.00596815,5.764838726,10.96000004,12.03359118,16.18007827,16.63301581,15.91920336,13.14574071,11.27177775,10.10650586,6.141928302,8.38660306,10.68394655,13.52521671,13.7753985,13.64998718,11.58821465,10.41552723,9.107414304,0.598502303,0.966571423,1,1,1,0.999084662,0.956230826,0.8300025,42.45293025,-81.8827315,2017,ONH2
TX714/PHZ51,ONH1_2016,Y,28,649.3849505,0,2,233.5,153,85.5,83,1.979032247,2.105714291,0.92181366,1.439738287,4.720833318,2.435439396,4.62931563,1.31185227,2.043303741,61.34999967,29.48000008,13.31600007,60.28400005,10.99249999,28.54150001,172.0475013,11.37649985,61.38049932,20.24883872,21.56727634,23.77365349,22.41142308,19.3081847,20.61473607,17.12813691,15.31534219,11.6349499,10.49290321,16.47999988,25.01561457,25.51466922,28.22516696,27.99415914,27.31356147,24.49017951,20.3886015,-0.735806467,3.753571405,10.93050922,11.61184699,15.55325019,14.71775745,15.07244109,12.71620509,9.185787659,3.269306411,5.688768484,11.09209761,11.56175859,14.2216101,13.76399544,13.57642435,11.5133866,8.776899495,0.291105988,0.684668367,0.99891379,0.988093962,1,0.998165816,0.971212584,0.877977401,43.4997965,-80.451125,2016,ONH1
CG44/CGR01,NYH2_2019,Y,19.75,719.8583421,1.5,1.5,227.25,113,70.75,70.5,3.722580618,3.873333404,3.775457026,3.802397661,4.637142726,4.204990808,3.398979968,2.823191607,3.703221173,115.3999992,34.86000064,60.3757139,137.1514286,9.274285453,51.14714244,162.2557133,52.58999984,112.9585706,17.9818517,20.79040337,20.47381334,20.12131004,17.75572211,20.43491569,15.89805393,11.9646884,8.550151526,16.21290321,21.91111098,21.50181499,26.85703989,26.63857151,27.37846155,23.54873757,18.10625893,13.03721199,5.322258069,10.30000003,10.29481231,15.55148496,16.86547597,15.01097073,12.10049902,6.865122249,3.164741908,6.134411308,9.414033746,9.284856483,13.53502553,13.97316997,13.53140509,10.78045964,7.367712917,4.9030616,0.665391704,1,0.983534167,1,1,0.983842121,0.777563161,0.485846779,42.73221403,-76.65248675,2019,NYH2
F42/H95,WIH1_2016,N,20.25,776.8162887,3,3,233.5,118.5,74,74,2.076129018,1.94750002,4.430291291,4.068377178,0.606590927,8.204471101,6.520888551,7.285801826,4.413191112,64.35999957,23.37000024,50.66818307,153.9786358,1.017727305,87.41727302,222.4604529,58.95590957,134.9268184,19.92805462,20.9108026,19.53546339,20.65690042,18.97296773,19.76360502,17.50876714,15.21370917,12.23883056,16.70258062,17.57583312,27.08182728,26.49130857,27.22159082,28.35833875,27.6700069,25.1458901,22.98674642,3.327419363,4.990833327,14.04723809,14.47423798,17.58636334,16.7186736,17.17399145,14.32051147,12.5735533,5.875866612,6.419508974,12.98865398,12.92924289,14.50224274,14.72651534,14.55658067,12.23924581,10.7486024,0.621198161,0.7653869,1,1,1,0.999967803,0.998306277,0.970976554,43.05632525,-89.53194975,2016,WIH1
B14A/H95,NYH2_2019,Y,20.05,716.3185827,0,2.5,241.5,121.5,69,67.5,3.722580618,3.873333404,3.775457026,3.802397661,4.637142726,4.204990808,3.398979968,2.823191607,3.703221173,115.3999992,34.86000064,60.3757139,137.1514286,9.274285453,51.14714244,162.2557133,52.58999984,112.9585706,17.9818517,20.79040337,20.47381334,20.12131004,17.75572211,20.43491569,15.89805393,11.9646884,8.550151526,16.21290321,21.91111098,21.50181499,26.85703989,26.63857151,27.37846155,23.54873757,18.10625893,13.03721199,5.322258069,10.30000003,10.29481231,15.55148496,16.86547597,15.01097073,12.10049902,6.865122249,3.164741908,6.134411308,9.414033746,9.284856483,13.53502553,13.97316997,13.53140509,10.78045964,7.367712917,4.9030616,0.665391704,1,0.983534167,1,1,0.983842121,0.777563161,0.485846779,42.73221403,-76.65248675,2019,NYH2
B37/H95,NEH1_2015,N,14.45,793.5496967,0,2,255,115,65,56,2.959062506,0.753999996,4.745632833,2.187040691,0.179999996,3.601448917,1.548000793,0.057812502,1.589214364,94.69000018,3.769999981,46.84999943,63.50812512,0.239999995,39.12187557,55.49499987,0.586250016,47.85812447,19.07194562,25.84699936,20.00593662,19.96245842,20.96463704,17.86296284,18.31175333,17.30405645,12.3794141,23.74906254,30.51399994,29.13009987,30.74148671,30.73750019,28.43858622,29.13031746,26.88374984,20.12342532,13.19218739,15.46999989,18.04036499,19.18092822,19.11281252,17.33248289,15.92131484,11.1533021,6.525200269,11.64481375,15.25955733,15.68336601,16.96891106,16.93845514,15.07345461,14.95183393,12.01070089,8.15887847,0.924598212,1,1,1,1,0.96969665,0.982957588,0.758540943,41.290979,-96.41664325,2015,NEH1
B73/PHN82,NYH2_2015,N,19.55,731.1212129,0,1,226,114.5,84.5,84,3.814193487,2.822857129,1.806874641,1.427310218,14.28882354,6.323155046,2.553769654,1.263651931,1.70374005,118.2399981,39.5199998,23.5252947,50.99705838,17.86235295,65.18176435,90.43176518,10.71352917,51.74117684,19.21827184,21.58410556,20.44972798,21.8367517,17.34067749,18.34945618,18.49425604,17.55625849,13.84215422,11.26903224,15.86071418,24.70888252,27.12764594,29.5805878,28.55383422,27.75922879,25.11594081,20.73318661,0.676451599,3.065714287,12.68317757,14.19692254,19.48862723,17.66257776,16.12899413,12.03346763,8.797239788,3.458861152,5.522653893,11.65565145,13.2498794,16.56577659,15.18766176,14.16580901,11.53845799,8.731216192,0.261509218,0.568112238,0.971160735,0.994106254,1,0.999864887,0.980226591,0.898542131,42.7324825,-76.65277775,2015,NYH2
2369/LH123HT,TXH1_2016,N,10.2,724.6852867,0,2,227,88.5,71.5,71.5,1.633666698,16.13999993,0.99702422,4.719865603,0.129393939,3.277272727,13.06232457,0.703636358,1.017125621,49.01000094,112.9799995,14.5313639,177.3549991,0.33090909,36.05,378.0672674,3.179999969,30.53454577,13.9726292,10.72874144,17.88940951,17.80076093,20.55685321,19.77792414,17.90480363,20.8338604,20.14326093,22.32500016,23.95000022,24.48309256,26.40498513,28.5388636,28.63545455,30.12870319,34.35404525,35.58838723,6.034666632,13.33571414,9.675379644,13.12758779,15.78530267,16.33764454,20.13902853,23.08186362,24.00118421,8.473379033,11.29783551,10.5045992,12.46111665,14.43681279,14.72204148,17.12368238,20.53225114,20.87599038,0.915869048,1,0.972225207,1,1,1,1,1,30.54708625,-96.43393475,2016,TXH1
LH195/PHZ51,KSH1_2015,N,15.65,762.3354548,0,2,229,110,84.25,82,0.688124985,3.518749885,2.537239536,4.634326915,6.340784251,4.013516285,5.753010874,3.95559662,1.81791271,22.01999953,28.14999908,47.40176476,147.1705882,9.165882307,38.18235242,161.646473,23.74705871,56.35529401,19.48910828,20.34062409,19.21958791,21.30664108,18.00351726,18.80818483,18.60066932,17.86718078,18.78253622,17.69406253,22.96750021,19.85221485,29.31892792,29.11705877,31.41670577,31.16760655,30.50505886,29.96204923,3.297187492,8.938749969,8.792561365,16.998743,18.09705929,19.84989561,20.1377744,20.03282345,17.06836811,6.184738542,9.476230158,8.381520189,15.38816616,15.61697663,17.65547515,17.65556265,17.32458654,15.75670183,0.6778125,1,0.850138809,1,1,1,1,0.98304554,39.21641775,-96.60482225,2015,KSH1
PHB47/PHN82,MNH1_2016,Y,23.3,731.1212129,0,2,229,110,73,70.5,2.893225764,0.170000008,5.030425272,6.121705224,6.438583227,6.210954471,8.179238718,7.617170889,9.394742846,89.68999869,1.190000057,67.79499967,212.8530004,13.67999972,65.11499918,295.599999,62.20750045,287.315495,17.89673604,26.28611401,18.122652,20.29948324,15.80941307,17.87578139,16.93568638,15.29315111,12.15008877,17.5148386,25.45428576,24.53269911,27.63337014,28.14450006,28.70269129,27.15887183,24.8505404,22.53032632,6.338387108,9.824285678,13.68155402,15.81410535,17.82425013,18.42635015,16.92976579,13.57123889,11.50456607,6.871134867,10.90204251,11.6566452,13.98369248,15.05511886,15.68076391,14.22086787,11.86153057,10.26982602,0.734527645,1,1,1,1,0.999952477,0.98729881,0.936092645,44.06646925,-93.533648,2016,MNH1
LH195/PHN37,ONH2_2017,N,21,886.8706262,0,2,219,90.5,44,40.5,3.566774253,5.816000056,0.640467161,2.602850346,0.276190468,0.553043346,1.774150425,1.832219351,2.40528059,110.5700018,58.16000056,8.999047586,96.02571482,0.552380936,6.918571438,78.70857161,24.06619065,72.98142847,18.8542372,16.74867072,24.21291039,19.37094181,21.19715784,20.84705237,17.61151759,14.253685,9.927824707,15.7532257,18.68899984,23.40262829,26.34974997,26.59380949,26.86065013,24.57225317,22.91748616,20.00596815,5.764838726,10.96000004,12.03359118,16.18007827,16.63301581,15.91920336,13.14574071,11.27177775,10.10650586,6.141928302,8.38660306,10.68394655,13.52521671,13.7753985,13.64998718,11.58821465,10.41552723,9.107414304,0.598502303,0.966571423,1,1,1,0.999084662,0.956230826,0.8300025,42.45293025,-81.8827315,2017,ONH2
W10005_0107/PHB47,ARH2_2017,N,17.95,731.1212129,0,2,143.5,56.5,62,58,2.789999995,15.83285686,4.776016413,2.853949028,1.142500003,5.651818152,3.905948255,2.4430325,4.688621725,89.27999985,110.829998,61.6427269,88.95863769,3.003181826,52.42863608,105.2449988,13.33772746,145.3472735,17.14489296,19.09436907,20.93439511,19.65670258,19.84409681,19.1211903,18.81176407,19.65259997,17.546866,23.65656266,24.55142866,25.38541455,28.9612549,32.40098458,30.84565692,31.84241473,32.83627249,30.20087953,12.07343751,12.16142872,12.7110645,18.0477898,21.78734854,20.24410098,21.87781566,22.25639174,20.26112908,10.83878158,11.22094165,11.88579938,15.62584547,19.09416656,17.54487895,18.8103181,19.27693671,17.25265116,0.991674107,1,0.97315368,1,1,1,1,1,35.67418125,-90.0752695,2017,ARH2
PHW52/PHM49,INH1_2015,Y,14.65,713.1006196,1.5,4.5,225,99,71,69.5,2.968064535,5.608750075,2.401797478,2.620596579,1.049062505,3.048312443,3.454130844,1.332533481,1.484370975,92.01000059,44.8700006,26.44312483,85.12437463,1.715625018,30.48312443,116.5724995,9.316249996,45.68062523,19.44608656,13.59046638,21.88315593,21.65689439,20.60130358,19.73326552,18.77560381,17.99738388,15.64927463,15.67580632,21.0562501,27.44396829,29.52449332,32.66781175,30.16981242,28.17317586,28.46934151,25.5406298,3.004516139,13.05249977,15.22068343,16.62214482,19.56843758,18.02818774,16.71489706,16.46563638,12.56847521,5.360930658,9.9438759,13.725819,15.26696414,18.11812466,16.1828721,14.63810214,14.67667849,11.95902497,0.609504607,1,1,1,1,1,1,0.986081101,40.477075,-87.000205,2015,INH1
TX777/LH195,MOH1_1_2020,Y,19.2,731.1212129,0,0,251.3333333,124,66.33333333,64.33333333,2.765624954,8.119999743,10.49656654,1.909885915,5.802857127,7.415295831,3.691475556,2.293301892,3.400930865,88.49999854,40.59999871,96.7978566,57.0957143,7.737142835,67.39857156,118.848571,17.52928566,104.715714,18.75466287,21.25211372,22.49923535,20.31658939,20.84622072,17.68630925,18.12476098,17.46293798,14.64158327,22.18656257,30.76999931,28.86546125,30.72469998,30.62226157,31.26253243,28.67352632,29.54480095,24.35225034,12.23093753,19.21800041,17.35636515,20.03188031,19.40511944,21.45309498,18.10676495,17.58972003,12.9136675,10.41798935,16.99399986,15.213465,17.3995364,17.01369051,18.36589209,15.51205264,15.80164337,11.56818364,0.936383936,1,1,1,1,1,0.995985623,0.962870504,38.8978375,-92.2070925,2020,MOH1
B73/PHM49,IAH4_2019,Y,30.25,661.2914139,3,2.5,264.5,130.25,60,59.25,7.44874995,0,6.508814674,5.652572602,2.433809479,0.731547632,2.455795253,7.856419535,5.758725846,238.3599984,0,89.12928634,169.456428,4.779285618,8.60571444,106.5300014,62.81714391,173.1250012,18.61457558,24.25652275,18.80062453,19.64217675,17.01762246,21.29967345,16.82875041,12.82062273,10.73648339,20.72718754,29.98400002,24.57226332,29.58102216,28.11761892,27.58625519,26.21902431,25.70162766,18.66579105,8.655312385,16.39199963,13.30590142,18.52555793,18.42333308,15.4118289,14.78252205,14.57801647,7.354403302,8.719182336,15.28713381,11.55896644,16.12377034,15.4195504,13.79277779,12.9189296,12.78184671,8.051480754,0.866629464,1,1,1,1,0.996735112,0.969646609,0.721601517,42.03193798,-93.79333213,2019,IAH4
TX714/PHZ51,MIH1_2017,Y,17.7,731.1212129,0,2,229,110,65,64,2.651290334,1.642500043,0.365195355,3.685889798,0.022982455,0.462972321,1.745768067,1.924198947,6.215848807,82.19000036,13.14000034,4.417894763,131.6678931,0.068947365,5.871578781,77.40789432,25.15789459,187.919471,20.75480046,19.52619267,24.47429891,19.89055103,21.94334328,22.12060477,17.47908742,14.76431364,9.641321864,18.99677434,22.1187501,26.44652255,27.49693157,27.7329823,27.82492569,25.37386911,24.10071042,20.63989867,5.961290348,11.91874993,11.36318641,16.0503933,16.08877179,14.96255052,12.27657104,9.93890341,8.936309075,7.303217139,10.01258026,11.86785018,14.06113521,14.11607898,13.75096176,11.67659513,10.59348898,9.148775778,0.770126733,1,1,1,1,0.999072621,0.949278334,0.816440377,42.68116575,-84.49434125,2017,MIH1
F42/OH43,MOH1_2_2018,N,18.4,731.1212129,0,2,236,99.66666667,53,51,4.419032262,0.120000001,6.56660792,4.995913726,0,0.865952386,4.867908623,7.318145406,3.629241153,136.9900001,0.840000004,71.60142667,150.6285707,0,7.793571472,145.6157139,39.85928573,112.0157138,18.39395777,18.46565301,20.1607481,20.70593221,19.87326009,21.97749135,18.06982858,17.46468943,16.31914076,19.5254839,22.76714298,27.16554273,29.60936822,31.6271427,32.32420578,29.51628185,29.85375934,27.04843165,7.99741943,14.14714282,16.43732974,18.81172612,21.79964249,20.71007941,19.44316189,19.21155699,15.91814144,7.992986492,11.1555316,14.00535673,16.26359619,18.7133926,18.51714259,16.54699664,16.60044059,13.86670431,0.872361758,1,1,1,1,1,1,0.995607144,38.89555425,-92.20964575,2018,MOH1
LH195/PHN37,KSH1_2016,N,15.9,790.3317336,0,1,140,60,87,87,0.381562503,5.593749881,9.031136959,3.981909994,0,0.897724769,5.011421387,3.322424253,5.670073263,12.2100001,44.74999905,140.9509078,148.5090918,0,8.374091108,139.438637,19.93454552,175.7722711,18.43315426,14.04582843,18.34613738,20.88446512,22.70328743,20.59441801,18.34986672,18.15379387,17.32510191,19.15124996,21.70124984,22.33901244,27.19377063,36.31272689,35.17540036,32.01078432,33.85633352,30.76895891,2.130625044,11.46499991,9.568238579,14.2621368,21.58727247,22.04353923,20.78061301,22.71134866,19.49139311,6.3158573,9.667291017,9.626890379,13.35418843,19.56599107,19.14397536,18.06824645,19.12054732,17.03744615,0.741573662,1,0.921279778,0.986042268,0.991287871,0.998977631,0.993550002,1,39.14480675,-96.62898225,2016,KSH1
PHW52/PHN82,KSH1_2016,N,13.95,795.1586783,0,2,173.75,71.25,86.75,86.75,0.381562503,5.593749881,9.031136959,3.981909994,0,0.897724769,5.011421387,3.322424253,5.670073263,12.2100001,44.74999905,140.9509078,148.5090918,0,8.374091108,139.438637,19.93454552,175.7722711,18.43315426,14.04582843,18.34613738,20.88446512,22.70328743,20.59441801,18.34986672,18.15379387,17.32510191,19.15124996,21.70124984,22.33901244,27.19377063,36.31272689,35.17540036,32.01078432,33.85633352,30.76895891,2.130625044,11.46499991,9.568238579,14.2621368,21.58727247,22.04353923,20.78061301,22.71134866,19.49139311,6.3158573,9.667291017,9.626890379,13.35418843,19.56599107,19.14397536,18.06824645,19.12054732,17.03744615,0.741573662,1,0.921279778,0.986042268,0.991287871,0.998977631,0.993550002,1,39.14480675,-96.62898225,2016,KSH1
PHN11_PHG47_0251/PHB47,IAH2_2017,N,15,733.6955833,0,14.5,208,100,65,64,2.991935476,4.003749907,5.594154361,1.824159742,2.965909053,1.138616173,3.544395797,5.525860929,3.224964342,92.74999976,32.02999926,86.83999968,64.74363607,5.880909015,11.03545466,133.6850016,39.36636487,98.02272796,18.91811151,22.03083944,18.39067038,21.91300981,21.59707026,21.00058551,18.76246256,16.50136756,14.56336975,16.70258062,25.25375009,21.16444029,28.78792803,31.34295403,31.03890899,27.79230679,26.54138994,25.01808603,3.836129038,9.060000002,9.836484062,14.72352594,17.1804546,18.00485339,15.61890002,13.9478747,12.25710857,5.884356407,10.52058178,9.325556586,14.19611432,16.29393371,16.57150033,14.05801276,12.73803514,11.57992501,0.659274195,1,0.882113053,1,1,1,1,0.976890029,42.06582876,-94.72050129,2017,IAH2
B73/PHN82,NCH1_2015,Y,18.5,731.1212129,0,0,215,120.5,65,64,3.0140625,9.692856925,3.043308324,7.00027835,0,3.411347986,2.886716411,10.31533332,6.56176467,96.44999999,67.84999847,47.46470581,233.8535261,0,30.12176424,80.44058821,53.94764695,203.4147048,18.56641886,18.5514961,20.38733283,17.18369043,24.39251002,21.03629604,20.30189304,17.27178406,15.58503138,22.38312501,24.94999995,23.18034629,27.40244989,31.82117664,31.76743482,33.30845927,33.22968591,31.16039845,8.592187501,12.50999982,10.48535005,18.40286831,19.92058833,21.46261411,22.34001137,22.61282364,21.92468694,9.285127697,11.46773529,10.15801447,14.99239002,17.87088248,18.60652477,19.71826945,19.84422869,18.53531879,0.955334819,1,0.995809598,1,1,1,1,1,35.29657708,-77.5664625,2015,NCH1
F42/H95,ONH2_2017,Y,17.7,731.1212129,0,2,229,110,65,64,3.566774253,5.816000056,0.640467161,2.602850346,0.276190468,0.553043346,1.774150425,1.832219351,2.40528059,110.5700018,58.16000056,8.999047586,96.02571482,0.552380936,6.918571438,78.70857161,24.06619065,72.98142847,18.8542372,16.74867072,24.21291039,19.37094181,21.19715784,20.84705237,17.61151759,14.253685,9.927824707,15.7532257,18.68899984,23.40262829,26.34974997,26.59380949,26.86065013,24.57225317,22.91748616,20.00596815,5.764838726,10.96000004,12.03359118,16.18007827,16.63301581,15.91920336,13.14574071,11.27177775,10.10650586,6.141928302,8.38660306,10.68394655,13.52521671,13.7753985,13.64998718,11.58821465,10.41552723,9.107414304,0.598502303,0.966571423,1,1,1,0.999084662,0.956230826,0.8300025,42.45293025,-81.8827315,2017,ONH2
F42/OH43,GAH1_2016,N,14.35,754.9341397,0,2,175,75,59,55.5,6.466250051,4.395000041,0.566421492,2.549627568,3.17469698,5.859943136,4.096967014,2.330999996,2.476261007,206.9200016,35.16000032,6.21000006,86.0200003,9.52409094,52.42727233,105.6731797,11.65499998,76.76409122,15.95696127,18.25385642,20.33100053,20.74024209,20.01064868,19.54302735,19.38198769,19.26953352,18.21451922,23.62687498,22.98249984,28.56134937,29.4983659,33.37075638,32.62719045,33.25026907,34.51499955,33.94928126,11.29749997,10.47000009,15.64744728,16.2846205,20.78287862,20.61269551,21.56927107,22.51809092,22.40467728,10.53971422,9.962440438,14.36481163,15.11313475,19.02952924,18.56859265,19.26668195,20.34390963,19.99415841,0.993928569,1,1,1,1,1,1,1,31.5079175,-83.55854775,2016,GAH1
LH195/LH82,NEH2_2015,N,15.9,749.1418061,0,0,229,110,92,92,1.358750008,3.755999994,3.031264216,1.286090902,0.286666671,1.657187527,3.751759362,0.157499999,0.616713691,43.48000026,37.55999994,66.29000026,43.49999976,0.860000014,16.57187527,117.6431233,0.944999993,18.99062441,19.53783247,19.98656282,18.8528682,23.65152674,23.21232343,22.7312118,19.62767813,21.61948185,18.20728239,15.03874992,23.15200024,18.66927583,30.14561768,32.37510385,32.60862507,30.36489819,32.31320816,28.31448706,-2.426562488,5.230999994,5.264051067,13.5723423,16.5714581,16.13087479,15.9646131,15.56819047,11.19634675,4.192485347,8.478296732,6.894904354,14.37610508,16.560328,16.47008009,15.3434088,16.05261291,12.83173005,0.519497764,0.97653572,0.809891265,1,1,1,1,0.922021698,41.0514495,-100.7471915,2015,NEH2
B73/MO17,NYH1_2019,N,28.5,635.8695056,1,9,276.6666667,162.3333333,69,68,3.742499989,3.13750004,5.753824184,3.193184694,5.054999975,4.679644987,3.141734315,2.115619262,4.095645999,119.7599996,25.10000032,83.05615347,110.7876916,10.59692295,60.83538484,169.67846,49.66846142,126.1984601,19.31204623,22.90652502,19.40556432,20.09548462,19.54416251,18.43271946,14.78687504,11.82668111,8.218362691,18.69937494,22.85875034,22.9010546,27.51683221,28.25012823,26.24284011,22.02988517,19.80082275,11.00573521,7.845625035,10.06374997,12.28813039,16.10263177,16.07333343,14.39934908,10.67406786,8.357505336,1.635690852,7.6395284,9.775213808,10.49055945,14.05854059,14.39300596,12.73828549,9.762895495,8.676471021,3.980466677,0.838560269,0.991875008,1,1,1,0.934962266,0.800347462,0.399612352,42.7288875,-76.65152084,2019,NYH1
2369/LH123HT,ARH1_2016,N,18.4,772.3111404,0,1.5,208,109.5,71,68.5,12.62656226,6.052222146,7.859593922,4.411032368,3.769999921,0.095833332,1.834913509,2.950363528,2.931715563,404.0499923,54.46999931,101.1431819,160.496816,7.539999843,0.824999988,46.86636396,14.75181764,90.88318244,16.40757677,14.40289243,17.41332625,19.31399891,17.48165414,22.15918181,19.7781726,18.25208951,17.22596404,20.37124979,20.08666674,25.25253507,26.30445415,29.50681779,32.27019592,33.22074717,33.17606868,32.75999986,8.53968759,10.04999993,14.84655054,15.67568893,20.10318184,20.90335237,23.01320039,23.46584116,23.35664232,8.376579132,8.623890092,12.4075181,13.38568101,16.80499981,18.57005087,20.09384313,20.24603027,19.89808151,0.932198657,0.999841266,1,1,1,1,1,1,34.72952,-90.7603555,2016,ARH1
B37/MO17,GAH1_2017,N,13.45,707.308286,24.5,2,185,90,62,60,1.929687474,5.730000019,0.343252103,3.449286585,2.107618968,4.586772466,5.884115127,3.462793619,5.790337869,61.74999917,45.84000015,4.185237975,115.4628578,3.161428452,44.24761888,164.3961923,18.00285697,179.500474,16.80249013,20.13732326,20.17342047,19.27076224,21.20480144,16.6798163,18.15858085,19.37517402,17.73704587,23.5584375,24.76124978,28.73884546,29.02932191,29.79031757,30.11825943,30.88468736,33.04158726,32.39466959,8.654999979,9.073749959,13.81601286,15.94569083,16.85142871,20.07059283,21.0580027,22.24365102,22.03411694,9.935165979,10.3201674,13.6844889,14.81363998,15.5596332,17.10789698,17.95959829,19.61349988,19.1980032,0.8834375,1,1,1,1,1,1,1,31.50794425,-83.55854475,2017,GAH1
TX714/TX779,GAH1_2017,N,14.5,764.5880289,2,2.5,180,90,63,62,1.929687474,5.730000019,0.343252103,3.449286585,2.107618968,4.586772466,5.884115127,3.462793619,5.790337869,61.74999917,45.84000015,4.185237975,115.4628578,3.161428452,44.24761888,164.3961923,18.00285697,179.500474,16.80249013,20.13732326,20.17342047,19.27076224,21.20480144,16.6798163,18.15858085,19.37517402,17.73704587,23.5584375,24.76124978,28.73884546,29.02932191,29.79031757,30.11825943,30.88468736,33.04158726,32.39466959,8.654999979,9.073749959,13.81601286,15.94569083,16.85142871,20.07059283,21.0580027,22.24365102,22.03411694,9.935165979,10.3201674,13.6844889,14.81363998,15.5596332,17.10789698,17.95959829,19.61349988,19.1980032,0.8834375,1,1,1,1,1,1,1,31.50794425,-83.55854475,2017,GAH1
PHG39/PHN82,WIH1_2020,N,26,695.7236189,0.5,0.5,255,124,78.5,77.5,1.598387111,6.507143004,4.413520471,5.455426438,9.576153682,6.848251811,1.847198819,1.302442385,3.233674973,49.55000043,91.10000205,54.05307698,191.9769218,14.76999958,75.33076992,75.52923148,17.19923096,99.29769339,20.3303612,17.70938441,19.63774696,21.71928057,19.47191414,18.08778093,19.52506722,17.02277317,12.74244368,13.80935484,15.78214281,24.71870171,28.0331271,31.3961547,28.17125902,26.95535567,26.2427393,20.06715065,1.332903252,5.150000061,13.25869882,14.90724568,18.80923077,17.63741262,14.66820073,13.00544381,8.429758508,4.404075426,5.920121855,11.73838603,13.88054584,17.12955683,14.95247276,13.30208011,12.63591888,8.588509069,0.46481566,0.623010193,1,1,1,0.987099279,0.934776512,0.808464704,43.05505505,-89.52853825,2020,WIH1
B73/PHN82,MOH1_1_2020,N,13.6,731.1212129,0,0.2,230.2,97.8,57.8,56.2,2.765624954,8.119999743,10.49656654,1.909885915,5.802857127,7.415295831,3.691475556,2.293301892,3.400930865,88.49999854,40.59999871,96.7978566,57.0957143,7.737142835,67.39857156,118.848571,17.52928566,104.715714,18.75466287,21.25211372,22.49923535,20.31658939,20.84622072,17.68630925,18.12476098,17.46293798,14.64158327,22.18656257,30.76999931,28.86546125,30.72469998,30.62226157,31.26253243,28.67352632,29.54480095,24.35225034,12.23093753,19.21800041,17.35636515,20.03188031,19.40511944,21.45309498,18.10676495,17.58972003,12.9136675,10.41798935,16.99399986,15.213465,17.3995364,17.01369051,18.36589209,15.51205264,15.80164337,11.56818364,0.936383936,1,1,1,1,1,0.995985623,0.962870504,38.8978375,-92.2070925,2020,MOH1
LH74/PHN82,NCH1_2020,N,17.15,717.2839716,1.75,0.25,198.4375,93.75,65,64,3.811250031,6.583749771,1.870150701,7.593384547,0.8842857,2.636686467,3.330713381,6.121142871,7.323433169,121.960001,52.66999817,29.28357046,255.9407139,2.652857099,23.48571392,94.03142862,30.32857149,227.0264283,17.79310012,18.2030313,21.90311614,16.62410426,22.73441878,20.97653859,20.54309533,18.15988809,15.65141399,21.6678125,23.21999979,23.34870433,27.04964214,28.2173808,30.95634976,33.07043217,33.2972859,31.24656685,8.082812505,11.53125006,9.51933213,18.09668861,18.19142909,20.58560522,22.1124513,22.85800005,21.91055295,8.88590596,10.34544598,9.896418393,14.69404398,15.249625,17.76881847,19.50312724,19.99035698,18.5620876,0.935200903,1,0.995619773,1,1,1,1,1,35.30009892,-77.57131746,2020,NCH1
PHP02/PHB47,NYH2_2017,N,18.1,713.1006196,1,11,262.5,115,70.5,70,4.985806354,2.593333337,3.453715005,5.89688957,0.948070192,3.208418109,2.379655727,2.694333021,3.397972982,154.559997,23.34000003,55.2357889,222.9889478,1.763157895,41.81263091,117.7794744,23.637895,104.1910535,18.91896409,18.22902181,21.62310913,19.28169434,21.2024166,18.91678159,16.97406986,13.88043676,9.439494818,16.54903238,19.80111122,22.34881997,25.65461899,27.16105275,25.3148988,23.28803047,24.25146582,18.24460841,5.239677404,10.2422222,10.55939387,15.21770316,15.87359667,14.84504335,11.5614249,11.15398494,7.352427253,6.267898103,8.570747831,9.793885142,12.80097944,13.68904673,12.46138399,10.55155578,10.87663924,7.688896934,0.638917053,1,1,1,1,0.981507475,0.966916282,0.722284214,42.73248125,-76.65275025,2017,NYH2
LH212HT/LH195,NCH1_2016,N,14.05,731.1212129,0,2,227.5,126.5,65,64,2.901562452,3.125714166,7.137907935,4.683034439,4.3177271,0.863030289,5.226283407,5.104181825,4.507668668,92.84999847,21.87999916,91.86318315,160.7736342,8.497726928,8.495454409,139.9318182,26.12772732,139.7377287,16.36857818,22.27138465,15.49498623,18.72849078,21.8793198,21.8664799,18.529992,18.05675722,17.32656161,20.86125001,25.58571407,25.68946269,27.1054564,30.20318166,31.0559697,32.42423852,33.59766701,33.26035177,7.692187494,8.212857212,14.27003911,16.07300028,18.02681784,18.80169681,21.2796372,22.62190931,22.7218182,8.383421821,10.43985322,12.46468669,13.95599298,16.17160042,16.99727481,18.83160592,19.980567,19.86697781,0.913761163,1,1,1,1,1,1,1,35.30015175,-77.57127825,2016,NCH1
2369/LH123HT,MOH1_2016,N,16.6,731.1212129,0.5,2,282.5,152.5,58.5,57.5,2.465483877,8.058000231,0.264259377,6.282521268,1.94553035,9.25680559,4.358907121,3.354664451,5.453130527,76.43000019,40.29000115,2.879999995,172.8372758,4.262727369,83.20363667,125.2090916,21.13363606,168.2240918,20.2309363,16.93509369,22.49829557,20.20959989,18.68177986,19.21408964,18.0090922,17.17714413,15.87534947,21.83193548,27.56600037,27.88644765,31.21215235,30.25795442,31.2505745,30.57423065,29.80077912,28.25339236,10.073871,16.74400005,16.26474463,19.86215984,19.98371223,20.49117413,20.76153791,19.91431794,17.56318368,9.497798547,14.24343349,14.21296425,17.47336946,17.12232598,17.8699151,17.65104862,16.90998551,15.09561117,0.937315665,1,1,1,1,1,1,0.999442641,38.8955475,-92.2072025,2016,MOH1
CG108/CGR03,NEH1_2015,N,14.8,789.0445484,0,2,220,110,65,52,2.959062506,0.753999996,4.745632833,2.187040691,0.179999996,3.601448917,1.548000793,0.057812502,1.589214364,94.69000018,3.769999981,46.84999943,63.50812512,0.239999995,39.12187557,55.49499987,0.586250016,47.85812447,19.07194562,25.84699936,20.00593662,19.96245842,20.96463704,17.86296284,18.31175333,17.30405645,12.3794141,23.74906254,30.51399994,29.13009987,30.74148671,30.73750019,28.43858622,29.13031746,26.88374984,20.12342532,13.19218739,15.46999989,18.04036499,19.18092822,19.11281252,17.33248289,15.92131484,11.1533021,6.525200269,11.64481375,15.25955733,15.68336601,16.96891106,16.93845514,15.07345461,14.95183393,12.01070089,8.15887847,0.924598212,1,1,1,1,0.96969665,0.982957588,0.758540943,41.290979,-96.41664325,2015,NEH1
LH74/PHN82,TXH1-Late_2018,N,11.7,735.6263612,0,2,230,91,60,60,3.579375003,7.22999986,0.880950212,3.393996506,5.74642872,3.619146949,3.455600496,0.428285708,2.278709721,114.5400001,43.37999916,11.7107143,109.309285,11.49285744,35.41714406,87.15857094,2.141428539,70.64000136,15.18905504,16.98149872,20.4111462,19.99876216,15.81608334,20.1152116,19.58230121,16.39417859,18.61523184,25.42156261,25.48166672,24.9240565,29.86096768,30.55928573,31.11103384,33.47173554,33.67857067,35.62923946,13.73406251,14.7233332,12.14174484,16.97683375,21.17380969,19.92907914,21.60030195,24.8844286,24.53525352,12.24876106,12.9546326,11.47321097,15.6369769,17.86869493,17.49319399,19.34856645,20.63058471,20.90474588,0.995234379,0.961607144,1,1,1,0.999944236,0.999152383,0.999033412,30.546318,-96.4329965,2018,TXH1-Late
PHW52/PHN82,GAH2_2016,N,12.06666667,731.1212129,0,2,239.6666667,189.6666667,51.66666667,50.66666667,1.486129045,0,7.316392826,2.079782856,1.718421064,1.264671045,2.43256314,4.61773679,3.235456168,46.07000041,0,60.50999928,55.97210474,3.436842128,10.11736836,67.31736801,23.15894711,100.2847377,20.21189387,22.87583466,19.10112302,21.34036575,17.85876091,19.83818451,18.50479945,15.9975398,17.29687983,27.80677426,30.50400009,32.06010812,34.2138269,34.93842035,34.86282896,34.62455114,33.33373696,32.80003392,13.8351613,16.55600014,19.35906305,20.32019684,22.9621054,21.76434208,22.04984942,22.29670187,20.14649938,13.32566871,15.60302283,17.72531793,18.78372546,20.36638125,19.89190838,19.9091667,19.70080105,18.42340329,1,1,1,1,1,1,1,1,33.717295,-83.3110275,2016,GAH2
PB80/PHZ51,IAH3_2015,Y,17.06666667,741.8477565,0.333333333,13.66666667,285,131.3333333,65,64,1.888124991,2.913571392,3.784813995,6.971928843,0,3.257500064,1.487385228,2.541446469,4.507444947,60.41999972,40.78999949,55.43999982,241.6600003,0,32.57500064,50.31437471,24.68500039,138.7756267,19.80172794,20.03998334,15.9141292,20.68283491,21.69136486,21.24428636,20.63784564,18.68301758,14.92198489,14.64187506,16.6814285,21.6371088,27.61372247,30.87885427,30.3035625,28.596254,28.51656267,24.33389908,0.83250004,3.600714236,12.24542872,16.05178152,19.47364565,18.11006255,15.99319583,14.30373217,10.64901215,4.605131548,5.787499831,10.11465775,14.1164012,17.17624996,16.25391669,14.57670766,13.97583386,10.87542788,0.501462055,0.634540813,0.981270753,1,1,1,0.968879463,0.933929792,41.97585629,-92.24291804,2015,IAH3
LH195/LH82,MIH1_2017,Y,23.15,656.4644693,0,2,89.5,41,60.5,60.5,2.651290334,1.642500043,0.365195355,3.685889798,0.022982455,0.462972321,1.745768067,1.924198947,6.215848807,82.19000036,13.14000034,4.417894763,131.6678931,0.068947365,5.871578781,77.40789432,25.15789459,187.919471,20.75480046,19.52619267,24.47429891,19.89055103,21.94334328,22.12060477,17.47908742,14.76431364,9.641321864,18.99677434,22.1187501,26.44652255,27.49693157,27.7329823,27.82492569,25.37386911,24.10071042,20.63989867,5.961290348,11.91874993,11.36318641,16.0503933,16.08877179,14.96255052,12.27657104,9.93890341,8.936309075,7.303217139,10.01258026,11.86785018,14.06113521,14.11607898,13.75096176,11.67659513,10.59348898,9.148775778,0.770126733,1,1,1,1,0.999072621,0.949278334,0.816440377,42.68116575,-84.49434125,2017,MIH1
PHN11_PHW65_0323/LH195,NCH1_2017,N,17.3,731.1212129,0,2,194.5,85.5,65,64,5.929354779,4.097142833,0.297958702,3.860588722,6.673809642,5.437090039,2.513672686,1.67758051,4.140460835,183.8099982,28.67999983,4.023333254,115.8195228,10.90952401,51.84571517,65.15761944,9.68857149,128.3542859,16.84796118,19.66078799,22.20077414,19.20396089,15.77249108,20.54839894,18.7994723,19.26606379,16.40835168,26.07000006,23.57857159,28.17011276,29.72614366,31.01404729,30.48814813,32.54721675,31.95695904,30.43138246,13.64064524,11.25142826,15.69757802,18.87536398,22.57674573,19.84793622,22.28039625,21.2748593,20.81350234,12.56442422,10.48784987,14.26665949,16.36044911,18.79940835,17.21144066,19.38557496,18.57336573,17.65269876,0.998329492,1,1,1,1,1,1,1,35.29663725,-77.5668065,2017,NCH1
F42/MO17,IAH3_2017,Y,20.3,725.9724719,0,2,229,110,65,64,4.153750014,4.476666673,3.404720357,2.207347727,0.783636364,2.628276904,1.892687593,2.328876272,1.794257086,132.9200004,67.1500001,54.03954627,78.33863542,1.567272728,28.02681865,71.85545488,19.05045461,54.69545453,16.14493189,17.75127989,18.89303832,22.07985964,20.54923199,20.99384486,19.81852315,17.22919489,15.64326955,15.84312499,15.5066665,21.42652578,27.714982,28.45522753,29.90074383,27.6545798,25.64720852,25.13760955,4.41906251,4.141333344,9.782295063,13.56526933,16.05901469,16.6123348,14.8096002,12.74600627,11.28191352,5.818880471,5.62230391,9.387130072,13.2881535,14.4256186,15.3843105,13.65871261,11.89796048,11.29223634,0.568604913,0.570380948,0.879734313,1,1,1,1,0.979205627,41.9758706,-92.24318881,2017,IAH3
F42/OH43,SDH1_2015,N,28.75,592.7488002,0.5,6,157.5,82,71,67,1.890000034,2.68444448,2.847212523,0.928406021,1.08916667,1.213193166,1.12388612,3.994558873,0.570569385,58.59000105,24.16000032,33.86000057,31.14874977,1.720000006,12.77624983,39.02562428,27.90249949,17.65812508,21.16446504,23.3864585,24.03054242,23.94878495,21.74335716,21.42490048,20.60212775,16.27746828,15.18579983,19.04290341,22.5888888,27.20826416,30.46229654,29.54760476,31.86073879,31.47770382,29.48664523,24.89733582,4.208709664,8.468888919,11.69082143,14.25969647,14.29062517,16.06534098,14.02269822,14.11578116,6.942900096,6.807516906,9.210660666,12.27390437,14.67606113,14.18888263,15.81431879,15.00552731,14.17539039,9.834808296,0.77025346,0.983690483,1,1,1,0.983472358,0.961069402,0.950039755,44.208745,-102.928745,2015,SDH1
PHW52/PHN82,IAH1_2019,Y,24.7,703.4467303,0,3.5,230,112,65,64,8.157187574,0.75333335,7.315577374,1.144389074,0.212857144,0.731688293,3.103679801,5.185721735,4.918979992,261.0300024,4.5200001,87.30642721,32.26642813,0.212857144,8.04857122,121.5035704,46.39999972,147.9399989,18.01904646,22.72114833,18.53868323,20.84617194,19.20093738,21.91428985,16.4832458,14.23349405,11.00878768,22.30999994,27.52999973,24.52617789,31.4481278,28.63047609,29.47870132,27.11002697,25.00731411,20.46577188,10.93062501,14.96333329,14.91684483,20.02766766,18.36452364,16.34071412,15.67686671,13.06746994,9.592819484,10.11779152,13.58137929,12.09039624,17.73903178,15.5681627,15.08353594,13.70818638,12.14295105,9.387875541,0.879263394,1,1,1,1,0.994329881,0.928985237,0.797752907,41.1992562,-91.4941418,2019,IAH1
B73/TX779,MIH1_2020,N,34.95,694.4364337,0,7,249.25,154,70,64.5,4.984838709,2.447142908,2.78018427,2.64718347,5.506875038,1.476884461,2.688717092,6.006552647,2.65185957,154.53,17.13000035,30.43499947,89.07562375,6.053750038,16.17374991,112.2143753,49.72375022,79.8756258,20.40588462,19.28742858,24.32683064,21.06964646,18.47526628,19.40802789,18.05267967,13.18055513,11.8632568,17.75483874,24.12857165,28.18736501,29.25734834,30.47187495,29.12451894,27.19720882,23.65947149,18.53645566,5.91032262,13.18571418,13.36449351,15.87753885,17.57625037,17.40439215,14.2199518,12.09430501,6.603961046,6.886871568,11.64218502,13.33305563,14.86544572,16.04104967,15.33737973,13.2580117,11.17810785,7.349100415,0.70564517,0.993469382,1,1,1,0.990981538,0.929873564,0.775463757,42.7085775,-84.4705825,2020,MIH1
F42/OH43,NCH1_2016,N,14.85,731.1212129,0,11,234,128,65,64,2.901562452,3.125714166,7.137907935,4.683034439,4.3177271,0.863030289,5.226283407,5.104181825,4.507668668,92.84999847,21.87999916,91.86318315,160.7736342,8.497726928,8.495454409,139.9318182,26.12772732,139.7377287,16.36857818,22.27138465,15.49498623,18.72849078,21.8793198,21.8664799,18.529992,18.05675722,17.32656161,20.86125001,25.58571407,25.68946269,27.1054564,30.20318166,31.0559697,32.42423852,33.59766701,33.26035177,7.692187494,8.212857212,14.27003911,16.07300028,18.02681784,18.80169681,21.2796372,22.62190931,22.7218182,8.383421821,10.43985322,12.46468669,13.95599298,16.17160042,16.99727481,18.83160592,19.980567,19.86697781,0.913761163,1,1,1,1,1,1,1,35.30015175,-77.57127825,2016,NCH1
PHN11_PHW65_0323/LH195,DEH1_2016,N,23.4,695.7236189,0,1,250.5,120,78,76,2.701875035,7.431818214,3.891344367,3.01543569,5.358105985,2.453055546,7.028031294,2.624318106,3.1968602,86.46000111,81.75000036,66.39499953,101.6163622,13.33454524,24.02227264,188.3231781,15.05272682,98.58045408,18.33047433,10.1000462,19.40971708,21.02938559,18.25055452,17.64652011,18.94468483,17.7865103,16.44449792,18.09,16.60090897,19.90208421,27.67646738,27.79681775,28.9030859,31.91379825,31.21812112,30.57169607,5.529687506,9.93090907,10.11289786,16.8589893,18.02106052,19.78800518,21.90881045,21.62957593,20.16127331,6.825577378,7.645605865,8.606637786,14.43603228,14.98401645,16.37610101,18.85541374,18.37748956,17.3477875,0.726328134,0.729318176,0.990929859,1,1,1,1,1,38.6482025,-75.44606,2016,DEH1
B37/OH43,NCH1_2016,N,14.2,731.1212129,4,3,228,119,65,64,2.901562452,3.125714166,7.137907935,4.683034439,4.3177271,0.863030289,5.226283407,5.104181825,4.507668668,92.84999847,21.87999916,91.86318315,160.7736342,8.497726928,8.495454409,139.9318182,26.12772732,139.7377287,16.36857818,22.27138465,15.49498623,18.72849078,21.8793198,21.8664799,18.529992,18.05675722,17.32656161,20.86125001,25.58571407,25.68946269,27.1054564,30.20318166,31.0559697,32.42423852,33.59766701,33.26035177,7.692187494,8.212857212,14.27003911,16.07300028,18.02681784,18.80169681,21.2796372,22.62190931,22.7218182,8.383421821,10.43985322,12.46468669,13.95599298,16.17160042,16.99727481,18.83160592,19.980567,19.86697781,0.913761163,1,1,1,1,1,1,1,35.30015175,-77.57127825,2016,NCH1
F42/OH43,COH1_2017,Y,17.7,731.1212129,0,2,229,110,65,64,3.393124943,0,0.001708684,0.360843908,0.891428554,3.560382097,1.42287895,1.565670675,1.770870451,108.5799982,0,0.02904762,12.29476177,1.600476163,43.78523833,56.48285717,21.02523811,53.20285701,22.26802993,25.65694836,25.9931063,24.2875628,21.26982858,19.37652668,19.65631787,15.92591012,11.99136935,20.38624986,26.27857154,29.00990249,30.95750085,32.84396765,29.24597739,27.87075516,24.49812031,17.64004964,4.676250031,9.955714362,11.44166305,13.33492254,15.64190474,14.2894836,11.55992968,8.650869984,2.505724526,7.387813889,11.22152513,12.97827389,14.53136664,16.23032426,14.11586508,12.58015619,10.40568176,6.007000116,0.859799101,1,1,1,1,0.978368119,0.882220332,0.653649732,40.64850025,-104.9997825,2017,COH1
CG44/CGR01,ONH1_2017,Y,24.8,668.0491364,0,13,240,107.5,72,72,4.42290319,4.904999876,1.545173221,3.420435244,1.695375006,2.594700004,1.855534774,1.54565171,2.383111348,137.1099989,49.04999876,23.52600009,140.8034994,5.378000009,36.46150006,95.23350107,29.85300009,72.44250006,18.65662235,17.08545341,23.10813164,20.12586768,18.11232318,19.44819915,16.33652997,11.62209215,7.957733996,13.94322577,18.20700026,22.35689536,24.80045755,25.17183321,25.2296929,22.79396283,22.13957367,13.29532023,3.578387066,9.706999969,10.10387851,14.12185296,14.82349991,13.63261195,10.3904862,9.847475595,3.166289439,4.958212412,8.025894563,9.659097931,11.97096233,12.35740613,11.98311106,9.953455995,10.0654016,5.273375752,0.439723498,0.877642858,1,1,1,0.972410901,0.840292505,0.515578473,43.49546,-80.42596875,2017,ONH1
PHN11_PHG47_0251/PHB47,GAH2_2017,N,18,688.0005075,26,2,244.5,113.5,51.5,54,5.215806507,2.59000005,0.877047008,6.976424555,36.66571527,11.68990473,2.766634194,6.717714339,5.237281131,161.6900017,18.13000035,10.98809533,219.4985743,69.630002,116.6428568,77.55666748,33.5885717,162.3557151,18.59375843,20.97986943,21.98193589,18.54567619,14.33990901,17.7663424,19.78523868,18.86354985,17.57616326,25.93516134,24.17571449,30.47339418,29.31252372,29.52904774,29.72980419,32.72601502,32.10511542,30.76784952,12.17225799,9.938571385,16.15324828,18.06353156,20.43476164,19.51114297,21.20992787,20.86352373,19.95543778,11.90954616,10.38538115,15.45655397,15.75249851,16.98190469,16.63412837,18.90169131,18.47155665,17.41241638,0.999631335,0.985714285,1,1,1,1,1,1,33.727145,-83.29821525,2017,GAH2
B14A/MO17,WIH2_2018,N,26.34,834.8683427,2.6,2,249.2,124.8,66.2,65.8,3.144193572,1.768571428,3.785071194,5.164846227,1.715952385,3.402224049,3.044948822,9.615599338,3.371772616,97.47000074,12.38,46.28142902,179.8699983,4.560714279,37.70642883,131.4821453,73.47714479,101.7171416,19.25733411,21.12108299,21.47525877,21.2745393,18.31717262,18.53021556,18.66070884,13.62580315,11.37185475,15.52870961,24.66571426,26.09170284,28.23486864,27.86595249,27.65838755,26.70641136,24.92152362,17.96867439,3.195161297,12.95000008,13.88902894,15.13385395,17.40500012,17.0648215,13.77097062,13.5657747,6.887165117,5.289841082,11.57195132,12.6458491,14.08946858,14.71699087,14.50107081,12.89356629,12.23397282,7.279203781,0.580092163,1,1,1,1,0.981419113,0.932006969,0.73866365,43.38075,-89.38645,2018,WIH2
LH198/PHZ51,IAH1_2017,Y,16.475,769.7367699,0.5,2.25,214.75,95.75,65,64,3.40562493,4.965384584,4.756276119,1.833606587,3.814090996,2.221484887,3.670808328,1.81325484,2.347473118,108.9799978,64.54999959,71.28272616,63.78727258,4.177727374,22.83863677,118.9068186,13.7622725,72.03681816,16.19865167,17.41178014,18.84198651,22.07722619,19.57094626,20.6423577,19.65334879,19.12382584,16.87809105,17.11343735,15.37846162,22.95951679,28.09807267,26.50742381,30.27960591,29.79948923,26.92834941,26.37674051,5.413125027,4.923076978,11.46549016,14.16962528,11.61757578,16.65775237,16.66504091,13.38757222,12.41510662,6.530778339,5.768563812,10.45370215,13.71965113,11.94783378,15.64262598,15.39964617,12.71239892,12.1737806,0.629988832,0.555054952,0.946458762,1,1,1,1,0.998130952,41.19924609,-91.49402296,2017,IAH1
PHB47/PHZ51,NYH3_2017,Y,17.5,726.6160645,0,13,270.5,123.5,74.5,74.5,4.985806354,2.593333337,3.440292244,5.924553407,1.051666657,3.381140065,2.23243854,2.798625029,4.018371008,154.559997,23.34000003,54.13749945,222.2425004,2.049999952,44.44499943,102.8575006,24.55750025,123.6625012,18.91896409,18.22902181,21.60070221,19.42377057,18.75741065,18.65984774,17.28846846,13.47436078,9.528870152,16.54903238,19.80111122,22.34799835,25.7161787,25.88750029,25.25326924,23.49877068,24.29574993,19.15391932,5.239677404,10.2422222,10.56618324,15.20414844,15.99166679,14.88818678,11.70967484,11.14050002,8.077069991,6.267898103,8.570747831,9.800943694,12.82521906,13.14722321,12.44715548,10.67530521,10.86002668,8.093424028,0.638917053,1,1,1,1,0.987943118,0.977741071,0.791930495,42.73339625,-76.652747,2017,NYH3
B73/PHM49,TXH1_2019,N,11.105,843.0741486,0,0,208.5,71.5,70,68.5,1.71448275,0.072857141,3.656594302,9.095434564,0.409285716,1.207678571,5.355850783,1.246142852,1.574419343,49.71999974,0.50999999,52.00785631,328.2121388,0.592857139,9.661428571,146.4478573,6.531428533,47.51499965,15.42805705,20.52131135,18.76898834,18.57032559,21.42349659,18.85281525,20.14881361,21.03072751,19.84089234,18.45000007,25.76428577,24.43254944,27.27586732,31.09000002,32.37866099,32.72435205,34.04471448,34.98200776,6.826206914,10.35000004,10.67963154,14.78766739,18.65857179,21.85071427,21.02442735,21.79614282,22.6049739,7.457816468,11.1589152,10.85119479,13.46630403,16.91193677,19.11412105,18.84765314,19.77807102,20.01419559,0.749667494,1,0.945308164,1,1,1,1,0.999698925,30.546318,-96.4329965,2019,TXH1
LH195/PHZ51,WIH3_2020,N,22.35,698.2979894,0,0.5,268.5,136.5,69,67.5,2.733870995,5.446666638,6.112394342,4.74655674,3.655208389,1.04360979,2.527373572,3.69928986,2.61452892,84.75000083,32.67999983,82.9068754,167.6149986,8.003125131,12.58312517,113.8450009,40.74312496,78.93437568,20.41919384,18.2775027,21.33639865,20.40337995,19.49413761,18.99324058,17.80850823,14.15156863,10.1168501,15.48354838,26.52499994,25.39100386,27.30541678,28.00124967,27.24401428,25.77617537,21.78088819,14.67245705,3.106129019,15.18500026,12.31273591,15.12317531,16.14624966,16.31340126,13.17330579,9.92591724,4.431311843,5.287102842,13.2823578,11.70416503,13.61992535,14.28505882,13.97808988,12.29059579,9.657643491,5.630137727,0.571854837,1,1,1,1,0.965668942,0.879609054,0.560799012,44.115703,-89.54491325,2020,WIH3
B73/MO17,NCH1_2015,Y,17.75,731.1212129,0.5,0.5,239,138,65,64,3.0140625,9.692856925,3.043308324,7.00027835,0,3.411347986,2.886716411,10.31533332,6.56176467,96.44999999,67.84999847,47.46470581,233.8535261,0,30.12176424,80.44058821,53.94764695,203.4147048,18.56641886,18.5514961,20.38733283,17.18369043,24.39251002,21.03629604,20.30189304,17.27178406,15.58503138,22.38312501,24.94999995,23.18034629,27.40244989,31.82117664,31.76743482,33.30845927,33.22968591,31.16039845,8.592187501,12.50999982,10.48535005,18.40286831,19.92058833,21.46261411,22.34001137,22.61282364,21.92468694,9.285127697,11.46773529,10.15801447,14.99239002,17.87088248,18.60652477,19.71826945,19.84422869,18.53531879,0.955334819,1,0.995809598,1,1,1,1,1,35.29657708,-77.5664625,2015,NCH1
F42/OH43,NEH3_2015,N,18.8,713.7442122,0,1,229,110,65,63,3.231250057,0.918000031,0.565093977,1.286692195,3.19749999,1.391136354,0.258061221,1.474667183,0.155891338,103.4000018,4.590000153,6.150000095,39.04749978,4.720000029,15.30249989,11.17999983,14.52874985,4.648125023,21.79127574,25.69442635,22.86725485,21.82271665,15.26317632,20.59079,20.06412842,16.27968968,13.53861776,24.28750017,32.64599991,30.58771447,32.67731329,28.91593772,29.87238656,30.80707127,25.39031645,21.32018275,9.278749934,13.0079998,13.8828633,15.7826582,17.05531204,14.62710229,13.18313307,8.87540479,3.334017086,10.46257825,15.28330691,14.45465852,16.22005678,15.0938879,14.496454,14.53020136,10.90039565,7.851747396,0.909587052,1,1,1,1,0.965712824,0.862507779,0.80953931,41.15824525,-101.9872958,2015,NEH3
TX951/LH195,KSH1_2016,Y,15.4,812.2138826,0,1,170,90,93,93,0.381562503,5.593749881,9.031136959,3.981909994,0,0.897724769,5.011421387,3.322424253,5.670073263,12.2100001,44.74999905,140.9509078,148.5090918,0,8.374091108,139.438637,19.93454552,175.7722711,18.43315426,14.04582843,18.34613738,20.88446512,22.70328743,20.59441801,18.34986672,18.15379387,17.32510191,19.15124996,21.70124984,22.33901244,27.19377063,36.31272689,35.17540036,32.01078432,33.85633352,30.76895891,2.130625044,11.46499991,9.568238579,14.2621368,21.58727247,22.04353923,20.78061301,22.71134866,19.49139311,6.3158573,9.667291017,9.626890379,13.35418843,19.56599107,19.14397536,18.06824645,19.12054732,17.03744615,0.741573662,1,0.921279778,0.986042268,0.991287871,0.998977631,0.993550002,1,39.14480675,-96.62898225,2016,KSH1
PHN11_OH43_0001/PHB47,IAH1_2017,Y,16.45,715.6749901,0,1.5,206,82,65,64,3.40562493,4.965384584,4.756276119,1.833606587,3.814090996,2.221484887,3.670808328,1.81325484,2.347473118,108.9799978,64.54999959,71.28272616,63.78727258,4.177727374,22.83863677,118.9068186,13.7622725,72.03681816,16.19865167,17.41178014,18.84198651,22.07722619,19.57094626,20.6423577,19.65334879,19.12382584,16.87809105,17.11343735,15.37846162,22.95951679,28.09807267,26.50742381,30.27960591,29.79948923,26.92834941,26.37674051,5.413125027,4.923076978,11.46549016,14.16962528,11.61757578,16.65775237,16.66504091,13.38757222,12.41510662,6.530778339,5.768563812,10.45370215,13.71965113,11.94783378,15.64262598,15.39964617,12.71239892,12.1737806,0.629988832,0.555054952,0.946458762,1,1,1,1,0.998130952,41.19924609,-91.49402296,2017,IAH1
PHG29/PHG47,WIH3_2020,N,27.75,721.4673236,0,0,239,117.5,60.5,58,2.733870995,5.446666638,6.112394342,4.74655674,3.655208389,1.04360979,2.527373572,3.69928986,2.61452892,84.75000083,32.67999983,82.9068754,167.6149986,8.003125131,12.58312517,113.8450009,40.74312496,78.93437568,20.41919384,18.2775027,21.33639865,20.40337995,19.49413761,18.99324058,17.80850823,14.15156863,10.1168501,15.48354838,26.52499994,25.39100386,27.30541678,28.00124967,27.24401428,25.77617537,21.78088819,14.67245705,3.106129019,15.18500026,12.31273591,15.12317531,16.14624966,16.31340126,13.17330579,9.92591724,4.431311843,5.287102842,13.2823578,11.70416503,13.61992535,14.28505882,13.97808988,12.29059579,9.657643491,5.630137727,0.571854837,1,1,1,1,0.965668942,0.879609054,0.560799012,44.115703,-89.54491325,2020,WIH3
B73/PHM49,NYH1_2018,Y,17.9,731.1212129,0,2.5,261,121,67.5,67,4.394516057,1.637142931,0.546464292,3.461265884,6.062261837,4.338061718,2.067540981,1.177456758,2.359527655,136.2299978,11.46000051,7.340000123,113.5449994,14.95785693,45.27285745,83.63714323,15.50214277,71.28500016,21.14905797,19.51909583,22.50012197,20.49014312,17.37909559,18.62357236,17.54437735,14.42309006,11.11333684,16.43838702,24.34714304,24.48084385,28.4079325,28.47095262,28.85558784,26.25577716,21.21730113,17.53723965,4.181612903,13.18428578,11.78804566,16.02970596,18.15166677,17.53428468,14.37510127,9.649634667,6.532510054,6.046172102,11.82070517,11.18993529,14.50776692,15.35223703,15.26441478,12.8637381,9.179788733,7.084201569,0.564688941,0.946581643,0.98880424,0.99833546,1,0.984010821,0.898581807,0.740508559,42.72940418,-76.65161667,2018,NYH1
B73/PHM49,TXH1_2020,N,11.0125,747.8546209,0,2,208.28,72.39,68.5,67.75,2.284333333,0,4.613530444,2.949806388,1.362941181,6.741056464,2.844869093,3.829088224,2.301094231,68.53,0,55.97058804,110.7988238,1.362941181,71.52235312,82.32059028,18.97352936,69.29117607,13.91343843,13.3863348,15.08816438,19.79337859,19.48130546,19.24170726,19.77113757,20.7945973,17.91495332,20.02266652,27.17999992,26.60815942,26.52479293,29.39617636,29.12989124,32.2266946,33.03076485,34.59511331,6.794333295,17.20400028,15.2455437,13.65359797,17.29686298,16.61337131,20.73348334,20.06167624,24.24037069,7.901247141,14.27292515,13.38037585,12.76738989,15.58009007,15.11126374,18.39892159,18.53701373,20.50202011,0.821357143,1,0.99243504,0.993791594,1,1,1,0.999042533,30.53781575,-96.4283715,2020,TXH1
PB80/PHZ51,MIH1_2016,Y,17.35,743.9930652,0,2,258,133,63,62,3.213870927,0.372000003,1.277668238,2.072144594,0.204761899,2.382636341,6.277866916,3.129595251,4.115734243,99.62999874,1.860000014,16.77857134,74.4033328,0.614285696,24.34142835,217.3680916,23.88571438,123.5814282,20.04481233,22.69628944,22.57460654,21.19066928,19.62511718,19.41470496,17.43536011,14.16523572,12.41239439,17.74322581,29.20999985,25.57947765,28.1508514,27.23547651,30.32783564,28.27294529,26.6388532,22.50219404,5.299677434,16.33600006,11.90361174,14.70447611,15.74579377,17.52671,16.25511672,15.58650841,10.86825081,6.615827776,14.89908974,11.62365975,13.82943527,13.70908531,16.01583991,14.48649579,13.48265,10.09129455,0.734400922,1,1,1,1,0.999987733,0.99326559,0.936590208,42.41206675,-84.2952625,2016,MIH1
LH198/PHZ51,MNH1_2016,Y,19.3,731.1212129,0,2,229,110,69,67.5,2.893225764,0.170000008,5.030425272,6.121705224,6.438583227,6.210954471,8.179238718,7.617170889,9.394742846,89.68999869,1.190000057,67.79499967,212.8530004,13.67999972,65.11499918,295.599999,62.20750045,287.315495,17.89673604,26.28611401,18.122652,20.29948324,15.80941307,17.87578139,16.93568638,15.29315111,12.15008877,17.5148386,25.45428576,24.53269911,27.63337014,28.14450006,28.70269129,27.15887183,24.8505404,22.53032632,6.338387108,9.824285678,13.68155402,15.81410535,17.82425013,18.42635015,16.92976579,13.57123889,11.50456607,6.871134867,10.90204251,11.6566452,13.98369248,15.05511886,15.68076391,14.22086787,11.86153057,10.26982602,0.734527645,1,1,1,1,0.999952477,0.98729881,0.936092645,44.06646925,-93.533648,2016,MNH1
B14A/H95,NCH1_2016,N,14.75,731.1212129,0,12,217.5,127,65,64,2.901562452,3.125714166,7.137907935,4.683034439,4.3177271,0.863030289,5.226283407,5.104181825,4.507668668,92.84999847,21.87999916,91.86318315,160.7736342,8.497726928,8.495454409,139.9318182,26.12772732,139.7377287,16.36857818,22.27138465,15.49498623,18.72849078,21.8793198,21.8664799,18.529992,18.05675722,17.32656161,20.86125001,25.58571407,25.68946269,27.1054564,30.20318166,31.0559697,32.42423852,33.59766701,33.26035177,7.692187494,8.212857212,14.27003911,16.07300028,18.02681784,18.80169681,21.2796372,22.62190931,22.7218182,8.383421821,10.43985322,12.46468669,13.95599298,16.17160042,16.99727481,18.83160592,19.980567,19.86697781,0.913761163,1,1,1,1,1,1,1,35.30015175,-77.57127825,2016,NCH1
B73/MO17,TXH1-Dry_2018,N,9.2,684.7825444,0,2,251.5,108,72.5,71.5,2.442333295,0.87833333,4.91741256,2.91095925,1.112321411,5.987347663,3.094033648,2.445309502,2.573656677,73.26999886,5.269999981,55.2178573,113.3721426,4.449285643,64.36357035,86.72785865,13.67714274,77.357857,13.4988633,14.49154552,13.92485348,19.6618496,19.390827,19.64184359,19.38410293,21.21373351,18.01258323,19.68933331,26.95833333,25.66614373,26.56996845,30.24238085,29.14372996,31.91805433,33.2644762,34.51160554,6.357666679,15.03999996,15.13755815,13.69055459,18.24071415,16.44843436,20.63070323,20.50154739,23.97494014,7.613570572,13.40715604,12.87528071,12.79536137,16.34410207,15.0664779,18.21233438,18.75919739,20.40606275,0.821476194,1,0.991620595,0.99408643,1,1,1,0.999013392,30.546318,-96.4329965,2018,TXH1-Dry
F42/OH43,TXH1_2015,Y,11.9,735.6263612,0,2,173,79,66,66,2.435333351,0.886666695,4.529386736,2.992210444,0,5.407499953,3.236240411,4.528416659,2.205666663,73.06000052,5.320000172,54.16999972,113.7899998,0,59.48249948,89.11249819,24.54499996,66.1699999,13.38128519,15.80308406,13.73749678,19.48289484,22.46598899,19.96463979,19.54848583,19.57031498,18.03135075,19.61999995,26.26833312,25.8489028,26.4780255,30.37177098,28.79539756,31.9014052,33.48070828,34.35516661,6.122333375,12.74499997,15.39155332,13.69439061,15.83385423,15.9580683,20.41172374,21.45270844,23.93220836,7.516768444,12.28221354,13.06030889,12.7550996,15.35592881,14.67426974,18.11040569,19.30603111,20.37775841,0.822428569,1,0.992325397,0.994092815,1,1,1,0.999431249,30.54708625,-96.43393475,2015,TXH1
B73/DK3IIH6,DEH1_2016,Y,15.35,720.823731,0,1.5,265,144,75.5,77,2.701875035,7.431818214,3.891344367,3.01543569,5.358105985,2.453055546,7.028031294,2.624318106,3.1968602,86.46000111,81.75000036,66.39499953,101.6163622,13.33454524,24.02227264,188.3231781,15.05272682,98.58045408,18.33047433,10.1000462,19.40971708,21.02938559,18.25055452,17.64652011,18.94468483,17.7865103,16.44449792,18.09,16.60090897,19.90208421,27.67646738,27.79681775,28.9030859,31.91379825,31.21812112,30.57169607,5.529687506,9.93090907,10.11289786,16.8589893,18.02106052,19.78800518,21.90881045,21.62957593,20.16127331,6.825577378,7.645605865,8.606637786,14.43603228,14.98401645,16.37610101,18.85541374,18.37748956,17.3477875,0.726328134,0.729318176,0.990929859,1,1,1,1,1,38.6482025,-75.44606,2016,DEH1
B73/MO17,SCH1_2019,N,14.855,731.1212129,2,2,226.06,87.63,56,59,3.522580645,3.026666641,1.832071666,3.15534991,1.497023807,2.439880971,1.838213127,1.715047598,2.162465429,109.2,18.15999985,19.94999987,97.87357193,2.846428582,21.92714303,50.9164284,9.481428444,67.0364283,18.2238054,19.24788825,19.83816148,19.9388592,17.79349522,20.88775084,19.93011295,20.19525604,17.6553152,24.08129043,27.55666669,26.86360264,30.30302253,30.15095266,31.81823454,32.87501498,31.84457125,32.33357145,10.7222581,15.88833332,14.78977791,18.33498627,20.49666657,19.48954379,21.18366564,19.1694286,20.16504603,10.62715993,13.88239503,13.27455789,16.3672742,17.32380961,17.64580353,19.00989067,17.48787314,18.15917061,0.967315668,1,1,1,1,1,1,1,34.62248225,-82.73756775,2019,SCH1
B14A/MO17,IAH3_2019,Y,23.25,662.2568029,0.5,0,238.5,130,65,64,2.879677419,8.325833271,8.514982687,3.930253796,0.537380945,2.3054841,2.306432914,9.350841805,5.38576807,89.26999998,99.90999925,122.1842849,140.4857139,1.612142835,22.50785688,97.56999955,77.30999979,164.0414292,18.1142604,18.14433392,18.34133211,20.20102762,20.30083813,21.10542726,19.14151731,15.03963484,12.83068274,16.60032246,18.1858333,22.24543073,27.09611601,28.60416662,30.1634999,27.59661349,25.62734982,23.13272506,3.497096781,6.015833348,10.94521806,15.70806976,18.18130992,18.44873807,15.55405048,14.14793364,12.04513443,5.803122395,7.048807354,9.977529243,13.7421048,15.43701566,16.36698878,13.8976006,12.43400485,10.94701098,0.634539169,0.718095232,0.926337681,1,1,1,0.9932483,0.897879883,41.97593131,-92.24310603,2019,IAH3
F42/MO17,GAH1_2016,N,14.5,696.3672116,0,2.5,210,95,60.5,58,6.466250051,4.395000041,0.566421492,2.549627568,3.17469698,5.859943136,4.096967014,2.330999996,2.476261007,206.9200016,35.16000032,6.21000006,86.0200003,9.52409094,52.42727233,105.6731797,11.65499998,76.76409122,15.95696127,18.25385642,20.33100053,20.74024209,20.01064868,19.54302735,19.38198769,19.26953352,18.21451922,23.62687498,22.98249984,28.56134937,29.4983659,33.37075638,32.62719045,33.25026907,34.51499955,33.94928126,11.29749997,10.47000009,15.64744728,16.2846205,20.78287862,20.61269551,21.56927107,22.51809092,22.40467728,10.53971422,9.962440438,14.36481163,15.11313475,19.02952924,18.56859265,19.26668195,20.34390963,19.99415841,0.993928569,1,1,1,1,1,1,1,31.5079175,-83.55854775,2016,GAH1
B37/MO17,MOH2_2015,N,14.6,731.1212129,0,7,240,135,75,73,3.914838722,3.534545422,2.891676029,5.446623968,2.505882375,1.1137255,5.068586465,0.980448186,4.011119538,121.3600004,38.87999964,35.23176398,173.6929392,5.011764751,10.0235295,148.9223525,6.487058864,124.3447057,19.08701148,18.12534948,17.16717858,21.59629129,16.88945411,20.34516158,18.32895435,19.90608894,16.95494386,18.756129,18.24727275,23.87322904,29.02836507,30.59176479,31.93248319,30.27285599,28.73220747,28.34062618,6.152580692,8.059091026,15.30129973,17.80114352,21.94705907,21.39261428,20.17023127,17.40519331,17.20941189,7.288196993,7.58478923,12.05891064,15.51775091,18.26941193,18.66254873,17.2518739,15.21359182,14.97078901,0.75554147,0.814935086,1,1,1,1,1,1,38.89807917,-92.2079,2015,MOH2
TX777/LH195,NCH1_2020,N,28.175,685.1043408,12,0,221.25,108.125,65,64,3.811250031,6.583749771,1.870150701,7.593384547,0.8842857,2.636686467,3.330713381,6.121142871,7.323433169,121.960001,52.66999817,29.28357046,255.9407139,2.652857099,23.48571392,94.03142862,30.32857149,227.0264283,17.79310012,18.2030313,21.90311614,16.62410426,22.73441878,20.97653859,20.54309533,18.15988809,15.65141399,21.6678125,23.21999979,23.34870433,27.04964214,28.2173808,30.95634976,33.07043217,33.2972859,31.24656685,8.082812505,11.53125006,9.51933213,18.09668861,18.19142909,20.58560522,22.1124513,22.85800005,21.91055295,8.88590596,10.34544598,9.896418393,14.69404398,15.249625,17.76881847,19.50312724,19.99035698,18.5620876,0.935200903,1,0.995619773,1,1,1,1,1,35.30009892,-77.57131746,2020,NCH1
B37/H95,MOH1_2019,N,17.79,731.1212129,0,1.7,219.5,102.1,63.7,62.3,4.907419428,9.604285649,1.196872498,5.110410132,2.801666578,0.134444442,2.379708247,7.113428694,4.895301043,152.1300023,67.22999954,11.80625023,164.838749,8.404999733,1.209999979,75.06875065,40.48125055,151.407499,17.06584337,18.93672998,19.67293901,19.7601386,19.15913832,21.9354776,19.8853634,16.02367873,15.25367059,21.02129029,24.39000021,28.1749685,28.34324165,30.6675001,31.10263872,30.50513849,30.12964257,28.72433606,9.960645122,13.42857129,17.39529908,18.05620523,21.36166632,20.47986097,19.32223721,20.23911926,18.26780907,9.14854411,11.68484074,14.86417974,15.32069344,18.01458321,17.78759074,16.90970541,17.17973687,15.57482707,0.941624426,1,1,1,1,1,1,1,38.8956125,-92.20883,2019,MOH1
PB80/PHZ51,MOH1_2016,N,16.9,731.1212129,0,2,262.5,137.5,57,55.5,2.465483877,8.058000231,0.264259377,6.282521268,1.94553035,9.25680559,4.358907121,3.354664451,5.453130527,76.43000019,40.29000115,2.879999995,172.8372758,4.262727369,83.20363667,125.2090916,21.13363606,168.2240918,20.2309363,16.93509369,22.49829557,20.20959989,18.68177986,19.21408964,18.0090922,17.17714413,15.87534947,21.83193548,27.56600037,27.88644765,31.21215235,30.25795442,31.2505745,30.57423065,29.80077912,28.25339236,10.073871,16.74400005,16.26474463,19.86215984,19.98371223,20.49117413,20.76153791,19.91431794,17.56318368,9.497798547,14.24343349,14.21296425,17.47336946,17.12232598,17.8699151,17.65104862,16.90998551,15.09561117,0.937315665,1,1,1,1,1,1,0.999442641,38.8955475,-92.2072025,2016,MOH1
F42/MO17,ILH1_2015,Y,12.4,716.9621753,0,0,250,115,70.5,69,4.343437491,1.296153843,7.654899739,5.34311295,3.674999952,2.467291633,4.647268051,0.712819956,1.951907909,138.9899997,16.84999996,99.86750055,177.342501,7.349999905,22.2056247,144.0256246,5.039375113,60.06187434,19.4076893,20.21820178,17.58012378,22.59231729,17.35775694,20.12242863,18.79551315,20.37165926,16.80998738,15.69375022,16.27615364,23.81483975,28.77428317,30.28249967,31.91701372,28.65899596,28.4854072,27.09877011,2.916875011,4.602307732,13.93389792,16.26044709,20.47749984,20.41381959,17.79543547,15.77196732,14.62672175,5.339800043,5.921635642,11.53105666,14.7484369,17.37999976,18.17178164,15.31569586,14.44648847,13.36421336,0.599162964,0.636840646,1,1,1,1,1,0.99828125,40.05982425,-88.23397575,2015,ILH1
PHB47/PHZ51,MIH1_2016,N,16.9,726.9378609,0,3.5,232.5,117.25,61.5,61.25,3.213870927,0.372000003,1.277668238,2.072144594,0.204761899,2.382636341,6.277866916,3.129595251,4.115734243,99.62999874,1.860000014,16.77857134,74.4033328,0.614285696,24.34142835,217.3680916,23.88571438,123.5814282,20.04481233,22.69628944,22.57460654,21.19066928,19.62511718,19.41470496,17.43536011,14.16523572,12.41239439,17.74322581,29.20999985,25.57947765,28.1508514,27.23547651,30.32783564,28.27294529,26.6388532,22.50219404,5.299677434,16.33600006,11.90361174,14.70447611,15.74579377,17.52671,16.25511672,15.58650841,10.86825081,6.615827776,14.89908974,11.62365975,13.82943527,13.70908531,16.01583991,14.48649579,13.48265,10.09129455,0.734400922,1,1,1,1,0.999987733,0.99326559,0.936590208,42.41206675,-84.2952625,2016,MIH1
B73/PHZ51,GAH2_2017,Y,16.3,753.0033618,0.166666667,2,243.1666667,121.6666667,58.66666667,58,5.215806507,2.59000005,0.877047008,6.976424555,36.66571527,11.68990473,2.766634194,6.717714339,5.237281131,161.6900017,18.13000035,10.98809533,219.4985743,69.630002,116.6428568,77.55666748,33.5885717,162.3557151,18.59375843,20.97986943,21.98193589,18.54567619,14.33990901,17.7663424,19.78523868,18.86354985,17.57616326,25.93516134,24.17571449,30.47339418,29.31252372,29.52904774,29.72980419,32.72601502,32.10511542,30.76784952,12.17225799,9.938571385,16.15324828,18.06353156,20.43476164,19.51114297,21.20992787,20.86352373,19.95543778,11.90954616,10.38538115,15.45655397,15.75249851,16.98190469,16.63412837,18.90169131,18.47155665,17.41241638,0.999631335,0.985714285,1,1,1,1,1,1,33.727145,-83.29821525,2017,GAH2
B14A/MO17,GAH2_2018,N,13.4,431.2070534,0,11,192,87.5,61,58.5,4.849677459,0.472857135,6.389842835,2.50728713,2.625000003,3.795198411,2.499668454,2.828785729,3.724124467,150.3400012,3.309999943,84.90856965,76.95785742,5.387857173,33.84785713,66.14142865,15.06428581,115.4478585,20.49558812,21.88511535,20.33298503,19.15998772,23.51626716,19.70790798,20.02489003,19.42019064,16.00793598,23.5748387,25.80428559,25.09824669,29.4338755,32.57678595,32.30446448,33.95531338,34.12885699,31.99587548,8.787742034,10.57714278,11.20780819,18.18961495,18.46904782,20.57888879,21.25284753,21.08492862,21.01629033,9.717543295,11.3392147,11.23425566,15.89113211,17.53376954,18.44167663,19.31882395,19.47290933,18.49284767,0.993778801,1,1,1,1,1,1,1,33.71560925,-83.30894675,2018,GAH2
B14A/H95,ONH2_2016,N,21.75,738.8443243,0,35,241,121.5,79,74,1.435483875,1.740833327,1.463802716,3.022687524,0.150999999,1.134659085,3.046446673,1.693503778,2.765116665,44.50000012,20.88999993,18.84600039,117.1590009,0.150999999,12.25349994,101.0444998,13.16149993,84.26899996,19.72563927,22.19747464,21.68954048,21.77365896,18.98664827,19.92678304,16.69906166,15.68152671,12.9072029,14.10741935,17.58083336,26.00758685,26.04894451,27.78099985,28.79287246,28.2480382,25.9224786,23.75348014,4.257419363,7.13166666,15.03828811,14.1477789,17.72699971,17.33924119,18.24672102,15.95494667,14.17526013,5.131346137,6.986841243,12.85116395,12.65171997,14.84296497,15.26027205,15.31782021,13.26534606,11.67621189,0.511244241,0.799851209,1,1,1,1,1,0.975829282,42.4530035,-81.88279875,2016,ONH2
B14A/OH43,MOH2_2015,N,13.95,731.1212129,0,8.5,235,97.5,73,72,3.914838722,3.534545422,2.891676029,5.446623968,2.505882375,1.1137255,5.068586465,0.980448186,4.011119538,121.3600004,38.87999964,35.23176398,173.6929392,5.011764751,10.0235295,148.9223525,6.487058864,124.3447057,19.08701148,18.12534948,17.16717858,21.59629129,16.88945411,20.34516158,18.32895435,19.90608894,16.95494386,18.756129,18.24727275,23.87322904,29.02836507,30.59176479,31.93248319,30.27285599,28.73220747,28.34062618,6.152580692,8.059091026,15.30129973,17.80114352,21.94705907,21.39261428,20.17023127,17.40519331,17.20941189,7.288196993,7.58478923,12.05891064,15.51775091,18.26941193,18.66254873,17.2518739,15.21359182,14.97078901,0.75554147,0.814935086,1,1,1,1,1,1,38.89807917,-92.2079,2015,MOH2
B73/MO17,IAH3_2017,Y,20.25,718.8929531,0,2,229,110,65,64,4.153750014,4.476666673,3.404720357,2.207347727,0.783636364,2.628276904,1.892687593,2.328876272,1.794257086,132.9200004,67.1500001,54.03954627,78.33863542,1.567272728,28.02681865,71.85545488,19.05045461,54.69545453,16.14493189,17.75127989,18.89303832,22.07985964,20.54923199,20.99384486,19.81852315,17.22919489,15.64326955,15.84312499,15.5066665,21.42652578,27.714982,28.45522753,29.90074383,27.6545798,25.64720852,25.13760955,4.41906251,4.141333344,9.782295063,13.56526933,16.05901469,16.6123348,14.8096002,12.74600627,11.28191352,5.818880471,5.62230391,9.387130072,13.2881535,14.4256186,15.3843105,13.65871261,11.89796048,11.29223634,0.568604913,0.570380948,0.879734313,1,1,1,1,0.979205627,41.9758706,-92.24318881,2017,IAH3
PHG80/PHZ51,MOH1_2016,N,17.95,731.1212129,0,2,260,107.5,57.5,55.5,2.465483877,8.058000231,0.264259377,6.282521268,1.94553035,9.25680559,4.358907121,3.354664451,5.453130527,76.43000019,40.29000115,2.879999995,172.8372758,4.262727369,83.20363667,125.2090916,21.13363606,168.2240918,20.2309363,16.93509369,22.49829557,20.20959989,18.68177986,19.21408964,18.0090922,17.17714413,15.87534947,21.83193548,27.56600037,27.88644765,31.21215235,30.25795442,31.2505745,30.57423065,29.80077912,28.25339236,10.073871,16.74400005,16.26474463,19.86215984,19.98371223,20.49117413,20.76153791,19.91431794,17.56318368,9.497798547,14.24343349,14.21296425,17.47336946,17.12232598,17.8699151,17.65104862,16.90998551,15.09561117,0.937315665,1,1,1,1,1,1,0.999442641,38.8955475,-92.2072025,2016,MOH1
PHN11_OH43_0001/PHB47,IAH3_2015,Y,17.1,696.3672116,0,8,266,120,65,64,1.888124991,2.913571392,3.784813995,6.971928843,0,3.257500064,1.487385228,2.541446469,4.507444947,60.41999972,40.78999949,55.43999982,241.6600003,0,32.57500064,50.31437471,24.68500039,138.7756267,19.80172794,20.03998334,15.9141292,20.68283491,21.69136486,21.24428636,20.63784564,18.68301758,14.92198489,14.64187506,16.6814285,21.6371088,27.61372247,30.87885427,30.3035625,28.596254,28.51656267,24.33389908,0.83250004,3.600714236,12.24542872,16.05178152,19.47364565,18.11006255,15.99319583,14.30373217,10.64901215,4.605131548,5.787499831,10.11465775,14.1164012,17.17624996,16.25391669,14.57670766,13.97583386,10.87542788,0.501462055,0.634540813,0.981270753,1,1,1,0.968879463,0.933929792,41.97585629,-92.24291804,2015,IAH3
LH82/PHB47,MIH1_2016,N,18.75,695.0800263,0,2,190.5,95.5,59.5,60,3.213870927,0.372000003,1.277668238,2.072144594,0.204761899,2.382636341,6.277866916,3.129595251,4.115734243,99.62999874,1.860000014,16.77857134,74.4033328,0.614285696,24.34142835,217.3680916,23.88571438,123.5814282,20.04481233,22.69628944,22.57460654,21.19066928,19.62511718,19.41470496,17.43536011,14.16523572,12.41239439,17.74322581,29.20999985,25.57947765,28.1508514,27.23547651,30.32783564,28.27294529,26.6388532,22.50219404,5.299677434,16.33600006,11.90361174,14.70447611,15.74579377,17.52671,16.25511672,15.58650841,10.86825081,6.615827776,14.89908974,11.62365975,13.82943527,13.70908531,16.01583991,14.48649579,13.48265,10.09129455,0.734400922,1,1,1,1,0.999987733,0.99326559,0.936590208,42.41206675,-84.2952625,2016,MIH1
CG119/CG108,GAH1_2018,N,15.835,568.5497178,5,3,202,97.5,59,58,4.231249915,1.934999943,5.575464231,3.801027214,1.067857163,3.256190501,3.932246866,3.816857059,2.685023025,135.3999973,11.60999966,76.79571342,135.0185695,1.516428607,29.30571451,107.1921429,19.08428529,83.23571379,16.89130574,18.83037901,19.9789379,20.32622599,17.16636637,17.47509449,19.98058203,18.77657547,18.35496912,25.6268748,28.56500022,25.46428012,27.96417186,30.5753573,30.54857133,31.9994497,33.07128549,33.68336431,12.70062498,14.46999963,11.35988473,14.27301998,20.47928579,20.42444427,20.68398901,21.82542842,22.30905548,11.99291119,13.91639365,11.33534042,13.63652225,17.52732154,17.4865078,18.33967815,19.36985553,19.8838857,0.988973219,1,1,1,1,1,1,1,31.50582525,-83.55515025,2018,GAH1
CG44/CGR01,OHH1_2016,N,12.65,718.2493605,0,8,230,109.5,65,64,4.328064465,1.776000023,3.915145208,2.580740659,3.890757626,4.17049496,5.079069289,3.957741935,3.614594814,134.1699984,8.880000114,44.70363614,85.9177286,9.330454675,39.94818193,160.1854537,27.69772666,110.1186362,18.3437644,22.24283047,20.73146956,20.35982518,19.15233416,18.82824642,16.72048491,17.98730955,14.71797893,19.63580645,29.63200035,26.56953589,28.59263588,29.59106055,30.69283836,29.21689182,28.27188687,26.30588322,8.120967747,16.89599972,14.9739129,16.70528562,18.30318191,19.74443426,18.9160149,15.44500838,13.40262461,8.117657052,15.32722009,13.17028057,14.81678154,15.96857054,17.23303236,16.11713161,14.21502474,12.5845871,0.859331788,1,1,1,1,1,0.999172078,0.989049277,39.860924,-83.6755995,2016,OHH1
LH195/PHZ51,NYH2_2015,N,17.3,731.1212129,0,3,226.25,101.25,79.5,85.75,3.814193487,2.822857129,1.806874641,1.427310218,14.28882354,6.323155046,2.553769654,1.263651931,1.70374005,118.2399981,39.5199998,23.5252947,50.99705838,17.86235295,65.18176435,90.43176518,10.71352917,51.74117684,19.21827184,21.58410556,20.44972798,21.8367517,17.34067749,18.34945618,18.49425604,17.55625849,13.84215422,11.26903224,15.86071418,24.70888252,27.12764594,29.5805878,28.55383422,27.75922879,25.11594081,20.73318661,0.676451599,3.065714287,12.68317757,14.19692254,19.48862723,17.66257776,16.12899413,12.03346763,8.797239788,3.458861152,5.522653893,11.65565145,13.2498794,16.56577659,15.18766176,14.16580901,11.53845799,8.731216192,0.261509218,0.568112238,0.971160735,0.994106254,1,0.999864887,0.980226591,0.898542131,42.7324825,-76.65277775,2015,NYH2
B37/MO17,ARH2_2017,N,16.1,731.1212129,0,2,184.5,84,67,64,2.789999995,15.83285686,4.776016413,2.853949028,1.142500003,5.651818152,3.905948255,2.4430325,4.688621725,89.27999985,110.829998,61.6427269,88.95863769,3.003181826,52.42863608,105.2449988,13.33772746,145.3472735,17.14489296,19.09436907,20.93439511,19.65670258,19.84409681,19.1211903,18.81176407,19.65259997,17.546866,23.65656266,24.55142866,25.38541455,28.9612549,32.40098458,30.84565692,31.84241473,32.83627249,30.20087953,12.07343751,12.16142872,12.7110645,18.0477898,21.78734854,20.24410098,21.87781566,22.25639174,20.26112908,10.83878158,11.22094165,11.88579938,15.62584547,19.09416656,17.54487895,18.8103181,19.27693671,17.25265116,0.991674107,1,0.97315368,1,1,1,1,1,35.67418125,-90.0752695,2017,ARH2
CG44/CGR01,ARH2_2018,N,14.29,731.1212129,4.5,2,162,67.5,58,56,4.523124937,5.877777735,3.202210455,3.225384198,0.461428574,5.0703967,1.707251537,1.546976178,1.915506911,144.739998,52.89999962,46.32285666,103.4992844,0.461428574,45.6335703,42.68714207,7.346428526,59.38071425,17.7541087,19.6455271,19.52097147,20.05684428,23.80737271,19.97823453,19.1297214,18.25489796,18.05597286,19.61875001,21.92000008,22.77345622,28.90718296,31.9800005,30.98396799,32.84130907,33.56595603,31.90391706,8.73406262,10.34777779,11.28771296,17.85430307,18.706429,19.75547635,22.48266054,23.2605133,21.25223495,8.305601359,9.423215554,10.22107903,15.52009327,17.35232514,17.37984482,19.61861005,20.2782542,18.53689778,0.857433028,1,0.994106717,0.995975764,1,1,1,1,35.674241,-90.0749725,2018,ARH2
PHP02/PHB47,ONH1_2015,Y,29.5,682.8517666,0,0.5,252.5,147.5,83,83.5,1.605625002,2.296315821,1.411426091,1.973297954,0.512941169,3.436769168,2.641035405,1.799953816,2.360571209,51.38000005,43.63000059,20.30117703,73.50294104,0.81882352,40.73352947,103.9364728,19.58470627,71.14882509,18.02169462,20.4737019,23.34007091,22.64543997,20.24065375,18.07254412,18.60447299,14.22755231,12.21920895,9.771562532,12.63473691,23.7578119,26.83441686,29.90941261,27.46928249,26.11972075,22.82201755,18.35250846,-0.327500018,2.045263152,11.01347606,13.31919887,17.43313718,16.50329302,14.06775752,11.69572195,7.013714688,2.851211725,4.201400589,10.67713105,12.77399982,15.76589753,14.15032606,12.63577386,10.48249806,7.379159901,0.167098218,0.403345874,0.957007131,0.991950294,1,0.994472794,0.939113043,0.772366561,43.49741975,-80.44806025,2015,ONH1
B37/H95,WIH2_2020,N,24.55,705.3775082,15.375,0.125,277.125,145.75,73.25,71.25,1.142258063,7.375000167,3.772605813,4.528143625,15.91411821,3.015240613,2.848395651,6.559665308,3.073983535,35.40999997,73.75000167,42.96999988,163.850588,31.01764819,33.16764674,117.7699986,59.84176376,94.45823468,20.73953056,16.04352899,21.23354675,21.58093245,19.01370295,17.88573252,19.32013515,13.57540027,12.27254504,13.56999995,18.91099977,26.0938683,28.2322475,29.46647072,27.75422455,27.09322103,24.80509675,19.00189054,0.762580661,9.396999884,13.99892158,14.99589118,17.7452939,17.49807463,14.22893102,13.29211059,7.459399134,4.176897214,8.107987139,12.68677404,14.02444379,15.66411489,14.70790633,13.20588953,12.26960615,7.833960257,0.443168195,0.881928567,1,1,1,0.990384734,0.880973437,0.780679991,43.294786,-89.383968,2020,WIH2
B14A/OH43,MNH1_2016,Y,25.9,731.1212129,0,2,229,110,71,68,2.893225764,0.170000008,5.030425272,6.121705224,6.438583227,6.210954471,8.179238718,7.617170889,9.394742846,89.68999869,1.190000057,67.79499967,212.8530004,13.67999972,65.11499918,295.599999,62.20750045,287.315495,17.89673604,26.28611401,18.122652,20.29948324,15.80941307,17.87578139,16.93568638,15.29315111,12.15008877,17.5148386,25.45428576,24.53269911,27.63337014,28.14450006,28.70269129,27.15887183,24.8505404,22.53032632,6.338387108,9.824285678,13.68155402,15.81410535,17.82425013,18.42635015,16.92976579,13.57123889,11.50456607,6.871134867,10.90204251,11.6566452,13.98369248,15.05511886,15.68076391,14.22086787,11.86153057,10.26982602,0.734527645,1,1,1,1,0.999952477,0.98729881,0.936092645,44.06646925,-93.533648,2016,MNH1
B14A/H95,MIH1_2016,N,19.45,724.6852867,0,21,236,135,63,62.5,3.213870927,0.372000003,1.277668238,2.072144594,0.204761899,2.382636341,6.277866916,3.129595251,4.115734243,99.62999874,1.860000014,16.77857134,74.4033328,0.614285696,24.34142835,217.3680916,23.88571438,123.5814282,20.04481233,22.69628944,22.57460654,21.19066928,19.62511718,19.41470496,17.43536011,14.16523572,12.41239439,17.74322581,29.20999985,25.57947765,28.1508514,27.23547651,30.32783564,28.27294529,26.6388532,22.50219404,5.299677434,16.33600006,11.90361174,14.70447611,15.74579377,17.52671,16.25511672,15.58650841,10.86825081,6.615827776,14.89908974,11.62365975,13.82943527,13.70908531,16.01583991,14.48649579,13.48265,10.09129455,0.734400922,1,1,1,1,0.999987733,0.99326559,0.936590208,42.41206675,-84.2952625,2016,MIH1
WF9/H95,WIH2_2015,Y,36.1,781.321437,0,3.5,262.5,137.5,65,64,3.126774188,2.655000041,4.103605878,5.336067251,1.868823528,3.142847566,3.066358713,6.463272165,3.426278957,96.92999983,15.93000025,53.58117651,186.0694135,5.435882344,36.03705852,132.4747064,52.80117733,103.4994124,19.63646212,20.57311455,21.5892617,21.07111177,18.36300238,19.20517036,18.54583572,13.68038168,11.37476292,15.6409678,24.97666677,26.11823115,28.09529077,27.51588227,27.91298604,26.4469062,23.95331443,17.63645543,3.355806466,13.62666686,13.88922494,15.17788174,17.2276475,16.92946091,13.73434519,12.63733902,6.343913375,5.370860554,11.93138906,12.65256426,14.04290221,14.43586033,14.57588984,12.76646014,11.49482956,7.023163717,0.588214292,1,1,1,1,0.979783322,0.914260835,0.715230077,43.3264485,-89.33359975,2015,WIH2
CG108/CGR03,ONH2_2017,N,20.1,895.2373302,0,18.5,211,97.5,33,31.5,3.566774253,5.816000056,0.640467161,2.602850346,0.276190468,0.553043346,1.774150425,1.832219351,2.40528059,110.5700018,58.16000056,8.999047586,96.02571482,0.552380936,6.918571438,78.70857161,24.06619065,72.98142847,18.8542372,16.74867072,24.21291039,19.37094181,21.19715784,20.84705237,17.61151759,14.253685,9.927824707,15.7532257,18.68899984,23.40262829,26.34974997,26.59380949,26.86065013,24.57225317,22.91748616,20.00596815,5.764838726,10.96000004,12.03359118,16.18007827,16.63301581,15.91920336,13.14574071,11.27177775,10.10650586,6.141928302,8.38660306,10.68394655,13.52521671,13.7753985,13.64998718,11.58821465,10.41552723,9.107414304,0.598502303,0.966571423,1,1,1,0.999084662,0.956230826,0.8300025,42.45293025,-81.8827315,2017,ONH2
B37/OH43,GAH1_2019,N,17.455,691.9907818,38.5,0,185,92.5,62,60.5,4.224827643,1.980000006,1.908236784,2.106472486,0,0.090714284,5.691865924,1.473428559,3.045620547,122.5200016,17.82000005,22.37999977,72.04999958,0,0.725714275,156.5528547,7.367142797,92.8692846,16.4500471,17.48633936,17.40259385,20.9384506,22.51147406,21.84430948,17.66714436,19.76491442,19.71139218,21.20655165,22.58666695,26.81574745,29.5228407,35.04273814,35.70196446,32.62270198,33.62814315,33.36893722,7.214827602,8.595555623,14.04498416,14.47543411,19.21654783,20.58464301,20.89661115,21.78014287,21.253149,8.370628681,9.274220075,12.91642218,14.40044999,18.67726543,19.28313207,18.63395398,19.63555568,19.18049021,0.90216748,0.984365085,1,1,1,1,1,1,31.50582525,-83.55515025,2019,GAH1
PHN11_PHG47_0251/PHB47,IAH1_2017,Y,16.15,715.0313974,0.5,4.5,200,93.5,65,64,3.40562493,4.965384584,4.756276119,1.833606587,3.814090996,2.221484887,3.670808328,1.81325484,2.347473118,108.9799978,64.54999959,71.28272616,63.78727258,4.177727374,22.83863677,118.9068186,13.7622725,72.03681816,16.19865167,17.41178014,18.84198651,22.07722619,19.57094626,20.6423577,19.65334879,19.12382584,16.87809105,17.11343735,15.37846162,22.95951679,28.09807267,26.50742381,30.27960591,29.79948923,26.92834941,26.37674051,5.413125027,4.923076978,11.46549016,14.16962528,11.61757578,16.65775237,16.66504091,13.38757222,12.41510662,6.530778339,5.768563812,10.45370215,13.71965113,11.94783378,15.64262598,15.39964617,12.71239892,12.1737806,0.629988832,0.555054952,0.946458762,1,1,1,1,0.998130952,41.19924609,-91.49402296,2017,IAH1
PHP02/PHB47,NYH1_2017,Y,17.95,731.1212129,1,14.5,234,105,71,71.5,4.758709581,4.139999986,2.953024942,5.715506232,4.320872878,2.701732063,2.616328443,1.022630585,3.614268439,147.519997,37.25999987,45.12618999,219.9223815,11.26857107,35.6957141,128.4247627,13.30476207,110.8900009,18.97444351,17.81005277,22.0763727,19.38397475,18.56141379,19.22534974,16.71382568,13.43506643,9.037548332,17.06967752,20.23333359,22.7745171,25.66488699,26.70396817,25.32691524,23.26007272,23.96840526,17.61119819,5.964193534,10.19,10.93717632,15.20362294,16.36293638,14.60656728,11.31793404,11.56685323,6.669544781,6.641127344,8.727253675,10.15270493,12.79474615,13.71935226,12.37567782,10.45035179,10.9124923,7.239151369,0.685760371,1,1,1,1,0.982493678,0.953634339,0.701363064,42.72880835,-76.6515625,2017,NYH1
B14A/OH43,ILH1_2016,Y,14.95,748.4982135,0,1.5,260,122.5,75,71.5,2.976905237,4.388409027,2.266536067,5.61207631,2.384848472,3.596551307,3.312350719,4.357499975,4.793790319,93.71999985,46.35499933,33.46068128,180.4177266,4.628863606,41.73386359,104.1413657,28.32431801,148.2020453,18.82488241,16.77241452,21.32061235,20.18653607,20.74234538,18.07981042,18.8666989,17.85818253,16.07680721,18.05081144,19.20204525,23.0422997,29.42292662,27.90308728,26.97317812,29.60218573,29.15938829,28.17592877,4.960040295,8.531272602,10.4507586,17.10049505,15.99717794,16.84881478,19.41054858,18.84383108,17.09740687,6.781235125,7.969267807,10.17119166,15.41614171,14.29579798,14.15384892,16.51995977,16.04951253,14.84458937,0.666766271,0.897956159,0.946860721,1,1,1,1,0.999883117,40.0607245,-88.2338815,2016,ILH1
CG108/CGR03,MNH1_2016,Y,19.25,731.1212129,0,2,229,110,63.5,62,2.893225764,0.170000008,5.030425272,6.121705224,6.438583227,6.210954471,8.179238718,7.617170889,9.394742846,89.68999869,1.190000057,67.79499967,212.8530004,13.67999972,65.11499918,295.599999,62.20750045,287.315495,17.89673604,26.28611401,18.122652,20.29948324,15.80941307,17.87578139,16.93568638,15.29315111,12.15008877,17.5148386,25.45428576,24.53269911,27.63337014,28.14450006,28.70269129,27.15887183,24.8505404,22.53032632,6.338387108,9.824285678,13.68155402,15.81410535,17.82425013,18.42635015,16.92976579,13.57123889,11.50456607,6.871134867,10.90204251,11.6566452,13.98369248,15.05511886,15.68076391,14.22086787,11.86153057,10.26982602,0.734527645,1,1,1,1,0.999952477,0.98729881,0.936092645,44.06646925,-93.533648,2016,MNH1
LH74/PHN82,NCH1_2018,Y,16.25,731.1212129,0,2,183.25,94,52.25,51.25,4.157741868,0,6.852651043,4.101575565,0.281428576,2.753968325,7.265916583,9.606714405,8.963617552,128.8899979,0,78.76714403,125.545715,0.410714286,22.4842863,196.6735732,49.18571489,277.8721441,19.15814344,24.86455965,15.13897653,19.38558293,23.18458939,19.6068393,18.38664919,15.55735787,15.52161696,22.42709686,23.6650002,25.05504787,28.99162569,32.21999972,32.77589287,33.41271207,32.57228504,30.53730396,9.272903273,8.262500107,16.63082339,19.21430847,20.43714251,21.48106165,22.41052549,22.8214047,21.52269578,9.383610038,9.710722454,13.07063738,16.1524193,18.32857112,19.12847726,19.83450897,19.67052049,18.05632483,0.990449307,1,1,1,1,1,1,1,35.6667825,-78.492372,2018,NCH1
PHN11_PHW65_0323/LH195,INH1_2016,N,20.85,715.6749901,29,3.5,255,124.5,64,64,3.034516148,1.382857186,3.106568823,3.966270256,3.500454469,6.752636371,3.451172643,3.198528118,3.024422797,94.07000059,9.680000305,31.26000059,138.8759105,3.500454469,67.52636371,113.8927274,21.6654544,92.62590972,17.63328649,23.97511796,20.66441577,20.1236558,19.9706746,19.39149484,18.14527656,15.98533716,14.62820237,18.74516109,26.31142807,27.84898846,28.12893417,28.20272714,29.14504538,29.16779001,27.95564941,27.07739093,7.950322636,11.69428553,16.31817922,16.10606538,16.8522731,18.34872752,18.58889605,17.50284626,15.03841012,7.677100472,11.91689015,14.24288378,14.4184555,14.68521604,15.7994256,15.9329094,14.92238151,13.51734692,0.852649763,1,1,1,1,1,1,0.996102814,40.4787595,-86.98982,2016,INH1
CG119/CG108,TXH2_2019,Y,17.7,731.1212129,0,0,160,53,62.5,62,1.71448275,0.072857141,3.656594302,9.095434564,0.409285716,1.207678571,5.355850783,1.246142852,1.574419343,49.71999974,0.50999999,52.00785631,328.2121388,0.592857139,9.661428571,146.4478573,6.531428533,47.51499965,15.42805705,20.52131135,18.76898834,18.57032559,21.42349659,18.85281525,20.14881361,21.03072751,19.84089234,18.45000007,25.76428577,24.43254944,27.27586732,31.09000002,32.37866099,32.72435205,34.04471448,34.98200776,6.826206914,10.35000004,10.67963154,14.78766739,18.65857179,21.85071427,21.02442735,21.79614282,22.6049739,7.457816468,11.1589152,10.85119479,13.46630403,16.91193677,19.11412105,18.84765314,19.77807102,20.01419559,0.749667494,1,0.945308164,1,1,1,1,0.999698925,30.546318,-96.4329965,2019,TXH2
F42/MO17,MNH1_2020,N,23.025,739.1661206,12.5,4,241.75,136.5,70.25,66.25,0.943005099,6.546073051,4.140359128,4.707487639,0.452236841,2.543512757,5.928901117,4.270615044,2.501087783,29.23315806,64.90105435,50.61684199,155.384737,0.714736844,28.61736839,219.2994748,34.34473765,76.93105461,20.83516212,15.73399946,19.74828467,20.97522671,19.78574355,20.20086134,18.41063051,15.8353279,12.84776632,15.708455,18.53155205,25.82840423,28.49526052,29.92499944,28.21992409,26.52185226,25.93987928,19.74067922,2.261239378,9.186207707,13.99244036,16.68286788,19.34447405,16.90528318,15.09377646,14.30914312,8.593217323,5.370680578,7.953384306,12.46596379,14.77865871,16.66236577,14.75116185,13.25288188,13.01752467,8.666130292,0.622613994,0.838417993,1,1,1,0.988450437,0.93066422,0.780758993,44.06907839,-93.53263028,2020,MNH1
2369/LH123HT,IAH1_2020,Y,14.95,731.1212129,5.333333333,3.166666667,229,110,65,64,1.688064506,6.196000195,3.0793737,6.533057926,1.271428551,2.673269776,1.85421064,0.708456624,3.755616013,52.32999969,61.96000195,37.23499918,213.6221428,2.198571375,25.9085708,60.11785651,6.012142782,115.3728583,19.46953177,15.04660187,20.64247086,20.31598349,21.99207742,21.09552252,19.7297914,19.80455556,15.11692591,15.87290319,18.70700045,25.72176895,28.50674309,31.92999949,30.87921407,28.61147391,29.37327705,24.63079501,3.348387095,9.753000152,14.65929334,17.38633346,19.85714286,19.28849194,17.27261165,15.46819038,11.83183106,5.5584858,8.125456457,12.65757338,15.09801966,17.89357117,17.09078834,15.12121856,14.7539709,11.47694483,0.621440085,0.927035726,1,1,1,0.998514142,0.992713009,0.918334154,41.19774214,-91.48767072,2020,IAH1
W10004_0216/PHZ51,ONH2_2017,N,19.8,916.4758866,0.5,5,244,118,53.5,52.5,3.566774253,5.816000056,0.640467161,2.602850346,0.276190468,0.553043346,1.774150425,1.832219351,2.40528059,110.5700018,58.16000056,8.999047586,96.02571482,0.552380936,6.918571438,78.70857161,24.06619065,72.98142847,18.8542372,16.74867072,24.21291039,19.37094181,21.19715784,20.84705237,17.61151759,14.253685,9.927824707,15.7532257,18.68899984,23.40262829,26.34974997,26.59380949,26.86065013,24.57225317,22.91748616,20.00596815,5.764838726,10.96000004,12.03359118,16.18007827,16.63301581,15.91920336,13.14574071,11.27177775,10.10650586,6.141928302,8.38660306,10.68394655,13.52521671,13.7753985,13.64998718,11.58821465,10.41552723,9.107414304,0.598502303,0.966571423,1,1,1,0.999084662,0.956230826,0.8300025,42.45293025,-81.8827315,2017,ONH2
LH212HT/LH195,KSH1_2015,N,15.05,758.7956954,0,2,229,110,85,83.5,0.688124985,3.518749885,2.537239536,4.634326915,6.340784251,4.013516285,5.753010874,3.95559662,1.81791271,22.01999953,28.14999908,47.40176476,147.1705882,9.165882307,38.18235242,161.646473,23.74705871,56.35529401,19.48910828,20.34062409,19.21958791,21.30664108,18.00351726,18.80818483,18.60066932,17.86718078,18.78253622,17.69406253,22.96750021,19.85221485,29.31892792,29.11705877,31.41670577,31.16760655,30.50505886,29.96204923,3.297187492,8.938749969,8.792561365,16.998743,18.09705929,19.84989561,20.1377744,20.03282345,17.06836811,6.184738542,9.476230158,8.381520189,15.38816616,15.61697663,17.65547515,17.65556265,17.32458654,15.75670183,0.6778125,1,0.850138809,1,1,1,1,0.98304554,39.21641775,-96.60482225,2015,KSH1
F42/OH43,MNH1_2018,N,20.27444444,700.0857467,0,2,246.6666667,104.4444444,63.22222222,60.88888889,2.793871032,5.664285694,1.881383508,4.66962568,0.280777779,5.314848416,5.503097756,4.902593174,1.744490341,86.61000198,39.64999986,19.66333312,156.0266671,0.653333338,61.18466587,207.3246693,42.5680015,52.61600056,18.68617175,18.6483766,23.22190313,20.23498137,21.88409551,21.20453879,17.43849101,14.02805899,11.47763682,18.24580648,23.51142883,30.49568208,28.40295697,27.67288871,27.88288382,26.24424925,23.489937,17.2954947,6.62290317,13.35285704,16.1020056,17.07111629,16.25377796,15.7901465,14.83515609,12.42970144,6.347470975,7.12789267,11.15082684,15.42136783,14.91719499,14.1582049,14.10491894,13.08066536,11.20324133,7.126560519,0.79756912,1,1,1,1,0.978734696,0.910102722,0.699884152,44.07044721,-93.53494127,2018,MNH1
CG108/CGR03,OHH1_2015,Y,12.7,741.4186947,0,0,218,112,56,56,4.820000016,2.056666652,1.801667061,2.430255425,2.070588264,2.75488235,3.664772063,1.623969288,1.874022108,149.4200005,12.33999991,20.27235275,82.00588303,2.23529414,26.29176468,128.0200007,12.16764697,57.18411674,17.71339239,20.831882,20.85048625,20.93566426,20.28419298,19.59839119,17.66236547,17.23782846,14.83481447,16.95064511,28.03666687,26.64173705,29.01382079,31.07970569,30.59522857,27.99762273,26.69097183,23.34659959,5.9283871,15.42166694,14.66308043,16.74801267,19.23764672,18.74322206,16.69895781,13.90980629,10.26308727,6.580773377,14.04730329,13.19467995,15.08203889,17.16864649,16.69143216,14.53513226,12.92347397,10.29932856,0.672569122,1,1,1,1,1,0.994932126,0.947361455,39.855785,-83.66477375,2015,OHH1
TX779/LH195,ARH2_2018,N,19.545,731.1212129,1.5,2,193.5,99.5,73,73,4.523124937,5.877777735,3.202210455,3.225384198,0.461428574,5.0703967,1.707251537,1.546976178,1.915506911,144.739998,52.89999962,46.32285666,103.4992844,0.461428574,45.6335703,42.68714207,7.346428526,59.38071425,17.7541087,19.6455271,19.52097147,20.05684428,23.80737271,19.97823453,19.1297214,18.25489796,18.05597286,19.61875001,21.92000008,22.77345622,28.90718296,31.9800005,30.98396799,32.84130907,33.56595603,31.90391706,8.73406262,10.34777779,11.28771296,17.85430307,18.706429,19.75547635,22.48266054,23.2605133,21.25223495,8.305601359,9.423215554,10.22107903,15.52009327,17.35232514,17.37984482,19.61861005,20.2782542,18.53689778,0.857433028,1,0.994106717,0.995975764,1,1,1,1,35.674241,-90.0749725,2018,ARH2
B14A/OH43,IAH2_2017,N,20.3,681.5645814,1,25,233.5,119,65,64,2.991935476,4.003749907,5.594154361,1.824159742,2.965909053,1.138616173,3.544395797,5.525860929,3.224964342,92.74999976,32.02999926,86.83999968,64.74363607,5.880909015,11.03545466,133.6850016,39.36636487,98.02272796,18.91811151,22.03083944,18.39067038,21.91300981,21.59707026,21.00058551,18.76246256,16.50136756,14.56336975,16.70258062,25.25375009,21.16444029,28.78792803,31.34295403,31.03890899,27.79230679,26.54138994,25.01808603,3.836129038,9.060000002,9.836484062,14.72352594,17.1804546,18.00485339,15.61890002,13.9478747,12.25710857,5.884356407,10.52058178,9.325556586,14.19611432,16.29393371,16.57150033,14.05801276,12.73803514,11.57992501,0.659274195,1,0.882113053,1,1,1,1,0.976890029,42.06582876,-94.72050129,2017,IAH2
TX951/LH195,NCH1_2016,N,16.1,731.1212129,1.5,8.5,229,132.5,65,64,2.901562452,3.125714166,7.137907935,4.683034439,4.3177271,0.863030289,5.226283407,5.104181825,4.507668668,92.84999847,21.87999916,91.86318315,160.7736342,8.497726928,8.495454409,139.9318182,26.12772732,139.7377287,16.36857818,22.27138465,15.49498623,18.72849078,21.8793198,21.8664799,18.529992,18.05675722,17.32656161,20.86125001,25.58571407,25.68946269,27.1054564,30.20318166,31.0559697,32.42423852,33.59766701,33.26035177,7.692187494,8.212857212,14.27003911,16.07300028,18.02681784,18.80169681,21.2796372,22.62190931,22.7218182,8.383421821,10.43985322,12.46468669,13.95599298,16.17160042,16.99727481,18.83160592,19.980567,19.86697781,0.913761163,1,1,1,1,1,1,1,35.30015175,-77.57127825,2016,NCH1
B73/MO17,DEH1_2017,Y,19.8,664.8311733,0,1.5,264,136,68,68,2.917187458,6.201428686,3.00780289,3.517983876,1.211428521,1.632751291,5.214259368,11.31934688,4.882730708,93.34999865,43.4100008,45.34571489,126.7790489,1.268571377,15.48333303,157.8533328,69.24809492,151.3147631,17.05647962,17.73228645,20.71096481,19.57386043,19.15556694,20.88592809,18.21237176,18.15756056,16.58607394,20.26624998,24.66142872,21.72245043,26.82298965,30.35071437,30.31148162,30.69555299,28.43090921,27.29702356,9.32593758,14.19571427,10.68752201,16.75855213,19.906349,19.88150788,21.21690322,18.72144455,17.91444491,8.690479953,12.08402314,9.787934269,14.12431868,17.15482568,17.14050735,17.94790556,15.63546309,14.74613823,0.907287956,1,0.959736116,1,1,1,1,1,38.67025825,-75.4333645,2017,DEH1
F42/MO17,WIH2_2020,N,25.70714286,686.5294387,41.57142857,0.142857143,258.3571429,133.5,72.64285714,69.78571429,1.142258063,7.375000167,3.772605813,4.528143625,15.91411821,3.015240613,2.848395651,6.559665308,3.073983535,35.40999997,73.75000167,42.96999988,163.850588,31.01764819,33.16764674,117.7699986,59.84176376,94.45823468,20.73953056,16.04352899,21.23354675,21.58093245,19.01370295,17.88573252,19.32013515,13.57540027,12.27254504,13.56999995,18.91099977,26.0938683,28.2322475,29.46647072,27.75422455,27.09322103,24.80509675,19.00189054,0.762580661,9.396999884,13.99892158,14.99589118,17.7452939,17.49807463,14.22893102,13.29211059,7.459399134,4.176897214,8.107987139,12.68677404,14.02444379,15.66411489,14.70790633,13.20588953,12.26960615,7.833960257,0.443168195,0.881928567,1,1,1,0.990384734,0.880973437,0.780679991,43.294786,-89.383968,2020,WIH2
PHW52/PHN82,TXH1-Dry_2018,N,10.7,685.4261371,0,2,227.5,73.5,73.5,73.5,2.442333295,0.87833333,4.91741256,2.91095925,1.112321411,5.987347663,3.094033648,2.445309502,2.573656677,73.26999886,5.269999981,55.2178573,113.3721426,4.449285643,64.36357035,86.72785865,13.67714274,77.357857,13.4988633,14.49154552,13.92485348,19.6618496,19.390827,19.64184359,19.38410293,21.21373351,18.01258323,19.68933331,26.95833333,25.66614373,26.56996845,30.24238085,29.14372996,31.91805433,33.2644762,34.51160554,6.357666679,15.03999996,15.13755815,13.69055459,18.24071415,16.44843436,20.63070323,20.50154739,23.97494014,7.613570572,13.40715604,12.87528071,12.79536137,16.34410207,15.0664779,18.21233438,18.75919739,20.40606275,0.821476194,1,0.991620595,0.99408643,1,1,1,0.999013392,30.546318,-96.4329965,2018,TXH1-Dry
PB80/PHZ51,ONH1_2016,Y,28.15,659.0388398,0,2,233.5,137.5,86.5,84,1.979032247,2.105714291,0.92181366,1.439738287,4.720833318,2.435439396,4.62931563,1.31185227,2.043303741,61.34999967,29.48000008,13.31600007,60.28400005,10.99249999,28.54150001,172.0475013,11.37649985,61.38049932,20.24883872,21.56727634,23.77365349,22.41142308,19.3081847,20.61473607,17.12813691,15.31534219,11.6349499,10.49290321,16.47999988,25.01561457,25.51466922,28.22516696,27.99415914,27.31356147,24.49017951,20.3886015,-0.735806467,3.753571405,10.93050922,11.61184699,15.55325019,14.71775745,15.07244109,12.71620509,9.185787659,3.269306411,5.688768484,11.09209761,11.56175859,14.2216101,13.76399544,13.57642435,11.5133866,8.776899495,0.291105988,0.684668367,0.99891379,0.988093962,1,0.998165816,0.971212584,0.877977401,43.4997965,-80.451125,2016,ONH1
CG119/CG108,ONH1_2016,Y,18.73333333,711.8134344,0,6.666666667,171.6666667,102,70.66666667,69.66666667,1.979032247,2.105714291,0.92181366,1.439738287,4.720833318,2.435439396,4.62931563,1.31185227,2.043303741,61.34999967,29.48000008,13.31600007,60.28400005,10.99249999,28.54150001,172.0475013,11.37649985,61.38049932,20.24883872,21.56727634,23.77365349,22.41142308,19.3081847,20.61473607,17.12813691,15.31534219,11.6349499,10.49290321,16.47999988,25.01561457,25.51466922,28.22516696,27.99415914,27.31356147,24.49017951,20.3886015,-0.735806467,3.753571405,10.93050922,11.61184699,15.55325019,14.71775745,15.07244109,12.71620509,9.185787659,3.269306411,5.688768484,11.09209761,11.56175859,14.2216101,13.76399544,13.57642435,11.5133866,8.776899495,0.291105988,0.684668367,0.99891379,0.988093962,1,0.998165816,0.971212584,0.877977401,43.4997965,-80.451125,2016,ONH1
B14A/OH43,ONH1_2016,Y,33.2,634.5823203,0,2.5,205,105.5,86,82.5,1.979032247,2.105714291,0.92181366,1.439738287,4.720833318,2.435439396,4.62931563,1.31185227,2.043303741,61.34999967,29.48000008,13.31600007,60.28400005,10.99249999,28.54150001,172.0475013,11.37649985,61.38049932,20.24883872,21.56727634,23.77365349,22.41142308,19.3081847,20.61473607,17.12813691,15.31534219,11.6349499,10.49290321,16.47999988,25.01561457,25.51466922,28.22516696,27.99415914,27.31356147,24.49017951,20.3886015,-0.735806467,3.753571405,10.93050922,11.61184699,15.55325019,14.71775745,15.07244109,12.71620509,9.185787659,3.269306411,5.688768484,11.09209761,11.56175859,14.2216101,13.76399544,13.57642435,11.5133866,8.776899495,0.291105988,0.684668367,0.99891379,0.988093962,1,0.998165816,0.971212584,0.877977401,43.4997965,-80.451125,2016,ONH1
B37/H95,NYH2_2017,Y,17.7,731.1212129,0,2,229,110,65,64,4.985806354,2.593333337,3.453715005,5.89688957,0.948070192,3.208418109,2.379655727,2.694333021,3.397972982,154.559997,23.34000003,55.2357889,222.9889478,1.763157895,41.81263091,117.7794744,23.637895,104.1910535,18.91896409,18.22902181,21.62310913,19.28169434,21.2024166,18.91678159,16.97406986,13.88043676,9.439494818,16.54903238,19.80111122,22.34881997,25.65461899,27.16105275,25.3148988,23.28803047,24.25146582,18.24460841,5.239677404,10.2422222,10.55939387,15.21770316,15.87359667,14.84504335,11.5614249,11.15398494,7.352427253,6.267898103,8.570747831,9.793885142,12.80097944,13.68904673,12.46138399,10.55155578,10.87663924,7.688896934,0.638917053,1,1,1,1,0.981507475,0.966916282,0.722284214,42.73248125,-76.65275025,2017,NYH2
PHW52/PHM49,GAH2_2020,N,14.625,731.4430092,2.25,13.5,226,107.25,62,61.5,4.57387094,0.441111114,8.353941854,2.596292498,5.733571683,2.103095203,2.179001438,2.485142878,3.918548365,141.7899991,3.970000029,91.39071568,80.77428585,11.41500051,18.92785683,57.71499962,12.42571439,121.4749993,20.66171874,23.27184486,17.58943298,19.5164109,18.75300796,20.35385684,20.26001561,17.11426864,16.01109332,24.32935487,22.81222216,27.25049476,29.76903398,31.23452386,32.73428517,34.13891635,33.4245718,31.64458511,9.683548431,7.437777784,15.07002369,18.41195949,20.46821458,20.95039675,21.2406723,21.91714281,20.83905522,10.34437265,8.95024402,13.55540875,16.15181668,17.85136922,18.84234096,19.40061188,19.58004094,18.23728962,0.993479262,1,1,1,1,1,1,1,33.72355555,-83.30265185,2020,GAH2
PHN11_PHW65_0323/LH195,WIH2_2019,N,37.7,613.9873566,0,0,261.666667,135,61,59,5.084687524,1.186666648,3.682690384,5.868440751,0.695238091,4.73009737,4.315774648,4.395502279,4.547947068,162.7100008,7.119999886,58.08928529,183.8007161,1.222857135,55.05428533,207.5435701,59.53000056,136.8792876,20.51840827,23.10255337,19.84622659,19.54978709,22.13574316,19.04821964,14.90817086,12.98397937,9.337872891,18.93468753,26.85500018,22.80729416,28.92841129,27.86750015,27.53142967,23.33864799,22.30785619,12.19546616,7.173437506,12.79833317,11.75963315,17.3057567,14.67845241,15.42498763,12.56161555,11.34993986,2.687473085,7.568173943,12.44054354,10.32084191,15.24419851,13.63574066,13.78240318,10.8770868,10.55092288,4.713570865,0.808549105,1,0.995612408,1,1,0.966295589,0.875965566,0.450550638,43.320768,-89.33189475,2019,WIH2
B14A/OH43,GAH1_2020,N,18.64,687.4856334,0,1.5,177.5,82.5,66.5,63,4.279687563,0,6.08243138,3.811420537,2.267976227,2.530000055,3.98378478,1.741833346,2.910207357,136.950002,0,84.37571335,135.9278565,4.833571502,22.77000049,107.9378566,9.115000069,90.21642806,16.61263859,21.5972875,19.10636237,20.72286693,14.54687945,18.15584731,20.08605453,19.68634889,18.27781732,25.37343752,26.77166684,25.94144379,27.77824619,29.55357116,30.6518255,31.78195276,33.48178532,33.56322575,12.43875006,10.55666669,12.19035929,13.80720781,20.58059497,20.26111097,20.57386992,21.96838095,22.25456222,11.80508215,11.69113274,11.88989525,13.35432975,17.06708306,17.45646823,18.17996521,19.67032327,19.80166763,0.988537947,1,1,1,1,1,1,1,31.5079775,-83.558517,2020,GAH1
B73/PHM49,MNH1_2016,Y,22.6,731.1212129,0,2,229,110,67.5,65,2.893225764,0.170000008,5.030425272,6.121705224,6.438583227,6.210954471,8.179238718,7.617170889,9.394742846,89.68999869,1.190000057,67.79499967,212.8530004,13.67999972,65.11499918,295.599999,62.20750045,287.315495,17.89673604,26.28611401,18.122652,20.29948324,15.80941307,17.87578139,16.93568638,15.29315111,12.15008877,17.5148386,25.45428576,24.53269911,27.63337014,28.14450006,28.70269129,27.15887183,24.8505404,22.53032632,6.338387108,9.824285678,13.68155402,15.81410535,17.82425013,18.42635015,16.92976579,13.57123889,11.50456607,6.871134867,10.90204251,11.6566452,13.98369248,15.05511886,15.68076391,14.22086787,11.86153057,10.26982602,0.734527645,1,1,1,1,0.999952477,0.98729881,0.936092645,44.06646925,-93.533648,2016,MNH1
PHW52/PHN82,NYH2_2017,Y,20.95,722.7545088,0.5,4.5,259.5,105,76.5,75,4.985806354,2.593333337,3.453715005,5.89688957,0.948070192,3.208418109,2.379655727,2.694333021,3.397972982,154.559997,23.34000003,55.2357889,222.9889478,1.763157895,41.81263091,117.7794744,23.637895,104.1910535,18.91896409,18.22902181,21.62310913,19.28169434,21.2024166,18.91678159,16.97406986,13.88043676,9.439494818,16.54903238,19.80111122,22.34881997,25.65461899,27.16105275,25.3148988,23.28803047,24.25146582,18.24460841,5.239677404,10.2422222,10.55939387,15.21770316,15.87359667,14.84504335,11.5614249,11.15398494,7.352427253,6.267898103,8.570747831,9.793885142,12.80097944,13.68904673,12.46138399,10.55155578,10.87663924,7.688896934,0.638917053,1,1,1,1,0.981507475,0.966916282,0.722284214,42.73248125,-76.65275025,2017,NYH2
PHB47/PHN82,WIH1_2020,Y,21.2,720.823731,0,0,255.5,125,72.5,71,1.598387111,6.507143004,4.413520471,5.455426438,9.576153682,6.848251811,1.847198819,1.302442385,3.233674973,49.55000043,91.10000205,54.05307698,191.9769218,14.76999958,75.33076992,75.52923148,17.19923096,99.29769339,20.3303612,17.70938441,19.63774696,21.71928057,19.47191414,18.08778093,19.52506722,17.02277317,12.74244368,13.80935484,15.78214281,24.71870171,28.0331271,31.3961547,28.17125902,26.95535567,26.2427393,20.06715065,1.332903252,5.150000061,13.25869882,14.90724568,18.80923077,17.63741262,14.66820073,13.00544381,8.429758508,4.404075426,5.920121855,11.73838603,13.88054584,17.12955683,14.95247276,13.30208011,12.63591888,8.588509069,0.46481566,0.623010193,1,1,1,0.987099279,0.934776512,0.808464704,43.05505505,-89.52853825,2020,WIH1
PHW52/PHM49,ONH1_2015,Y,39.2,742.70588,0,0,260,142.5,88,89,1.605625002,2.296315821,1.411426091,1.973297954,0.512941169,3.436769168,2.641035405,1.799953816,2.360571209,51.38000005,43.63000059,20.30117703,73.50294104,0.81882352,40.73352947,103.9364728,19.58470627,71.14882509,18.02169462,20.4737019,23.34007091,22.64543997,20.24065375,18.07254412,18.60447299,14.22755231,12.21920895,9.771562532,12.63473691,23.7578119,26.83441686,29.90941261,27.46928249,26.11972075,22.82201755,18.35250846,-0.327500018,2.045263152,11.01347606,13.31919887,17.43313718,16.50329302,14.06775752,11.69572195,7.013714688,2.851211725,4.201400589,10.67713105,12.77399982,15.76589753,14.15032606,12.63577386,10.48249806,7.379159901,0.167098218,0.403345874,0.957007131,0.991950294,1,0.994472794,0.939113043,0.772366561,43.49741975,-80.44806025,2015,ONH1
B37/H95,NCH1_2017,Y,17.7,731.1212129,0,2,229,110,65,64,5.929354779,4.097142833,0.297958702,3.860588722,6.673809642,5.437090039,2.513672686,1.67758051,4.140460835,183.8099982,28.67999983,4.023333254,115.8195228,10.90952401,51.84571517,65.15761944,9.68857149,128.3542859,16.84796118,19.66078799,22.20077414,19.20396089,15.77249108,20.54839894,18.7994723,19.26606379,16.40835168,26.07000006,23.57857159,28.17011276,29.72614366,31.01404729,30.48814813,32.54721675,31.95695904,30.43138246,13.64064524,11.25142826,15.69757802,18.87536398,22.57674573,19.84793622,22.28039625,21.2748593,20.81350234,12.56442422,10.48784987,14.26665949,16.36044911,18.79940835,17.21144066,19.38557496,18.57336573,17.65269876,0.998329492,1,1,1,1,1,1,1,35.29663725,-77.5668065,2017,NCH1
W10001_0022/PHB47,ONH1_2016,Y,26.7,652.6029136,0,1.5,191,99.5,83,77,1.979032247,2.105714291,0.92181366,1.439738287,4.720833318,2.435439396,4.62931563,1.31185227,2.043303741,61.34999967,29.48000008,13.31600007,60.28400005,10.99249999,28.54150001,172.0475013,11.37649985,61.38049932,20.24883872,21.56727634,23.77365349,22.41142308,19.3081847,20.61473607,17.12813691,15.31534219,11.6349499,10.49290321,16.47999988,25.01561457,25.51466922,28.22516696,27.99415914,27.31356147,24.49017951,20.3886015,-0.735806467,3.753571405,10.93050922,11.61184699,15.55325019,14.71775745,15.07244109,12.71620509,9.185787659,3.269306411,5.688768484,11.09209761,11.56175859,14.2216101,13.76399544,13.57642435,11.5133866,8.776899495,0.291105988,0.684668367,0.99891379,0.988093962,1,0.998165816,0.971212584,0.877977401,43.4997965,-80.451125,2016,ONH1
LH195/LH82,NYH2_2017,N,19.1,740.1315095,0.5,16.5,219,95,76,75.5,4.985806354,2.593333337,3.453715005,5.89688957,0.948070192,3.208418109,2.379655727,2.694333021,3.397972982,154.559997,23.34000003,55.2357889,222.9889478,1.763157895,41.81263091,117.7794744,23.637895,104.1910535,18.91896409,18.22902181,21.62310913,19.28169434,21.2024166,18.91678159,16.97406986,13.88043676,9.439494818,16.54903238,19.80111122,22.34881997,25.65461899,27.16105275,25.3148988,23.28803047,24.25146582,18.24460841,5.239677404,10.2422222,10.55939387,15.21770316,15.87359667,14.84504335,11.5614249,11.15398494,7.352427253,6.267898103,8.570747831,9.793885142,12.80097944,13.68904673,12.46138399,10.55155578,10.87663924,7.688896934,0.638917053,1,1,1,1,0.981507475,0.966916282,0.722284214,42.73248125,-76.65275025,2017,NYH2
LH195/LH82,NYH3_2015,N,18.25,731.1212129,0,3,213.5,103.5,76.5,76.5,4.268387075,0,1.234803629,3.315485905,3.744705864,3.708743319,2.034738589,2.091907533,2.160160663,132.3199993,0,17.66999944,111.4647067,9.843529393,38.42352946,75.35117763,21.49235322,65.37235311,20.95885717,21.76160183,22.01003167,20.47654391,19.37507164,18.84800849,18.09954582,14.25866518,12.17165493,15.21516129,28.41399994,23.9726608,27.94852153,28.22411762,29.00645443,26.88612691,22.65429039,19.02039094,3.206451565,16.00799999,11.62235867,15.61032629,16.7502941,17.72633694,14.88804443,11.60832066,7.356588233,5.349626667,14.38734971,10.95773449,14.17183136,14.61937489,15.41213998,13.31670354,10.34569698,7.707711279,0.504331792,1,0.97267375,0.996219796,1,0.995345527,0.95775528,0.812032548,42.7233625,-76.6555945,2015,NYH3
LH212HT/LH195,GAH1_2016,N,14.95,688.6441001,2,2,210,95,60,60,6.466250051,4.395000041,0.566421492,2.549627568,3.17469698,5.859943136,4.096967014,2.330999996,2.476261007,206.9200016,35.16000032,6.21000006,86.0200003,9.52409094,52.42727233,105.6731797,11.65499998,76.76409122,15.95696127,18.25385642,20.33100053,20.74024209,20.01064868,19.54302735,19.38198769,19.26953352,18.21451922,23.62687498,22.98249984,28.56134937,29.4983659,33.37075638,32.62719045,33.25026907,34.51499955,33.94928126,11.29749997,10.47000009,15.64744728,16.2846205,20.78287862,20.61269551,21.56927107,22.51809092,22.40467728,10.53971422,9.962440438,14.36481163,15.11313475,19.02952924,18.56859265,19.26668195,20.34390963,19.99415841,0.993928569,1,1,1,1,1,1,1,31.5079175,-83.55854775,2016,GAH1
2369/LH123HT,COH1_2017,N,36.6,589.5308371,0.75,7,260.25,112.5,78,77.5,3.393124943,0,0.001708684,0.360843908,0.891428554,3.560382097,1.42287895,1.565670675,1.770870451,108.5799982,0,0.02904762,12.29476177,1.600476163,43.78523833,56.48285717,21.02523811,53.20285701,22.26802993,25.65694836,25.9931063,24.2875628,21.26982858,19.37652668,19.65631787,15.92591012,11.99136935,20.38624986,26.27857154,29.00990249,30.95750085,32.84396765,29.24597739,27.87075516,24.49812031,17.64004964,4.676250031,9.955714362,11.44166305,13.33492254,15.64190474,14.2894836,11.55992968,8.650869984,2.505724526,7.387813889,11.22152513,12.97827389,14.53136664,16.23032426,14.11586508,12.58015619,10.40568176,6.007000116,0.859799101,1,1,1,1,0.978368119,0.882220332,0.653649732,40.64850025,-104.9997825,2017,COH1
LH198/PHZ51,ONH1_2017,Y,23.95,690.574878,0,2,252,125,72,71.5,4.42290319,4.904999876,1.545173221,3.420435244,1.695375006,2.594700004,1.855534774,1.54565171,2.383111348,137.1099989,49.04999876,23.52600009,140.8034994,5.378000009,36.46150006,95.23350107,29.85300009,72.44250006,18.65662235,17.08545341,23.10813164,20.12586768,18.11232318,19.44819915,16.33652997,11.62209215,7.957733996,13.94322577,18.20700026,22.35689536,24.80045755,25.17183321,25.2296929,22.79396283,22.13957367,13.29532023,3.578387066,9.706999969,10.10387851,14.12185296,14.82349991,13.63261195,10.3904862,9.847475595,3.166289439,4.958212412,8.025894563,9.659097931,11.97096233,12.35740613,11.98311106,9.953455995,10.0654016,5.273375752,0.439723498,0.877642858,1,1,1,0.972410901,0.840292505,0.515578473,43.49546,-80.42596875,2017,ONH1
TX779/LH195,TXH2_2020,N,13.95,727.474188,0,2,195.58,65.61666667,71.16666667,73.66666667,2.284333333,0,4.621906019,2.982124861,1.655000005,6.689114015,2.894056698,2.615892851,2.528400138,68.53,0,55.88714266,111.3664289,1.655000005,70.91857161,82.98143064,12.87071426,76.16571382,13.91343843,13.3863348,15.08661116,19.80328892,19.03358821,19.2160028,19.61198116,21.5690046,17.9190584,20.02266652,27.17999992,26.59088772,26.49063582,29.80749984,29.13094588,32.17534358,33.00407163,34.57616138,6.794333295,17.20400028,15.22554111,13.60666406,17.96904786,16.63267817,20.78659354,19.79317827,24.13923583,7.901247141,14.27292515,13.36557264,12.73068931,16.08957262,15.12192719,18.39831967,18.39239984,20.46927813,0.821357143,1,0.992404768,0.99375244,1,1,1,0.999043315,30.53825625,-96.42790225,2020,TXH2
B73/PHN82,IAH1_2017,Y,16.8,765.2316216,0.5,1.5,203,107,65,64,3.40562493,4.965384584,4.756276119,1.833606587,3.814090996,2.221484887,3.670808328,1.81325484,2.347473118,108.9799978,64.54999959,71.28272616,63.78727258,4.177727374,22.83863677,118.9068186,13.7622725,72.03681816,16.19865167,17.41178014,18.84198651,22.07722619,19.57094626,20.6423577,19.65334879,19.12382584,16.87809105,17.11343735,15.37846162,22.95951679,28.09807267,26.50742381,30.27960591,29.79948923,26.92834941,26.37674051,5.413125027,4.923076978,11.46549016,14.16962528,11.61757578,16.65775237,16.66504091,13.38757222,12.41510662,6.530778339,5.768563812,10.45370215,13.71965113,11.94783378,15.64262598,15.39964617,12.71239892,12.1737806,0.629988832,0.555054952,0.946458762,1,1,1,1,0.998130952,41.19924609,-91.49402296,2017,IAH1
F42/OH43,NYH2_2016,N,22.1,731.1212129,0.5,1,173,77,78.5,71,2.034516133,1.030000001,1.88805842,0.867300396,1.140952366,2.326450204,3.376451109,4.287746575,3.208572451,63.07000011,12.36000001,22.4085716,34.4438095,2.622857094,25.59095225,116.65619,31.75809508,97.82571426,19.21240982,23.35584625,23.40556822,22.17883586,23.94456446,21.25361649,17.18897092,16.17245816,13.35906413,14.04935483,18.68749992,27.50851283,26.23633728,28.78071431,29.31692664,28.41638555,26.44500865,23.15297547,1.686774175,4.439999988,12.92699036,12.85534504,13.89476193,15.65588736,16.863818,13.58818034,10.55762265,4.511298309,6.607155497,12.88765676,12.33330427,13.7996272,14.74166699,14.82295673,12.66050813,10.26842414,0.447315667,0.804761906,0.999400038,0.994542932,1,0.999880088,0.994843294,0.949842165,42.726117,-76.655339,2016,NYH2
LH195/LH82,ONH2_2017,Y,17.7,731.1212129,0,2,229,110,65,64,3.566774253,5.816000056,0.640467161,2.602850346,0.276190468,0.553043346,1.774150425,1.832219351,2.40528059,110.5700018,58.16000056,8.999047586,96.02571482,0.552380936,6.918571438,78.70857161,24.06619065,72.98142847,18.8542372,16.74867072,24.21291039,19.37094181,21.19715784,20.84705237,17.61151759,14.253685,9.927824707,15.7532257,18.68899984,23.40262829,26.34974997,26.59380949,26.86065013,24.57225317,22.91748616,20.00596815,5.764838726,10.96000004,12.03359118,16.18007827,16.63301581,15.91920336,13.14574071,11.27177775,10.10650586,6.141928302,8.38660306,10.68394655,13.52521671,13.7753985,13.64998718,11.58821465,10.41552723,9.107414304,0.598502303,0.966571423,1,1,1,0.999084662,0.956230826,0.8300025,42.45293025,-81.8827315,2017,ONH2
B73/PHM49,NEH3_2015,N,17.55,720.823731,0,0.5,229,110,65,63,3.231250057,0.918000031,0.565093977,1.286692195,3.19749999,1.391136354,0.258061221,1.474667183,0.155891338,103.4000018,4.590000153,6.150000095,39.04749978,4.720000029,15.30249989,11.17999983,14.52874985,4.648125023,21.79127574,25.69442635,22.86725485,21.82271665,15.26317632,20.59079,20.06412842,16.27968968,13.53861776,24.28750017,32.64599991,30.58771447,32.67731329,28.91593772,29.87238656,30.80707127,25.39031645,21.32018275,9.278749934,13.0079998,13.8828633,15.7826582,17.05531204,14.62710229,13.18313307,8.87540479,3.334017086,10.46257825,15.28330691,14.45465852,16.22005678,15.0938879,14.496454,14.53020136,10.90039565,7.851747396,0.909587052,1,1,1,1,0.965712824,0.862507779,0.80953931,41.15824525,-101.9872958,2015,NEH3
F42/H95,WIH1_2017,Y,17.7,731.1212129,0,2,229,110,65,64,3.894838602,1.694000003,3.49156578,6.251914317,26.29780264,12.3515148,1.782621048,1.031219451,2.019413967,120.7399967,16.94000003,60.77000046,238.2086357,55.48409002,148.2181776,77.27181808,11.13545426,60.74545419,17.96009764,21.56986256,18.71582301,20.73316127,19.69440102,19.58726141,19.1692292,15.69151392,12.21998586,16.03451621,20.2119998,20.22998088,26.71060266,27.00553033,27.16428033,24.80808837,24.03641879,21.845045,3.37838715,6.260000002,9.268565708,14.6662765,15.35575767,16.21109857,13.17589581,11.52521119,9.509429623,5.507434962,7.720411242,8.664602637,13.14891279,13.46068042,13.9043846,11.67856357,10.90146065,9.608265423,0.606900932,0.8735357,0.867893568,1,1,0.998220242,0.971647403,0.89569217,43.05668125,-89.5308135,2017,WIH1
PHG39/PHN82,TXH3_2020,N,8.5225,2291.833309,0,2,225.425,76.835,61.5,60.25,3.45875001,5.345714297,0.996479651,4.090893152,11.37176514,0.055555557,3.334418123,0.880352915,2.226110039,110.6800003,37.42000008,12.08058808,124.9758839,22.74353027,0.450000013,88.32823513,3.714117541,69.00941121,15.8034201,18.34009743,21.30541133,19.40762275,20.16580067,20.62125497,19.02899565,16.94703156,18.75160362,25.77062485,24.00285694,27.63577502,29.95402965,30.19186265,32.38063702,33.36328143,35.03835301,35.63206825,14.19906271,12.24428552,13.92062761,17.60156859,18.33921522,21.14142164,21.88591696,25.71364726,24.34760913,12.60372436,11.20425028,13.29865333,15.96364287,16.27361839,18.69618421,19.4144726,21.47019646,20.81901077,0.989866069,1,1,1,1,0.99995416,0.999321567,0.998827006,30.53869475,-96.4274175,2020,TXH3
LH212HT/LH195,MOH1_2017,N,17.7,731.1212129,0,2,229,110,65,64,8.937741737,9.40166688,2.512230721,3.318030003,5.035714369,1.794490762,1.996986524,1.220079397,1.67255761,277.0699939,56.41000128,33.26619119,103.9014299,11.93095259,15.87761924,65.30142803,7.334762096,51.25476209,18.72482054,18.08832916,22.62422694,21.00800173,18.77514496,19.93438148,19.70533138,19.36646121,17.34329115,21.92032254,25.32999992,25.47495036,29.30087203,30.46650729,32.25412016,29.92026774,28.22145964,28.04827898,10.06000005,15.27666648,12.99827088,17.39768618,19.78222205,21.21359122,18.70404881,16.33857143,14.9717184,9.612847321,12.76903024,11.94928206,15.49761919,17.12130987,18.67277384,16.20463701,14.48208578,13.92850008,0.915472353,1,1,1,1,1,1,0.999239796,38.89264,-92.2057525,2017,MOH1
B37/OH43,NCH1_2018,Y,17.15,731.1212129,0,2.25,224.25,113,54,53,4.157741868,0,6.852651043,4.101575565,0.281428576,2.753968325,7.265916583,9.606714405,8.963617552,128.8899979,0,78.76714403,125.545715,0.410714286,22.4842863,196.6735732,49.18571489,277.8721441,19.15814344,24.86455965,15.13897653,19.38558293,23.18458939,19.6068393,18.38664919,15.55735787,15.52161696,22.42709686,23.6650002,25.05504787,28.99162569,32.21999972,32.77589287,33.41271207,32.57228504,30.53730396,9.272903273,8.262500107,16.63082339,19.21430847,20.43714251,21.48106165,22.41052549,22.8214047,21.52269578,9.383610038,9.710722454,13.07063738,16.1524193,18.32857112,19.12847726,19.83450897,19.67052049,18.05632483,0.990449307,1,1,1,1,1,1,1,35.6667825,-78.492372,2018,NCH1
B37/H95,DEH1_2019,Y,20.62,711.2985603,0,0.8,244,116.6,59.6,58.6,4.885483834,0.129999995,2.22754366,2.838879743,7.092619056,13.09007943,2.376059147,7.246095167,5.291338731,151.4499989,1.169999957,29.41999924,87.75142762,13.32785715,117.8107149,70.17642808,38.82285679,163.7607149,18.09422633,22.52754413,19.09832956,21.10549391,16.87992425,18.38683534,17.43790908,14.47643482,15.18822094,17.49129031,20.55777783,23.08374535,28.61102885,30.70333358,31.53571423,31.96636291,30.10673826,28.44137569,7.04516129,9.184444467,14.30050877,18.34149326,20.74333359,21.70119062,22.68293302,22.03347627,19.57253904,6.992168387,8.735510177,11.41430501,15.6056687,17.71122979,18.59296506,19.259015,18.07354239,16.13042035,0.769815656,0.948412699,0.988507504,1,1,1,1,1,38.670675,-75.433225,2019,DEH1
PHN11_OH43_0001/PHB47,ARH2_2016,N,12.6,731.1212129,0,2,190.5,118.5,63.5,60.5,5.780937422,12.26500018,3.712120208,7.0222886,1.105000019,0.295568184,1.931287914,1.454696927,6.280835692,184.9899975,73.59000111,50.67409075,233.2059098,2.210000038,2.364545475,51.29727264,7.656817956,194.7059064,17.76457119,17.22719622,20.14058537,19.80644481,18.88262117,19.79738723,18.69440654,19.88854878,15.60714355,21.02781257,25.69833342,24.88224707,27.55747889,33.1628785,33.38017045,32.40728063,33.71248445,31.37684753,8.517187547,14.13833332,13.26693003,16.75834882,22.79151535,23.21522755,22.56353312,22.95024234,22.3752492,8.626308124,12.37618007,11.75818796,14.46644855,19.89189903,20.24263088,19.43024202,20.23735303,18.81126952,0.958649555,1,1,1,1,1,1,1,35.838614,-90.66530155,2016,ARH2
F42/OH43,MOH1_2_2020,N,18.36666667,731.1212129,0,0.666666667,240,109,58.66666667,57,2.765624954,8.119999743,10.23533287,1.900197364,6.862941181,7.496322061,3.61617108,2.901626778,3.303786197,88.49999854,40.59999871,96.12411712,56.39411764,8.455882353,68.01117661,117.8082348,21.52705885,101.3270584,18.75466287,21.25211372,22.58999711,20.28617166,20.64270943,17.48834951,18.15902921,17.2011884,14.69335169,22.18656257,30.76999931,28.84882905,30.74339714,30.90558787,31.2308437,28.74780649,29.21697892,24.17436303,12.23093753,19.21800041,17.30516703,20.0610583,19.70343171,21.50444419,18.15153395,17.40346693,12.7162556,10.41798935,16.99399986,15.18178367,17.42227064,17.30450979,18.37429674,15.5665539,15.53509051,11.41105442,0.936383936,1,1,1,1,1,0.996694042,0.965786214,38.8958275,-92.2071575,2020,MOH1
CG119/CG108,NYH2_2017,Y,17.7,731.1212129,0,2,229,110,65,64,4.985806354,2.593333337,3.453715005,5.89688957,0.948070192,3.208418109,2.379655727,2.694333021,3.397972982,154.559997,23.34000003,55.2357889,222.9889478,1.763157895,41.81263091,117.7794744,23.637895,104.1910535,18.91896409,18.22902181,21.62310913,19.28169434,21.2024166,18.91678159,16.97406986,13.88043676,9.439494818,16.54903238,19.80111122,22.34881997,25.65461899,27.16105275,25.3148988,23.28803047,24.25146582,18.24460841,5.239677404,10.2422222,10.55939387,15.21770316,15.87359667,14.84504335,11.5614249,11.15398494,7.352427253,6.267898103,8.570747831,9.793885142,12.80097944,13.68904673,12.46138399,10.55155578,10.87663924,7.688896934,0.638917053,1,1,1,1,0.981507475,0.966916282,0.722284214,42.73248125,-76.65275025,2017,NYH2
WF9/H95,IAH4_2015,Y,20,687.3569149,36,3,249,145,65,64,1.42451612,4.854615514,2.513668144,6.351127419,5.46999979,2.154687441,1.85099418,0.335758934,4.064770202,44.15999973,63.11000168,35.58999979,218.2399999,10.93999958,20.30812445,58.48687407,2.377500039,125.1143763,19.83997888,19.28772805,16.02270398,20.69822917,17.27718186,21.35831173,20.17303565,19.59360772,15.6142427,15.83032262,16.78769229,22.26164163,27.88725423,29.37999988,31.52784708,28.69895342,30.18404469,25.46833276,2.473548389,5.024615425,13.48280789,16.59868734,20.37374985,19.78628468,17.37298211,16.89515858,12.68514048,5.318693913,6.228847238,10.78291245,14.47529064,16.87687486,17.66054739,15.18141656,15.71210426,12.05907357,0.585391697,0.659230777,0.98994413,1,1,1,1,0.952600636,41.19970961,-91.49362406,2015,IAH4
PHW52/PHM49,IAH1_2015,Y,21.45,709.8826565,0.5,0.5,262.5,144.5,65,64,1.566451638,2.213076954,8.402418557,1.323463692,0.084411761,2.297359398,2.93999255,2.37101191,2.732793763,48.56000078,28.7700004,122.1399999,43.52999979,0.168823523,22.82352863,100.1182349,16.67000003,83.81294001,20.43214903,18.85811498,14.63317728,22.31276759,19.14227258,22.20806523,19.83862588,18.33763158,15.0581957,16.08774191,16.64538457,21.84697853,28.7334183,30.26852911,31.30747052,29.05105531,29.39636272,24.66946357,1.839032284,4.865384661,13.12892854,16.86768962,20.05941139,18.05705196,16.3929614,15.43749916,11.17229855,5.447129731,6.098188577,10.48240964,14.99632473,17.16639266,16.72884186,14.96924927,14.77137221,11.30644361,0.593087559,0.682994502,0.988452545,1,1,0.997626801,1,0.896934674,41.9980952,-93.69336973,2015,IAH1
CG108/CGR03,COH1_2017,N,21,692.8274522,0.5,10.25,193.5,95.25,62.75,62.75,3.393124943,0,0.001708684,0.360843908,0.891428554,3.560382097,1.42287895,1.565670675,1.770870451,108.5799982,0,0.02904762,12.29476177,1.600476163,43.78523833,56.48285717,21.02523811,53.20285701,22.26802993,25.65694836,25.9931063,24.2875628,21.26982858,19.37652668,19.65631787,15.92591012,11.99136935,20.38624986,26.27857154,29.00990249,30.95750085,32.84396765,29.24597739,27.87075516,24.49812031,17.64004964,4.676250031,9.955714362,11.44166305,13.33492254,15.64190474,14.2894836,11.55992968,8.650869984,2.505724526,7.387813889,11.22152513,12.97827389,14.53136664,16.23032426,14.11586508,12.58015619,10.40568176,6.007000116,0.859799101,1,1,1,1,0.978368119,0.882220332,0.653649732,40.64850025,-104.9997825,2017,COH1
B73/MO17,ONH1_2015,Y,33.35,688.0005075,0,1,250,127.5,87.5,87.5,1.605625002,2.296315821,1.411426091,1.973297954,0.512941169,3.436769168,2.641035405,1.799953816,2.360571209,51.38000005,43.63000059,20.30117703,73.50294104,0.81882352,40.73352947,103.9364728,19.58470627,71.14882509,18.02169462,20.4737019,23.34007091,22.64543997,20.24065375,18.07254412,18.60447299,14.22755231,12.21920895,9.771562532,12.63473691,23.7578119,26.83441686,29.90941261,27.46928249,26.11972075,22.82201755,18.35250846,-0.327500018,2.045263152,11.01347606,13.31919887,17.43313718,16.50329302,14.06775752,11.69572195,7.013714688,2.851211725,4.201400589,10.67713105,12.77399982,15.76589753,14.15032606,12.63577386,10.48249806,7.379159901,0.167098218,0.403345874,0.957007131,0.991950294,1,0.994472794,0.939113043,0.772366561,43.49741975,-80.44806025,2015,ONH1
CG119/CG108,NYH3_2015,N,16.15,731.1212129,0,3,169,75.5,67.5,67.5,4.268387075,0,1.234803629,3.315485905,3.744705864,3.708743319,2.034738589,2.091907533,2.160160663,132.3199993,0,17.66999944,111.4647067,9.843529393,38.42352946,75.35117763,21.49235322,65.37235311,20.95885717,21.76160183,22.01003167,20.47654391,19.37507164,18.84800849,18.09954582,14.25866518,12.17165493,15.21516129,28.41399994,23.9726608,27.94852153,28.22411762,29.00645443,26.88612691,22.65429039,19.02039094,3.206451565,16.00799999,11.62235867,15.61032629,16.7502941,17.72633694,14.88804443,11.60832066,7.356588233,5.349626667,14.38734971,10.95773449,14.17183136,14.61937489,15.41213998,13.31670354,10.34569698,7.707711279,0.504331792,1,0.97267375,0.996219796,1,0.995345527,0.95775528,0.812032548,42.7233625,-76.6555945,2015,NYH3
PHW52/PHN82,WIH1_2017,Y,25.15,693.1492485,0,2,237.25,104.75,78.5,78.5,3.894838602,1.694000003,3.49156578,6.251914317,26.29780264,12.3515148,1.782621048,1.031219451,2.019413967,120.7399967,16.94000003,60.77000046,238.2086357,55.48409002,148.2181776,77.27181808,11.13545426,60.74545419,17.96009764,21.56986256,18.71582301,20.73316127,19.69440102,19.58726141,19.1692292,15.69151392,12.21998586,16.03451621,20.2119998,20.22998088,26.71060266,27.00553033,27.16428033,24.80808837,24.03641879,21.845045,3.37838715,6.260000002,9.268565708,14.6662765,15.35575767,16.21109857,13.17589581,11.52521119,9.509429623,5.507434962,7.720411242,8.664602637,13.14891279,13.46068042,13.9043846,11.67856357,10.90146065,9.608265423,0.606900932,0.8735357,0.867893568,1,1,0.998220242,0.971647403,0.89569217,43.05668125,-89.5308135,2017,WIH1
PHG39/PHN82,IAH3_2017,N,17.7,731.1212129,0,2,229,110,65,64,4.153750014,4.476666673,3.404720357,2.207347727,0.783636364,2.628276904,1.892687593,2.328876272,1.794257086,132.9200004,67.1500001,54.03954627,78.33863542,1.567272728,28.02681865,71.85545488,19.05045461,54.69545453,16.14493189,17.75127989,18.89303832,22.07985964,20.54923199,20.99384486,19.81852315,17.22919489,15.64326955,15.84312499,15.5066665,21.42652578,27.714982,28.45522753,29.90074383,27.6545798,25.64720852,25.13760955,4.41906251,4.141333344,9.782295063,13.56526933,16.05901469,16.6123348,14.8096002,12.74600627,11.28191352,5.818880471,5.62230391,9.387130072,13.2881535,14.4256186,15.3843105,13.65871261,11.89796048,11.29223634,0.568604913,0.570380948,0.879734313,1,1,1,1,0.979205627,41.9758706,-92.24318881,2017,IAH3
LH74/PHN82,NYH2_2017,Y,17.65,730.4776202,0.5,6,232.5,107,70,69.5,4.985806354,2.593333337,3.453715005,5.89688957,0.948070192,3.208418109,2.379655727,2.694333021,3.397972982,154.559997,23.34000003,55.2357889,222.9889478,1.763157895,41.81263091,117.7794744,23.637895,104.1910535,18.91896409,18.22902181,21.62310913,19.28169434,21.2024166,18.91678159,16.97406986,13.88043676,9.439494818,16.54903238,19.80111122,22.34881997,25.65461899,27.16105275,25.3148988,23.28803047,24.25146582,18.24460841,5.239677404,10.2422222,10.55939387,15.21770316,15.87359667,14.84504335,11.5614249,11.15398494,7.352427253,6.267898103,8.570747831,9.793885142,12.80097944,13.68904673,12.46138399,10.55155578,10.87663924,7.688896934,0.638917053,1,1,1,1,0.981507475,0.966916282,0.722284214,42.73248125,-76.65275025,2017,NYH2
F42/H95,MNH1_2018,N,20.61142857,722.1109162,0,2,250.7142857,119.2857143,62.14285714,58.71428571,2.793871032,5.664285694,1.881383508,4.66962568,0.280777779,5.314848416,5.503097756,4.902593174,1.744490341,86.61000198,39.64999986,19.66333312,156.0266671,0.653333338,61.18466587,207.3246693,42.5680015,52.61600056,18.68617175,18.6483766,23.22190313,20.23498137,21.88409551,21.20453879,17.43849101,14.02805899,11.47763682,18.24580648,23.51142883,30.49568208,28.40295697,27.67288871,27.88288382,26.24424925,23.489937,17.2954947,6.62290317,13.35285704,16.1020056,17.07111629,16.25377796,15.7901465,14.83515609,12.42970144,6.347470975,7.12789267,11.15082684,15.42136783,14.91719499,14.1582049,14.10491894,13.08066536,11.20324133,7.126560519,0.79756912,1,1,1,1,0.978734696,0.910102722,0.699884152,44.07044721,-93.53494127,2018,MNH1
PHG80/PHZ51,TXH1_2015,N,11.3,731.7648055,0,2,144.5,86,68,66,2.435333351,0.886666695,4.529386736,2.992210444,0,5.407499953,3.236240411,4.528416659,2.205666663,73.06000052,5.320000172,54.16999972,113.7899998,0,59.48249948,89.11249819,24.54499996,66.1699999,13.38128519,15.80308406,13.73749678,19.48289484,22.46598899,19.96463979,19.54848583,19.57031498,18.03135075,19.61999995,26.26833312,25.8489028,26.4780255,30.37177098,28.79539756,31.9014052,33.48070828,34.35516661,6.122333375,12.74499997,15.39155332,13.69439061,15.83385423,15.9580683,20.41172374,21.45270844,23.93220836,7.516768444,12.28221354,13.06030889,12.7550996,15.35592881,14.67426974,18.11040569,19.30603111,20.37775841,0.822428569,1,0.992325397,0.994092815,1,1,1,0.999431249,30.54708625,-96.43393475,2015,TXH1
CG60/LH162,TXH1_2016,Y,17.7,731.1212129,0,2,156.5,52,60.5,60,1.633666698,16.13999993,0.99702422,4.719865603,0.129393939,3.277272727,13.06232457,0.703636358,1.017125621,49.01000094,112.9799995,14.5313639,177.3549991,0.33090909,36.05,378.0672674,3.179999969,30.53454577,13.9726292,10.72874144,17.88940951,17.80076093,20.55685321,19.77792414,17.90480363,20.8338604,20.14326093,22.32500016,23.95000022,24.48309256,26.40498513,28.5388636,28.63545455,30.12870319,34.35404525,35.58838723,6.034666632,13.33571414,9.675379644,13.12758779,15.78530267,16.33764454,20.13902853,23.08186362,24.00118421,8.473379033,11.29783551,10.5045992,12.46111665,14.43681279,14.72204148,17.12368238,20.53225114,20.87599038,0.915869048,1,0.972225207,1,1,1,1,1,30.54708625,-96.43393475,2016,TXH1
B73/PHN82,IAH3_2017,Y,20.45,739.4879169,0,2,229,110,65,64,4.153750014,4.476666673,3.404720357,2.207347727,0.783636364,2.628276904,1.892687593,2.328876272,1.794257086,132.9200004,67.1500001,54.03954627,78.33863542,1.567272728,28.02681865,71.85545488,19.05045461,54.69545453,16.14493189,17.75127989,18.89303832,22.07985964,20.54923199,20.99384486,19.81852315,17.22919489,15.64326955,15.84312499,15.5066665,21.42652578,27.714982,28.45522753,29.90074383,27.6545798,25.64720852,25.13760955,4.41906251,4.141333344,9.782295063,13.56526933,16.05901469,16.6123348,14.8096002,12.74600627,11.28191352,5.818880471,5.62230391,9.387130072,13.2881535,14.4256186,15.3843105,13.65871261,11.89796048,11.29223634,0.568604913,0.570380948,0.879734313,1,1,1,1,0.979205627,41.9758706,-92.24318881,2017,IAH3
B37/H95,IAH4_2015,Y,19.8,735.6263612,0,3,253.5,139,65,64,1.42451612,4.854615514,2.513668144,6.351127419,5.46999979,2.154687441,1.85099418,0.335758934,4.064770202,44.15999973,63.11000168,35.58999979,218.2399999,10.93999958,20.30812445,58.48687407,2.377500039,125.1143763,19.83997888,19.28772805,16.02270398,20.69822917,17.27718186,21.35831173,20.17303565,19.59360772,15.6142427,15.83032262,16.78769229,22.26164163,27.88725423,29.37999988,31.52784708,28.69895342,30.18404469,25.46833276,2.473548389,5.024615425,13.48280789,16.59868734,20.37374985,19.78628468,17.37298211,16.89515858,12.68514048,5.318693913,6.228847238,10.78291245,14.47529064,16.87687486,17.66054739,15.18141656,15.71210426,12.05907357,0.585391697,0.659230777,0.98994413,1,1,1,1,0.952600636,41.19970961,-91.49362406,2015,IAH4
F42/MO17,MIH1_2019,N,19.85,742.70588,0,2,203.75,93.25,62,60.5,3.720322615,6.189999878,7.0818969,2.961916884,8.70871786,0.913986013,1.817216317,4.468053866,4.013250907,115.3300011,49.51999903,106.8900002,93.8269235,16.81999984,10.80615383,84.36076873,63.3192304,120.886153,19.31986936,19.65939665,18.51979106,21.00444556,17.01540622,20.04742627,16.96863927,12.02893287,10.87568864,17.60709666,21.67250037,22.690749,28.9340566,30.56538516,27.94921954,26.00654686,21.50260694,17.46530245,6.210322559,10.31875008,12.21847794,16.86604701,18.743333,15.85306519,14.00590995,11.32576155,7.161163464,6.876773896,9.314382636,10.39761731,15.10453275,16.86261297,14.19391073,12.58553183,10.00606366,7.511656803,0.696382483,1,0.995173883,1,1,0.988904737,0.895422602,0.709438731,42.70789125,-84.4706665,2019,MIH1
CG60/LH162,IAH4_2015,N,15.3,657.1080619,68,7.5,189,99.5,65,64,1.42451612,4.854615514,2.513668144,6.351127419,5.46999979,2.154687441,1.85099418,0.335758934,4.064770202,44.15999973,63.11000168,35.58999979,218.2399999,10.93999958,20.30812445,58.48687407,2.377500039,125.1143763,19.83997888,19.28772805,16.02270398,20.69822917,17.27718186,21.35831173,20.17303565,19.59360772,15.6142427,15.83032262,16.78769229,22.26164163,27.88725423,29.37999988,31.52784708,28.69895342,30.18404469,25.46833276,2.473548389,5.024615425,13.48280789,16.59868734,20.37374985,19.78628468,17.37298211,16.89515858,12.68514048,5.318693913,6.228847238,10.78291245,14.47529064,16.87687486,17.66054739,15.18141656,15.71210426,12.05907357,0.585391697,0.659230777,0.98994413,1,1,1,1,0.952600636,41.19970961,-91.49362406,2015,IAH4
B73/PHZ51,GAH1_2016,N,14.625,740.4533058,0.5,3.75,207.5,95,60,57.75,6.466250051,4.395000041,0.566421492,2.549627568,3.17469698,5.859943136,4.096967014,2.330999996,2.476261007,206.9200016,35.16000032,6.21000006,86.0200003,9.52409094,52.42727233,105.6731797,11.65499998,76.76409122,15.95696127,18.25385642,20.33100053,20.74024209,20.01064868,19.54302735,19.38198769,19.26953352,18.21451922,23.62687498,22.98249984,28.56134937,29.4983659,33.37075638,32.62719045,33.25026907,34.51499955,33.94928126,11.29749997,10.47000009,15.64744728,16.2846205,20.78287862,20.61269551,21.56927107,22.51809092,22.40467728,10.53971422,9.962440438,14.36481163,15.11313475,19.02952924,18.56859265,19.26668195,20.34390963,19.99415841,0.993928569,1,1,1,1,1,1,1,31.5079175,-83.55854775,2016,GAH1
CG119/CG108,NYH3_2018,N,19.55,749.4636024,3.5,2.5,168,83,58,56,4.152903213,0.855714253,1.333281551,1.973054112,19.58384622,4.14286014,1.827699262,3.76173812,1.90156246,128.7399996,5.989999771,17.49230713,69.9676929,40.09153858,44.76538462,69.41461665,34.65000019,57.30153882,20.64383799,23.73438372,20.91517994,21.34827616,15.57480097,18.28181198,18.59806785,13.9987834,13.21485935,12.82806446,24.72714315,24.74142799,27.59651287,28.68307664,28.50629367,27.06434367,24.34345721,20.06623908,1.452258048,10.48999977,13.10088293,14.82547593,19.13846159,17.45270631,15.13507682,13.07327349,8.10410419,4.113027627,10.74522894,11.82730489,13.73068126,15.93834835,15.05075648,13.50240047,11.64767513,8.352187515,0.351670502,1,0.973040659,0.995029228,1,0.992439429,0.946636381,0.843044516,42.7261605,-76.6556765,2018,NYH3
PHB47/PHZ51,IAH3_2015,N,16.1,724.6852867,0,21.33333333,261.6666667,125.3333333,65,64,1.888124991,2.913571392,3.784813995,6.971928843,0,3.257500064,1.487385228,2.541446469,4.507444947,60.41999972,40.78999949,55.43999982,241.6600003,0,32.57500064,50.31437471,24.68500039,138.7756267,19.80172794,20.03998334,15.9141292,20.68283491,21.69136486,21.24428636,20.63784564,18.68301758,14.92198489,14.64187506,16.6814285,21.6371088,27.61372247,30.87885427,30.3035625,28.596254,28.51656267,24.33389908,0.83250004,3.600714236,12.24542872,16.05178152,19.47364565,18.11006255,15.99319583,14.30373217,10.64901215,4.605131548,5.787499831,10.11465775,14.1164012,17.17624996,16.25391669,14.57670766,13.97583386,10.87542788,0.501462055,0.634540813,0.981270753,1,1,1,0.968879463,0.933929792,41.97585629,-92.24291804,2015,IAH3
W10005_0107/PHB47,TXH1_2016,N,9.9,705.3775082,0,2,187,58.5,68,67.5,1.633666698,16.13999993,0.99702422,4.719865603,0.129393939,3.277272727,13.06232457,0.703636358,1.017125621,49.01000094,112.9799995,14.5313639,177.3549991,0.33090909,36.05,378.0672674,3.179999969,30.53454577,13.9726292,10.72874144,17.88940951,17.80076093,20.55685321,19.77792414,17.90480363,20.8338604,20.14326093,22.32500016,23.95000022,24.48309256,26.40498513,28.5388636,28.63545455,30.12870319,34.35404525,35.58838723,6.034666632,13.33571414,9.675379644,13.12758779,15.78530267,16.33764454,20.13902853,23.08186362,24.00118421,8.473379033,11.29783551,10.5045992,12.46111665,14.43681279,14.72204148,17.12368238,20.53225114,20.87599038,0.915869048,1,0.972225207,1,1,1,1,1,30.54708625,-96.43393475,2016,TXH1
F42/OH43,IAH4_2015,Y,20.8,682.208174,28,4.5,266.5,132.5,65,64,1.42451612,4.854615514,2.513668144,6.351127419,5.46999979,2.154687441,1.85099418,0.335758934,4.064770202,44.15999973,63.11000168,35.58999979,218.2399999,10.93999958,20.30812445,58.48687407,2.377500039,125.1143763,19.83997888,19.28772805,16.02270398,20.69822917,17.27718186,21.35831173,20.17303565,19.59360772,15.6142427,15.83032262,16.78769229,22.26164163,27.88725423,29.37999988,31.52784708,28.69895342,30.18404469,25.46833276,2.473548389,5.024615425,13.48280789,16.59868734,20.37374985,19.78628468,17.37298211,16.89515858,12.68514048,5.318693913,6.228847238,10.78291245,14.47529064,16.87687486,17.66054739,15.18141656,15.71210426,12.05907357,0.585391697,0.659230777,0.98994413,1,1,1,1,0.952600636,41.19970961,-91.49362406,2015,IAH4
WF9/H95,ONH1_2017,Y,17.7,731.1212129,0,2,229,110,65,64,4.42290319,4.904999876,1.545173221,3.420435244,1.695375006,2.594700004,1.855534774,1.54565171,2.383111348,137.1099989,49.04999876,23.52600009,140.8034994,5.378000009,36.46150006,95.23350107,29.85300009,72.44250006,18.65662235,17.08545341,23.10813164,20.12586768,18.11232318,19.44819915,16.33652997,11.62209215,7.957733996,13.94322577,18.20700026,22.35689536,24.80045755,25.17183321,25.2296929,22.79396283,22.13957367,13.29532023,3.578387066,9.706999969,10.10387851,14.12185296,14.82349991,13.63261195,10.3904862,9.847475595,3.166289439,4.958212412,8.025894563,9.659097931,11.97096233,12.35740613,11.98311106,9.953455995,10.0654016,5.273375752,0.439723498,0.877642858,1,1,1,0.972410901,0.840292505,0.515578473,43.49546,-80.42596875,2017,ONH1
TX951/LH195,ILH1_2015,Y,13.4,770.3803625,0,2.5,265,152.5,76,74,4.343437491,1.296153843,7.654899739,5.34311295,3.674999952,2.467291633,4.647268051,0.712819956,1.951907909,138.9899997,16.84999996,99.86750055,177.342501,7.349999905,22.2056247,144.0256246,5.039375113,60.06187434,19.4076893,20.21820178,17.58012378,22.59231729,17.35775694,20.12242863,18.79551315,20.37165926,16.80998738,15.69375022,16.27615364,23.81483975,28.77428317,30.28249967,31.91701372,28.65899596,28.4854072,27.09877011,2.916875011,4.602307732,13.93389792,16.26044709,20.47749984,20.41381959,17.79543547,15.77196732,14.62672175,5.339800043,5.921635642,11.53105666,14.7484369,17.37999976,18.17178164,15.31569586,14.44648847,13.36421336,0.599162964,0.636840646,1,1,1,1,1,0.99828125,40.05982425,-88.23397575,2015,ILH1
W10001_0022/PHB47,MIH1_2016,N,16.65,729.8340276,0,4.5,223.5,106.5,59,59,3.213870927,0.372000003,1.277668238,2.072144594,0.204761899,2.382636341,6.277866916,3.129595251,4.115734243,99.62999874,1.860000014,16.77857134,74.4033328,0.614285696,24.34142835,217.3680916,23.88571438,123.5814282,20.04481233,22.69628944,22.57460654,21.19066928,19.62511718,19.41470496,17.43536011,14.16523572,12.41239439,17.74322581,29.20999985,25.57947765,28.1508514,27.23547651,30.32783564,28.27294529,26.6388532,22.50219404,5.299677434,16.33600006,11.90361174,14.70447611,15.74579377,17.52671,16.25511672,15.58650841,10.86825081,6.615827776,14.89908974,11.62365975,13.82943527,13.70908531,16.01583991,14.48649579,13.48265,10.09129455,0.734400922,1,1,1,1,0.999987733,0.99326559,0.936590208,42.41206675,-84.2952625,2016,MIH1
B73/PHZ51,ONH1_2016,Y,29.33333333,655.6063458,0,1.333333333,236.6666667,136,84.33333333,82.66666667,1.979032247,2.105714291,0.92181366,1.439738287,4.720833318,2.435439396,4.62931563,1.31185227,2.043303741,61.34999967,29.48000008,13.31600007,60.28400005,10.99249999,28.54150001,172.0475013,11.37649985,61.38049932,20.24883872,21.56727634,23.77365349,22.41142308,19.3081847,20.61473607,17.12813691,15.31534219,11.6349499,10.49290321,16.47999988,25.01561457,25.51466922,28.22516696,27.99415914,27.31356147,24.49017951,20.3886015,-0.735806467,3.753571405,10.93050922,11.61184699,15.55325019,14.71775745,15.07244109,12.71620509,9.185787659,3.269306411,5.688768484,11.09209761,11.56175859,14.2216101,13.76399544,13.57642435,11.5133866,8.776899495,0.291105988,0.684668367,0.99891379,0.988093962,1,0.998165816,0.971212584,0.877977401,43.4997965,-80.451125,2016,ONH1
TX714/PHZ51,ILH1_2016,Y,16.45,736.2699538,0.5,2,264.5,126,74,72.5,2.976905237,4.388409027,2.266536067,5.61207631,2.384848472,3.596551307,3.312350719,4.357499975,4.793790319,93.71999985,46.35499933,33.46068128,180.4177266,4.628863606,41.73386359,104.1413657,28.32431801,148.2020453,18.82488241,16.77241452,21.32061235,20.18653607,20.74234538,18.07981042,18.8666989,17.85818253,16.07680721,18.05081144,19.20204525,23.0422997,29.42292662,27.90308728,26.97317812,29.60218573,29.15938829,28.17592877,4.960040295,8.531272602,10.4507586,17.10049505,15.99717794,16.84881478,19.41054858,18.84383108,17.09740687,6.781235125,7.969267807,10.17119166,15.41614171,14.29579798,14.15384892,16.51995977,16.04951253,14.84458937,0.666766271,0.897956159,0.946860721,1,1,1,1,0.999883117,40.0607245,-88.2338815,2016,ILH1
B73/MO17,ONH2_2015,Y,26.85,720.1801384,0,0.5,291.5,160.5,80.5,80,1.876451608,4.282666683,1.928005431,1.58261263,10.80264742,1.923208582,3.114388399,4.294901914,2.356388962,58.16999984,64.24000025,23.61999965,57.22470651,21.60529484,21.1552944,115.5017658,31.56294079,72.1164696,18.95380112,18.76709785,21.17743809,22.45418875,20.04103015,18.4543581,18.45373918,15.80078253,13.34539525,11.17387095,14.38466663,23.91200153,26.61279381,30.15176526,27.65053462,26.77986929,25.87464046,20.7920557,2.006774224,5.636000033,13.64950245,15.64688346,19.32647026,18.51812829,16.74694623,15.4972221,11.03054456,3.742938436,5.617129505,11.53065914,13.52353119,16.78542678,15.13421866,13.95153495,13.1846932,9.37660249,0.276970043,0.589690475,0.985132406,1,1,1,0.993019959,0.931831119,42.45408625,-81.8816065,2015,ONH2
CG44/CGR01,NYH3_2020,Y,15.95,731.1212129,0,8,212.5,90,61.5,61.5,4.422257993,0,1.373865683,3.203515064,6.161458224,3.578657229,2.247619776,1.339995863,2.270768823,137.0899978,0,18.69000064,113.6731244,12.19749978,37.86125033,87.74812532,17.041875,68.54562519,20.94560956,21.78233427,21.55267425,20.63825651,19.18147684,18.87690393,17.75633085,13.93943947,11.5316014,14.59225801,27.97729172,23.60945411,27.89842024,28.17958339,28.76829368,26.51617347,21.47489044,18.12990527,2.644717742,15.68266662,11.3508871,15.53912014,16.43281273,17.50013456,14.53010818,10.52921434,6.891416056,5.000434995,14.04753459,10.70035646,14.11697706,14.42792892,15.19886376,13.03509367,9.604727821,7.356101809,0.471947005,1,0.969562211,0.99553941,1,0.989555914,0.903066166,0.764418635,42.73227475,-76.6513705,2020,NYH3
CG60/LH162,COH1_2017,N,16.6875,748.6591117,0,3,172.75,80.375,62.5,60.25,3.393124943,0,0.001708684,0.360843908,0.891428554,3.560382097,1.42287895,1.565670675,1.770870451,108.5799982,0,0.02904762,12.29476177,1.600476163,43.78523833,56.48285717,21.02523811,53.20285701,22.26802993,25.65694836,25.9931063,24.2875628,21.26982858,19.37652668,19.65631787,15.92591012,11.99136935,20.38624986,26.27857154,29.00990249,30.95750085,32.84396765,29.24597739,27.87075516,24.49812031,17.64004964,4.676250031,9.955714362,11.44166305,13.33492254,15.64190474,14.2894836,11.55992968,8.650869984,2.505724526,7.387813889,11.22152513,12.97827389,14.53136664,16.23032426,14.11586508,12.58015619,10.40568176,6.007000116,0.859799101,1,1,1,1,0.978368119,0.882220332,0.653649732,40.64850025,-104.9997825,2017,COH1
CG119/CG108,MNH1_2018,N,16.25444444,739.1303654,0,2,210.5555556,95,55.11111111,52,2.793871032,5.664285694,1.881383508,4.66962568,0.280777779,5.314848416,5.503097756,4.902593174,1.744490341,86.61000198,39.64999986,19.66333312,156.0266671,0.653333338,61.18466587,207.3246693,42.5680015,52.61600056,18.68617175,18.6483766,23.22190313,20.23498137,21.88409551,21.20453879,17.43849101,14.02805899,11.47763682,18.24580648,23.51142883,30.49568208,28.40295697,27.67288871,27.88288382,26.24424925,23.489937,17.2954947,6.62290317,13.35285704,16.1020056,17.07111629,16.25377796,15.7901465,14.83515609,12.42970144,6.347470975,7.12789267,11.15082684,15.42136783,14.91719499,14.1582049,14.10491894,13.08066536,11.20324133,7.126560519,0.79756912,1,1,1,1,0.978734696,0.910102722,0.699884152,44.07044721,-93.53494127,2018,MNH1
B37/MO17,WIH2_2019,N,32.6,623.9630421,0,0,264.5833333,132.0833335,69.75,69,5.084687524,1.186666648,3.682690384,5.868440751,0.695238091,4.73009737,4.315774648,4.395502279,4.547947068,162.7100008,7.119999886,58.08928529,183.8007161,1.222857135,55.05428533,207.5435701,59.53000056,136.8792876,20.51840827,23.10255337,19.84622659,19.54978709,22.13574316,19.04821964,14.90817086,12.98397937,9.337872891,18.93468753,26.85500018,22.80729416,28.92841129,27.86750015,27.53142967,23.33864799,22.30785619,12.19546616,7.173437506,12.79833317,11.75963315,17.3057567,14.67845241,15.42498763,12.56161555,11.34993986,2.687473085,7.568173943,12.44054354,10.32084191,15.24419851,13.63574066,13.78240318,10.8770868,10.55092288,4.713570865,0.808549105,1,0.995612408,1,1,0.966295589,0.875965566,0.450550638,43.320768,-89.33189475,2019,WIH2
B14A/H95,GAH1_2018,N,15.12,693.4710448,7.5,8,215,115,61,60,4.231249915,1.934999943,5.575464231,3.801027214,1.067857163,3.256190501,3.932246866,3.816857059,2.685023025,135.3999973,11.60999966,76.79571342,135.0185695,1.516428607,29.30571451,107.1921429,19.08428529,83.23571379,16.89130574,18.83037901,19.9789379,20.32622599,17.16636637,17.47509449,19.98058203,18.77657547,18.35496912,25.6268748,28.56500022,25.46428012,27.96417186,30.5753573,30.54857133,31.9994497,33.07128549,33.68336431,12.70062498,14.46999963,11.35988473,14.27301998,20.47928579,20.42444427,20.68398901,21.82542842,22.30905548,11.99291119,13.91639365,11.33534042,13.63652225,17.52732154,17.4865078,18.33967815,19.36985553,19.8838857,0.988973219,1,1,1,1,1,1,1,31.50582525,-83.55515025,2018,GAH1
PHW52/PHN82,ONH1_2017,Y,29.95,668.0491364,0,1.5,247.5,102.5,81,80.5,4.42290319,4.904999876,1.545173221,3.420435244,1.695375006,2.594700004,1.855534774,1.54565171,2.383111348,137.1099989,49.04999876,23.52600009,140.8034994,5.378000009,36.46150006,95.23350107,29.85300009,72.44250006,18.65662235,17.08545341,23.10813164,20.12586768,18.11232318,19.44819915,16.33652997,11.62209215,7.957733996,13.94322577,18.20700026,22.35689536,24.80045755,25.17183321,25.2296929,22.79396283,22.13957367,13.29532023,3.578387066,9.706999969,10.10387851,14.12185296,14.82349991,13.63261195,10.3904862,9.847475595,3.166289439,4.958212412,8.025894563,9.659097931,11.97096233,12.35740613,11.98311106,9.953455995,10.0654016,5.273375752,0.439723498,0.877642858,1,1,1,0.972410901,0.840292505,0.515578473,43.49546,-80.42596875,2017,ONH1
W10005_0107/PHB47,NCH1_2017,N,15.3,731.1212129,0,2.5,186,80.5,65,64,5.929354779,4.097142833,0.297958702,3.860588722,6.673809642,5.437090039,2.513672686,1.67758051,4.140460835,183.8099982,28.67999983,4.023333254,115.8195228,10.90952401,51.84571517,65.15761944,9.68857149,128.3542859,16.84796118,19.66078799,22.20077414,19.20396089,15.77249108,20.54839894,18.7994723,19.26606379,16.40835168,26.07000006,23.57857159,28.17011276,29.72614366,31.01404729,30.48814813,32.54721675,31.95695904,30.43138246,13.64064524,11.25142826,15.69757802,18.87536398,22.57674573,19.84793622,22.28039625,21.2748593,20.81350234,12.56442422,10.48784987,14.26665949,16.36044911,18.79940835,17.21144066,19.38557496,18.57336573,17.65269876,0.998329492,1,1,1,1,1,1,1,35.29663725,-77.5668065,2017,NCH1
B73/PHM49,ARH2_2018,N,14.385,731.1212129,0,2,202,99,67,66,4.523124937,5.877777735,3.202210455,3.225384198,0.461428574,5.0703967,1.707251537,1.546976178,1.915506911,144.739998,52.89999962,46.32285666,103.4992844,0.461428574,45.6335703,42.68714207,7.346428526,59.38071425,17.7541087,19.6455271,19.52097147,20.05684428,23.80737271,19.97823453,19.1297214,18.25489796,18.05597286,19.61875001,21.92000008,22.77345622,28.90718296,31.9800005,30.98396799,32.84130907,33.56595603,31.90391706,8.73406262,10.34777779,11.28771296,17.85430307,18.706429,19.75547635,22.48266054,23.2605133,21.25223495,8.305601359,9.423215554,10.22107903,15.52009327,17.35232514,17.37984482,19.61861005,20.2782542,18.53689778,0.857433028,1,0.994106717,0.995975764,1,1,1,1,35.674241,-90.0749725,2018,ARH2
PHW52/PHN82,TXH1_2019,N,11.135,868.4638773,0,0,195.5,59.5,70,68.5,1.71448275,0.072857141,3.656594302,9.095434564,0.409285716,1.207678571,5.355850783,1.246142852,1.574419343,49.71999974,0.50999999,52.00785631,328.2121388,0.592857139,9.661428571,146.4478573,6.531428533,47.51499965,15.42805705,20.52131135,18.76898834,18.57032559,21.42349659,18.85281525,20.14881361,21.03072751,19.84089234,18.45000007,25.76428577,24.43254944,27.27586732,31.09000002,32.37866099,32.72435205,34.04471448,34.98200776,6.826206914,10.35000004,10.67963154,14.78766739,18.65857179,21.85071427,21.02442735,21.79614282,22.6049739,7.457816468,11.1589152,10.85119479,13.46630403,16.91193677,19.11412105,18.84765314,19.77807102,20.01419559,0.749667494,1,0.945308164,1,1,1,1,0.999698925,30.546318,-96.4329965,2019,TXH1
CG44/CGR01,ARH2_2017,N,15.8,731.1212129,0,2,159,73,60,58,2.789999995,15.83285686,4.776016413,2.853949028,1.142500003,5.651818152,3.905948255,2.4430325,4.688621725,89.27999985,110.829998,61.6427269,88.95863769,3.003181826,52.42863608,105.2449988,13.33772746,145.3472735,17.14489296,19.09436907,20.93439511,19.65670258,19.84409681,19.1211903,18.81176407,19.65259997,17.546866,23.65656266,24.55142866,25.38541455,28.9612549,32.40098458,30.84565692,31.84241473,32.83627249,30.20087953,12.07343751,12.16142872,12.7110645,18.0477898,21.78734854,20.24410098,21.87781566,22.25639174,20.26112908,10.83878158,11.22094165,11.88579938,15.62584547,19.09416656,17.54487895,18.8103181,19.27693671,17.25265116,0.991674107,1,0.97315368,1,1,1,1,1,35.67418125,-90.0752695,2017,ARH2
CG108/CGR03,OHH1_2016,N,14.05,729.190435,0,47,230,131,65,64,4.328064465,1.776000023,3.915145208,2.580740659,3.890757626,4.17049496,5.079069289,3.957741935,3.614594814,134.1699984,8.880000114,44.70363614,85.9177286,9.330454675,39.94818193,160.1854537,27.69772666,110.1186362,18.3437644,22.24283047,20.73146956,20.35982518,19.15233416,18.82824642,16.72048491,17.98730955,14.71797893,19.63580645,29.63200035,26.56953589,28.59263588,29.59106055,30.69283836,29.21689182,28.27188687,26.30588322,8.120967747,16.89599972,14.9739129,16.70528562,18.30318191,19.74443426,18.9160149,15.44500838,13.40262461,8.117657052,15.32722009,13.17028057,14.81678154,15.96857054,17.23303236,16.11713161,14.21502474,12.5845871,0.859331788,1,1,1,1,1,0.999172078,0.989049277,39.860924,-83.6755995,2016,OHH1
B73/PHM49,ONH1_2017,N,17.7,731.1212129,0,2,229,110,65,64,4.42290319,4.904999876,1.545173221,3.420435244,1.695375006,2.594700004,1.855534774,1.54565171,2.383111348,137.1099989,49.04999876,23.52600009,140.8034994,5.378000009,36.46150006,95.23350107,29.85300009,72.44250006,18.65662235,17.08545341,23.10813164,20.12586768,18.11232318,19.44819915,16.33652997,11.62209215,7.957733996,13.94322577,18.20700026,22.35689536,24.80045755,25.17183321,25.2296929,22.79396283,22.13957367,13.29532023,3.578387066,9.706999969,10.10387851,14.12185296,14.82349991,13.63261195,10.3904862,9.847475595,3.166289439,4.958212412,8.025894563,9.659097931,11.97096233,12.35740613,11.98311106,9.953455995,10.0654016,5.273375752,0.439723498,0.877642858,1,1,1,0.972410901,0.840292505,0.515578473,43.49546,-80.42596875,2017,ONH1
B73/PHN82,TXH1_2015,N,13.45,738.8443243,0,2,148.5,100.5,70.5,69.5,2.435333351,0.886666695,4.529386736,2.992210444,0,5.407499953,3.236240411,4.528416659,2.205666663,73.06000052,5.320000172,54.16999972,113.7899998,0,59.48249948,89.11249819,24.54499996,66.1699999,13.38128519,15.80308406,13.73749678,19.48289484,22.46598899,19.96463979,19.54848583,19.57031498,18.03135075,19.61999995,26.26833312,25.8489028,26.4780255,30.37177098,28.79539756,31.9014052,33.48070828,34.35516661,6.122333375,12.74499997,15.39155332,13.69439061,15.83385423,15.9580683,20.41172374,21.45270844,23.93220836,7.516768444,12.28221354,13.06030889,12.7550996,15.35592881,14.67426974,18.11040569,19.30603111,20.37775841,0.822428569,1,0.992325397,0.994092815,1,1,1,0.999431249,30.54708625,-96.43393475,2015,TXH1
B14A/OH43,ARH2_2018,N,14.275,731.1212129,0.5,2,172,81.5,66.5,61,4.523124937,5.877777735,3.202210455,3.225384198,0.461428574,5.0703967,1.707251537,1.546976178,1.915506911,144.739998,52.89999962,46.32285666,103.4992844,0.461428574,45.6335703,42.68714207,7.346428526,59.38071425,17.7541087,19.6455271,19.52097147,20.05684428,23.80737271,19.97823453,19.1297214,18.25489796,18.05597286,19.61875001,21.92000008,22.77345622,28.90718296,31.9800005,30.98396799,32.84130907,33.56595603,31.90391706,8.73406262,10.34777779,11.28771296,17.85430307,18.706429,19.75547635,22.48266054,23.2605133,21.25223495,8.305601359,9.423215554,10.22107903,15.52009327,17.35232514,17.37984482,19.61861005,20.2782542,18.53689778,0.857433028,1,0.994106717,0.995975764,1,1,1,1,35.674241,-90.0749725,2018,ARH2
F42/OH43,ILH1_2015,Y,12.35,697.6543968,0,0.5,255,117.5,68,66.5,4.343437491,1.296153843,7.654899739,5.34311295,3.674999952,2.467291633,4.647268051,0.712819956,1.951907909,138.9899997,16.84999996,99.86750055,177.342501,7.349999905,22.2056247,144.0256246,5.039375113,60.06187434,19.4076893,20.21820178,17.58012378,22.59231729,17.35775694,20.12242863,18.79551315,20.37165926,16.80998738,15.69375022,16.27615364,23.81483975,28.77428317,30.28249967,31.91701372,28.65899596,28.4854072,27.09877011,2.916875011,4.602307732,13.93389792,16.26044709,20.47749984,20.41381959,17.79543547,15.77196732,14.62672175,5.339800043,5.921635642,11.53105666,14.7484369,17.37999976,18.17178164,15.31569586,14.44648847,13.36421336,0.599162964,0.636840646,1,1,1,1,1,0.99828125,40.05982425,-88.23397575,2015,ILH1
B37/OH43,OHH1_2019,Y,21.91666667,691.0039397,0,0.166666667,250,115,57.83333333,57,4.521875016,5.601428505,9.492184188,3.677677905,1.565714342,0.385974026,1.865305095,1.659047621,1.751738837,144.7000005,39.20999953,109.352857,105.4928564,2.907142963,4.24571429,67.73714224,11.40714287,52.9257135,18.88405965,17.49267101,16.84002865,20.33907461,18.24357363,21.92391064,17.3234713,16.43535432,12.68824739,23.69781238,23.04428564,25.93387695,30.64626114,27.23428535,29.13649368,27.63471609,28.40205787,24.22775882,12.37312506,13.01428563,16.54052476,19.15377674,17.29857152,16.61116873,15.68739982,14.41860554,10.15227039,11.09781511,10.85645158,13.41085782,16.95249079,14.39118839,15.00214972,13.92115805,13.81574558,10.76649669,0.952522323,1,1,1,1,1,1,0.923664697,39.85685125,-83.67122475,2019,OHH1
B37/MO17,ARH1_2016,N,16.4,789.0445484,0,2,188,112.5,70.5,67,12.62656226,6.052222146,7.859593922,4.411032368,3.769999921,0.095833332,1.834913509,2.950363528,2.931715563,404.0499923,54.46999931,101.1431819,160.496816,7.539999843,0.824999988,46.86636396,14.75181764,90.88318244,16.40757677,14.40289243,17.41332625,19.31399891,17.48165414,22.15918181,19.7781726,18.25208951,17.22596404,20.37124979,20.08666674,25.25253507,26.30445415,29.50681779,32.27019592,33.22074717,33.17606868,32.75999986,8.53968759,10.04999993,14.84655054,15.67568893,20.10318184,20.90335237,23.01320039,23.46584116,23.35664232,8.376579132,8.623890092,12.4075181,13.38568101,16.80499981,18.57005087,20.09384313,20.24603027,19.89808151,0.932198657,0.999841266,1,1,1,1,1,1,34.72952,-90.7603555,2016,ARH1
PHB47/PHN82,NYH2_2016,N,18.85,731.1212129,0.5,1.5,179,81,74,70,2.034516133,1.030000001,1.88805842,0.867300396,1.140952366,2.326450204,3.376451109,4.287746575,3.208572451,63.07000011,12.36000001,22.4085716,34.4438095,2.622857094,25.59095225,116.65619,31.75809508,97.82571426,19.21240982,23.35584625,23.40556822,22.17883586,23.94456446,21.25361649,17.18897092,16.17245816,13.35906413,14.04935483,18.68749992,27.50851283,26.23633728,28.78071431,29.31692664,28.41638555,26.44500865,23.15297547,1.686774175,4.439999988,12.92699036,12.85534504,13.89476193,15.65588736,16.863818,13.58818034,10.55762265,4.511298309,6.607155497,12.88765676,12.33330427,13.7996272,14.74166699,14.82295673,12.66050813,10.26842414,0.447315667,0.804761906,0.999400038,0.994542932,1,0.999880088,0.994843294,0.949842165,42.726117,-76.655339,2016,NYH2
TX951/LH195,INH1_2020,Y,33.3825,718.8929531,0.25,2,240.175,123.825,72.5,70.25,2.63064515,6.092222161,2.380905542,2.638028789,0.629411796,2.977235278,3.349803369,1.095052516,1.575144189,81.54999965,54.82999945,26.35000017,86.90176377,0.755294155,29.77235278,114.9176474,7.60117643,48.41470517,19.12040675,14.46862051,21.68340347,21.75389977,20.24839053,19.66959435,18.78188958,18.00828299,15.45076636,15.20677414,20.6899999,27.1104927,29.42650107,32.0752936,30.36388222,28.15834081,28.66782236,25.41333794,2.934193564,11.51555562,15.17811918,16.46944194,19.37588254,18.23752946,16.66734055,16.5683672,12.52337519,5.193705795,9.337664252,13.54219901,15.16026165,17.73146127,16.3694037,14.61167179,14.83949529,11.90095499,0.576025338,0.994801587,1,1,1,1,1,0.975702381,40.4787965,-86.9895995,2020,INH1
LH198/PHZ51,ARH2_2016,N,13.25,731.1212129,0,2,205.5,114,63.5,62,5.780937422,12.26500018,3.712120208,7.0222886,1.105000019,0.295568184,1.931287914,1.454696927,6.280835692,184.9899975,73.59000111,50.67409075,233.2059098,2.210000038,2.364545475,51.29727264,7.656817956,194.7059064,17.76457119,17.22719622,20.14058537,19.80644481,18.88262117,19.79738723,18.69440654,19.88854878,15.60714355,21.02781257,25.69833342,24.88224707,27.55747889,33.1628785,33.38017045,32.40728063,33.71248445,31.37684753,8.517187547,14.13833332,13.26693003,16.75834882,22.79151535,23.21522755,22.56353312,22.95024234,22.3752492,8.626308124,12.37618007,11.75818796,14.46644855,19.89189903,20.24263088,19.43024202,20.23735303,18.81126952,0.958649555,1,1,1,1,1,1,1,35.838614,-90.66530155,2016,ARH2
B37/OH43,MOH1_2015,N,15.15,731.1212129,0.5,4.5,217.5,97.5,75.5,73.5,3.914838722,3.002727248,2.7038834,5.646226268,2.268750012,1.183333344,4.736744086,1.740401796,3.666491943,121.3600004,33.02999973,34.41999933,178.8712478,5.868750036,10.6500001,140.2618746,11.88312507,113.6612502,18.81846694,18.88703156,16.92919735,21.70591481,15.72154266,19.94530069,18.47422179,20.12873028,17.02653892,18.28451609,18.00181831,23.77805456,28.93028285,29.85593748,31.76118019,30.42140763,28.58050013,28.43143147,5.857096827,7.500000065,15.21487777,17.6487962,21.67281234,21.45979159,20.28182538,17.09899995,17.28669369,7.068544315,7.302193139,11.97142579,15.39796361,17.76437491,18.61048589,17.380694,14.99182695,15.05317439,0.723283405,0.814935086,1,1,1,1,1,1,38.8965375,-92.20800417,2015,MOH1
PHN11_PHW65_0323/LH195,OHH1_2016,N,21.2,735.6263612,0,45,269,118,65,64,4.328064465,1.776000023,3.915145208,2.580740659,3.890757626,4.17049496,5.079069289,3.957741935,3.614594814,134.1699984,8.880000114,44.70363614,85.9177286,9.330454675,39.94818193,160.1854537,27.69772666,110.1186362,18.3437644,22.24283047,20.73146956,20.35982518,19.15233416,18.82824642,16.72048491,17.98730955,14.71797893,19.63580645,29.63200035,26.56953589,28.59263588,29.59106055,30.69283836,29.21689182,28.27188687,26.30588322,8.120967747,16.89599972,14.9739129,16.70528562,18.30318191,19.74443426,18.9160149,15.44500838,13.40262461,8.117657052,15.32722009,13.17028057,14.81678154,15.96857054,17.23303236,16.11713161,14.21502474,12.5845871,0.859331788,1,1,1,1,1,0.999172078,0.989049277,39.860924,-83.6755995,2016,OHH1
LH82/PHB47,IAH1_2015,Y,16.3,704.090323,0,7,245,120,65,64,1.566451638,2.213076954,8.402418557,1.323463692,0.084411761,2.297359398,2.93999255,2.37101191,2.732793763,48.56000078,28.7700004,122.1399999,43.52999979,0.168823523,22.82352863,100.1182349,16.67000003,83.81294001,20.43214903,18.85811498,14.63317728,22.31276759,19.14227258,22.20806523,19.83862588,18.33763158,15.0581957,16.08774191,16.64538457,21.84697853,28.7334183,30.26852911,31.30747052,29.05105531,29.39636272,24.66946357,1.839032284,4.865384661,13.12892854,16.86768962,20.05941139,18.05705196,16.3929614,15.43749916,11.17229855,5.447129731,6.098188577,10.48240964,14.99632473,17.16639266,16.72884186,14.96924927,14.77137221,11.30644361,0.593087559,0.682994502,0.988452545,1,1,0.997626801,1,0.896934674,41.9980952,-93.69336973,2015,IAH1
B37/OH43,ARH2_2017,Y,17.7,731.1212129,0,2,229,110,65,64,2.789999995,15.83285686,4.776016413,2.853949028,1.142500003,5.651818152,3.905948255,2.4430325,4.688621725,89.27999985,110.829998,61.6427269,88.95863769,3.003181826,52.42863608,105.2449988,13.33772746,145.3472735,17.14489296,19.09436907,20.93439511,19.65670258,19.84409681,19.1211903,18.81176407,19.65259997,17.546866,23.65656266,24.55142866,25.38541455,28.9612549,32.40098458,30.84565692,31.84241473,32.83627249,30.20087953,12.07343751,12.16142872,12.7110645,18.0477898,21.78734854,20.24410098,21.87781566,22.25639174,20.26112908,10.83878158,11.22094165,11.88579938,15.62584547,19.09416656,17.54487895,18.8103181,19.27693671,17.25265116,0.991674107,1,0.97315368,1,1,1,1,1,35.67418125,-90.0752695,2017,ARH2
PHP02/PHB47,MIH1_2016,Y,18.25,696.3672116,0,2,210.5,109,60,62.5,3.213870927,0.372000003,1.277668238,2.072144594,0.204761899,2.382636341,6.277866916,3.129595251,4.115734243,99.62999874,1.860000014,16.77857134,74.4033328,0.614285696,24.34142835,217.3680916,23.88571438,123.5814282,20.04481233,22.69628944,22.57460654,21.19066928,19.62511718,19.41470496,17.43536011,14.16523572,12.41239439,17.74322581,29.20999985,25.57947765,28.1508514,27.23547651,30.32783564,28.27294529,26.6388532,22.50219404,5.299677434,16.33600006,11.90361174,14.70447611,15.74579377,17.52671,16.25511672,15.58650841,10.86825081,6.615827776,14.89908974,11.62365975,13.82943527,13.70908531,16.01583991,14.48649579,13.48265,10.09129455,0.734400922,1,1,1,1,0.999987733,0.99326559,0.936590208,42.41206675,-84.2952625,2016,MIH1
PHN11_OH43_0001/PHB47,ARH2_2017,Y,16.5,731.1212129,0,2,162.5,73.5,62,58,2.789999995,15.83285686,4.776016413,2.853949028,1.142500003,5.651818152,3.905948255,2.4430325,4.688621725,89.27999985,110.829998,61.6427269,88.95863769,3.003181826,52.42863608,105.2449988,13.33772746,145.3472735,17.14489296,19.09436907,20.93439511,19.65670258,19.84409681,19.1211903,18.81176407,19.65259997,17.546866,23.65656266,24.55142866,25.38541455,28.9612549,32.40098458,30.84565692,31.84241473,32.83627249,30.20087953,12.07343751,12.16142872,12.7110645,18.0477898,21.78734854,20.24410098,21.87781566,22.25639174,20.26112908,10.83878158,11.22094165,11.88579938,15.62584547,19.09416656,17.54487895,18.8103181,19.27693671,17.25265116,0.991674107,1,0.97315368,1,1,1,1,1,35.67418125,-90.0752695,2017,ARH2
LH198/PHZ51,ARH2_2017,Y,19.05,731.1212129,0,2,182,77.5,64,62,2.789999995,15.83285686,4.776016413,2.853949028,1.142500003,5.651818152,3.905948255,2.4430325,4.688621725,89.27999985,110.829998,61.6427269,88.95863769,3.003181826,52.42863608,105.2449988,13.33772746,145.3472735,17.14489296,19.09436907,20.93439511,19.65670258,19.84409681,19.1211903,18.81176407,19.65259997,17.546866,23.65656266,24.55142866,25.38541455,28.9612549,32.40098458,30.84565692,31.84241473,32.83627249,30.20087953,12.07343751,12.16142872,12.7110645,18.0477898,21.78734854,20.24410098,21.87781566,22.25639174,20.26112908,10.83878158,11.22094165,11.88579938,15.62584547,19.09416656,17.54487895,18.8103181,19.27693671,17.25265116,0.991674107,1,0.97315368,1,1,1,1,1,35.67418125,-90.0752695,2017,ARH2
F42/MO17,OHH1_2015,Y,17.3,758.1521028,0,1,240,115.5,64,61,4.820000016,2.056666652,1.801667061,2.430255425,2.070588264,2.75488235,3.664772063,1.623969288,1.874022108,149.4200005,12.33999991,20.27235275,82.00588303,2.23529414,26.29176468,128.0200007,12.16764697,57.18411674,17.71339239,20.831882,20.85048625,20.93566426,20.28419298,19.59839119,17.66236547,17.23782846,14.83481447,16.95064511,28.03666687,26.64173705,29.01382079,31.07970569,30.59522857,27.99762273,26.69097183,23.34659959,5.9283871,15.42166694,14.66308043,16.74801267,19.23764672,18.74322206,16.69895781,13.90980629,10.26308727,6.580773377,14.04730329,13.19467995,15.08203889,17.16864649,16.69143216,14.53513226,12.92347397,10.29932856,0.672569122,1,1,1,1,1,0.994932126,0.947361455,39.855785,-83.66477375,2015,OHH1
B37/H95,GAH2_2017,N,17.5,776.1726961,21,2,213,112.5,57,56.5,5.215806507,2.59000005,0.877047008,6.976424555,36.66571527,11.68990473,2.766634194,6.717714339,5.237281131,161.6900017,18.13000035,10.98809533,219.4985743,69.630002,116.6428568,77.55666748,33.5885717,162.3557151,18.59375843,20.97986943,21.98193589,18.54567619,14.33990901,17.7663424,19.78523868,18.86354985,17.57616326,25.93516134,24.17571449,30.47339418,29.31252372,29.52904774,29.72980419,32.72601502,32.10511542,30.76784952,12.17225799,9.938571385,16.15324828,18.06353156,20.43476164,19.51114297,21.20992787,20.86352373,19.95543778,11.90954616,10.38538115,15.45655397,15.75249851,16.98190469,16.63412837,18.90169131,18.47155665,17.41241638,0.999631335,0.985714285,1,1,1,1,1,1,33.727145,-83.29821525,2017,GAH2
B73/MO17,NYH1_2018,N,18.35,731.1212129,0.5,35.5,271.5,132,67.5,67,4.394516057,1.637142931,0.546464292,3.461265884,6.062261837,4.338061718,2.067540981,1.177456758,2.359527655,136.2299978,11.46000051,7.340000123,113.5449994,14.95785693,45.27285745,83.63714323,15.50214277,71.28500016,21.14905797,19.51909583,22.50012197,20.49014312,17.37909559,18.62357236,17.54437735,14.42309006,11.11333684,16.43838702,24.34714304,24.48084385,28.4079325,28.47095262,28.85558784,26.25577716,21.21730113,17.53723965,4.181612903,13.18428578,11.78804566,16.02970596,18.15166677,17.53428468,14.37510127,9.649634667,6.532510054,6.046172102,11.82070517,11.18993529,14.50776692,15.35223703,15.26441478,12.8637381,9.179788733,7.084201569,0.564688941,0.946581643,0.98880424,0.99833546,1,0.984010821,0.898581807,0.740508559,42.72940418,-76.65161667,2018,NYH1
PHP02/PHB47,WIH2_2016,Y,19.4,805.7779564,0,2,256.5,136,59.5,59,2.185483832,6.563333432,3.447094458,4.124693788,6.707159024,6.158880111,5.945293137,1.654273513,4.758742445,67.74999878,39.38000059,44.45545418,149.2718189,18.91272705,63.86318129,228.7613642,17.11772738,143.1609097,20.07161814,17.64681498,20.48120554,20.03716075,21.00097141,18.73971629,16.31911952,14.94670844,10.3303759,18.34677419,27.65666644,25.59626749,27.3504729,29.44640147,29.15349181,26.70938079,24.21329019,20.37268081,4.840000014,15.2516667,12.43660419,15.21846351,16.18390156,17.81047537,15.29826924,12.0891497,9.537770322,6.76617685,13.67923016,11.77429452,13.6256578,15.0809804,15.56950508,13.35737665,11.10536848,8.849967039,0.729688939,1,1,1,1,0.998061418,0.979766622,0.886131912,43.32649075,-89.33882925,2016,WIH2
CG44/CGR01,IAH1_2015,Y,14.85,711.1698417,0,2,239,127.5,65,64,1.566451638,2.213076954,8.402418557,1.323463692,0.084411761,2.297359398,2.93999255,2.37101191,2.732793763,48.56000078,28.7700004,122.1399999,43.52999979,0.168823523,22.82352863,100.1182349,16.67000003,83.81294001,20.43214903,18.85811498,14.63317728,22.31276759,19.14227258,22.20806523,19.83862588,18.33763158,15.0581957,16.08774191,16.64538457,21.84697853,28.7334183,30.26852911,31.30747052,29.05105531,29.39636272,24.66946357,1.839032284,4.865384661,13.12892854,16.86768962,20.05941139,18.05705196,16.3929614,15.43749916,11.17229855,5.447129731,6.098188577,10.48240964,14.99632473,17.16639266,16.72884186,14.96924927,14.77137221,11.30644361,0.593087559,0.682994502,0.988452545,1,1,0.997626801,1,0.896934674,41.9980952,-93.69336973,2015,IAH1
TX777/LH195,WIH3_2020,N,20.525,703.124934,0,0.25,280.5,141.75,85,83,2.733870995,5.446666638,6.112394342,4.74655674,3.655208389,1.04360979,2.527373572,3.69928986,2.61452892,84.75000083,32.67999983,82.9068754,167.6149986,8.003125131,12.58312517,113.8450009,40.74312496,78.93437568,20.41919384,18.2775027,21.33639865,20.40337995,19.49413761,18.99324058,17.80850823,14.15156863,10.1168501,15.48354838,26.52499994,25.39100386,27.30541678,28.00124967,27.24401428,25.77617537,21.78088819,14.67245705,3.106129019,15.18500026,12.31273591,15.12317531,16.14624966,16.31340126,13.17330579,9.92591724,4.431311843,5.287102842,13.2823578,11.70416503,13.61992535,14.28505882,13.97808988,12.29059579,9.657643491,5.630137727,0.571854837,1,1,1,1,0.965668942,0.879609054,0.560799012,44.115703,-89.54491325,2020,WIH3
PHW52/PHN82,INH1_2016,N,19.475,725.3288793,0,9.75,251.5,119.75,63.25,62.5,3.034516148,1.382857186,3.106568823,3.966270256,3.500454469,6.752636371,3.451172643,3.198528118,3.024422797,94.07000059,9.680000305,31.26000059,138.8759105,3.500454469,67.52636371,113.8927274,21.6654544,92.62590972,17.63328649,23.97511796,20.66441577,20.1236558,19.9706746,19.39149484,18.14527656,15.98533716,14.62820237,18.74516109,26.31142807,27.84898846,28.12893417,28.20272714,29.14504538,29.16779001,27.95564941,27.07739093,7.950322636,11.69428553,16.31817922,16.10606538,16.8522731,18.34872752,18.58889605,17.50284626,15.03841012,7.677100472,11.91689015,14.24288378,14.4184555,14.68521604,15.7994256,15.9329094,14.92238151,13.51734692,0.852649763,1,1,1,1,1,1,0.996102814,40.4787595,-86.98982,2016,INH1
B73/MO17,GAH1_2018,N,14.03,595.7093263,0,3,217.5,110,61.5,60,4.231249915,1.934999943,5.575464231,3.801027214,1.067857163,3.256190501,3.932246866,3.816857059,2.685023025,135.3999973,11.60999966,76.79571342,135.0185695,1.516428607,29.30571451,107.1921429,19.08428529,83.23571379,16.89130574,18.83037901,19.9789379,20.32622599,17.16636637,17.47509449,19.98058203,18.77657547,18.35496912,25.6268748,28.56500022,25.46428012,27.96417186,30.5753573,30.54857133,31.9994497,33.07128549,33.68336431,12.70062498,14.46999963,11.35988473,14.27301998,20.47928579,20.42444427,20.68398901,21.82542842,22.30905548,11.99291119,13.91639365,11.33534042,13.63652225,17.52732154,17.4865078,18.33967815,19.36985553,19.8838857,0.988973219,1,1,1,1,1,1,1,31.50582525,-83.55515025,2018,GAH1
PHW52/PHN82,MNH1_2018,N,22.36285714,716.4105245,0,2,241.4285714,103.5714286,63.71428571,62,2.793871032,5.664285694,1.881383508,4.66962568,0.280777779,5.314848416,5.503097756,4.902593174,1.744490341,86.61000198,39.64999986,19.66333312,156.0266671,0.653333338,61.18466587,207.3246693,42.5680015,52.61600056,18.68617175,18.6483766,23.22190313,20.23498137,21.88409551,21.20453879,17.43849101,14.02805899,11.47763682,18.24580648,23.51142883,30.49568208,28.40295697,27.67288871,27.88288382,26.24424925,23.489937,17.2954947,6.62290317,13.35285704,16.1020056,17.07111629,16.25377796,15.7901465,14.83515609,12.42970144,6.347470975,7.12789267,11.15082684,15.42136783,14.91719499,14.1582049,14.10491894,13.08066536,11.20324133,7.126560519,0.79756912,1,1,1,1,0.978734696,0.910102722,0.699884152,44.07044721,-93.53494127,2018,MNH1
PHG80/PHZ51,MNH1_2015,Y,17.5,733.0519907,3,2,275,148,77,76.5,2.676451665,6.10285713,1.587216104,4.707726326,2.093823531,4.685775359,5.935015669,2.223261507,2.198788145,82.97000162,42.71999991,19.59000013,155.007059,3.965294123,52.23235247,227.0947085,20.90117698,67.40117758,19.81693462,15.87546921,21.62818458,20.65236193,17.21434565,21.12123323,17.7408483,14.5374504,12.06297535,17.43387093,22.63000025,27.28921799,28.46423671,28.36529418,28.07899716,26.14089523,24.73259507,17.90095705,4.567419307,13.73428563,14.30007362,16.89716897,18.65411764,16.19745995,14.75643511,13.57280729,6.634647692,6.2838161,10.87437977,13.26905608,14.87023808,15.64114514,14.35392043,12.99006372,12.46836687,7.55733068,0.722983866,1,1,1,1,0.977703003,0.878626049,0.721229646,44.07038575,-93.53519625,2015,MNH1
W10004_0216/PHZ51,MOH1_2017,N,16.35,731.1212129,0,6.5,268,135,63.5,62,8.937741737,9.40166688,2.512230721,3.318030003,5.035714369,1.794490762,1.996986524,1.220079397,1.67255761,277.0699939,56.41000128,33.26619119,103.9014299,11.93095259,15.87761924,65.30142803,7.334762096,51.25476209,18.72482054,18.08832916,22.62422694,21.00800173,18.77514496,19.93438148,19.70533138,19.36646121,17.34329115,21.92032254,25.32999992,25.47495036,29.30087203,30.46650729,32.25412016,29.92026774,28.22145964,28.04827898,10.06000005,15.27666648,12.99827088,17.39768618,19.78222205,21.21359122,18.70404881,16.33857143,14.9717184,9.612847321,12.76903024,11.94928206,15.49761919,17.12130987,18.67277384,16.20463701,14.48208578,13.92850008,0.915472353,1,1,1,1,1,1,0.999239796,38.89264,-92.2057525,2017,MOH1
LH74/PHN82,ARH1_2018,N,21.6,523.1764383,0,2,173.5,102.5,58.5,56.5,6.807499945,4.709999936,2.627776375,4.735912158,3.619166647,6.960178526,4.330437569,0.796285741,3.374677434,217.8399982,32.96999955,35.48928591,145.2942843,5.831428528,62.51428531,109.7978577,4.003571561,104.6150005,17.99706709,21.70226043,20.05949982,19.52680112,21.59397623,17.99264813,18.0574776,19.33215022,18.30424355,21.07062507,24.31857109,24.02168934,29.45279857,31.73095224,30.70692423,32.5717108,33.29521443,31.83741963,10.26718749,12.03571429,12.70205088,18.67412083,19.99154783,20.64677572,22.90335213,23.23585706,21.28834102,9.223277534,11.01036775,11.27832322,16.11267445,17.86206546,17.6775748,19.72770382,20.19469271,18.54368809,0.945725441,1,1,1,1,1,1,1,34.729679,-90.7603455,2018,ARH1
PHN11_OH43_0001/PHB47,NEH1_2015,N,14.4,789.0445484,0,2,240,110,65,52,2.959062506,0.753999996,4.745632833,2.187040691,0.179999996,3.601448917,1.548000793,0.057812502,1.589214364,94.69000018,3.769999981,46.84999943,63.50812512,0.239999995,39.12187557,55.49499987,0.586250016,47.85812447,19.07194562,25.84699936,20.00593662,19.96245842,20.96463704,17.86296284,18.31175333,17.30405645,12.3794141,23.74906254,30.51399994,29.13009987,30.74148671,30.73750019,28.43858622,29.13031746,26.88374984,20.12342532,13.19218739,15.46999989,18.04036499,19.18092822,19.11281252,17.33248289,15.92131484,11.1533021,6.525200269,11.64481375,15.25955733,15.68336601,16.96891106,16.93845514,15.07345461,14.95183393,12.01070089,8.15887847,0.924598212,1,1,1,1,0.96969665,0.982957588,0.758540943,41.290979,-96.41664325,2015,NEH1
CG44/CGR01,SCH1_2018,N,15.07,731.1212129,0,2,195,100,54,58.5,5.509375073,3.372500002,5.775327928,7.728127661,4.71095229,3.130603142,3.123485158,2.01328566,5.79306447,176.3000023,26.98000002,97.60999952,245.6735731,5.415714213,31.8442854,83.93428482,10.53785687,179.5849986,18.64772365,19.28692877,21.1730546,18.16318131,18.84742333,19.2548603,19.994513,19.31783344,16.30139442,22.53906247,22.53374982,23.09020479,27.61870045,28.0654766,28.90856809,32.58479132,33.48333298,31.1168664,9.301562469,9.311250091,8.762400081,17.50665347,16.7615475,18.38295894,21.20797915,21.67128537,20.80767273,9.591191253,9.400074843,9.574505228,14.76793775,14.51962258,15.72381397,18.86169653,19.45105318,17.96288574,0.951841518,1,0.982626499,0.991514695,1,1,1,1,34.6223015,-82.7364835,2018,SCH1
B73/PHN82,MOH1_1_2018,N,16.83333333,731.1212129,0,2,223.6666667,113.6666667,54.66666667,52.66666667,4.419032262,0.120000001,6.56660792,4.995913726,0,0.865952386,4.867908623,7.318145406,3.629241153,136.9900001,0.840000004,71.60142667,150.6285707,0,7.793571472,145.6157139,39.85928573,112.0157138,18.39395777,18.46565301,20.1607481,20.70593221,19.87326009,21.97749135,18.06982858,17.46468943,16.31914076,19.5254839,22.76714298,27.16554273,29.60936822,31.6271427,32.32420578,29.51628185,29.85375934,27.04843165,7.99741943,14.14714282,16.43732974,18.81172612,21.79964249,20.71007941,19.44316189,19.21155699,15.91814144,7.992986492,11.1555316,14.00535673,16.26359619,18.7133926,18.51714259,16.54699664,16.60044059,13.86670431,0.872361758,1,1,1,1,1,1,0.995607144,38.89791675,-92.20952075,2018,MOH1
WF9/H95,NYH2_2015,N,17.6,731.1212129,2,11,248,120,83.5,83,3.814193487,2.822857129,1.806874641,1.427310218,14.28882354,6.323155046,2.553769654,1.263651931,1.70374005,118.2399981,39.5199998,23.5252947,50.99705838,17.86235295,65.18176435,90.43176518,10.71352917,51.74117684,19.21827184,21.58410556,20.44972798,21.8367517,17.34067749,18.34945618,18.49425604,17.55625849,13.84215422,11.26903224,15.86071418,24.70888252,27.12764594,29.5805878,28.55383422,27.75922879,25.11594081,20.73318661,0.676451599,3.065714287,12.68317757,14.19692254,19.48862723,17.66257776,16.12899413,12.03346763,8.797239788,3.458861152,5.522653893,11.65565145,13.2498794,16.56577659,15.18766176,14.16580901,11.53845799,8.731216192,0.261509218,0.568112238,0.971160735,0.994106254,1,0.999864887,0.980226591,0.898542131,42.7324825,-76.65277775,2015,NYH2
F42/MO17,NEH2_2015,N,15,755.5777323,0,0.5,229,110,94,94,1.358750008,3.755999994,3.031264216,1.286090902,0.286666671,1.657187527,3.751759362,0.157499999,0.616713691,43.48000026,37.55999994,66.29000026,43.49999976,0.860000014,16.57187527,117.6431233,0.944999993,18.99062441,19.53783247,19.98656282,18.8528682,23.65152674,23.21232343,22.7312118,19.62767813,21.61948185,18.20728239,15.03874992,23.15200024,18.66927583,30.14561768,32.37510385,32.60862507,30.36489819,32.31320816,28.31448706,-2.426562488,5.230999994,5.264051067,13.5723423,16.5714581,16.13087479,15.9646131,15.56819047,11.19634675,4.192485347,8.478296732,6.894904354,14.37610508,16.560328,16.47008009,15.3434088,16.05261291,12.83173005,0.519497764,0.97653572,0.809891265,1,1,1,1,0.922021698,41.0514495,-100.7471915,2015,NEH2
LH82/PHB47,NYH2_2017,N,16.6,736.9135464,0.5,6.5,232.5,102,72,71.5,4.985806354,2.593333337,3.453715005,5.89688957,0.948070192,3.208418109,2.379655727,2.694333021,3.397972982,154.559997,23.34000003,55.2357889,222.9889478,1.763157895,41.81263091,117.7794744,23.637895,104.1910535,18.91896409,18.22902181,21.62310913,19.28169434,21.2024166,18.91678159,16.97406986,13.88043676,9.439494818,16.54903238,19.80111122,22.34881997,25.65461899,27.16105275,25.3148988,23.28803047,24.25146582,18.24460841,5.239677404,10.2422222,10.55939387,15.21770316,15.87359667,14.84504335,11.5614249,11.15398494,7.352427253,6.267898103,8.570747831,9.793885142,12.80097944,13.68904673,12.46138399,10.55155578,10.87663924,7.688896934,0.638917053,1,1,1,1,0.981507475,0.966916282,0.722284214,42.73248125,-76.65275025,2017,NYH2
PHW52/PHN82,TXH1-Late_2018,N,11.35,745.2802504,0,2,237.5,87.5,61,62,3.579375003,7.22999986,0.880950212,3.393996506,5.74642872,3.619146949,3.455600496,0.428285708,2.278709721,114.5400001,43.37999916,11.7107143,109.309285,11.49285744,35.41714406,87.15857094,2.141428539,70.64000136,15.18905504,16.98149872,20.4111462,19.99876216,15.81608334,20.1152116,19.58230121,16.39417859,18.61523184,25.42156261,25.48166672,24.9240565,29.86096768,30.55928573,31.11103384,33.47173554,33.67857067,35.62923946,13.73406251,14.7233332,12.14174484,16.97683375,21.17380969,19.92907914,21.60030195,24.8844286,24.53525352,12.24876106,12.9546326,11.47321097,15.6369769,17.86869493,17.49319399,19.34856645,20.63058471,20.90474588,0.995234379,0.961607144,1,1,1,0.999944236,0.999152383,0.999033412,30.546318,-96.4329965,2018,TXH1-Late
TX779/LH195,GAH2_2018,Y,17.55,764.5880289,0,2,207.5,110,60,59.5,4.849677459,0.472857135,6.389842835,2.50728713,2.625000003,3.795198411,2.499668454,2.828785729,3.724124467,150.3400012,3.309999943,84.90856965,76.95785742,5.387857173,33.84785713,66.14142865,15.06428581,115.4478585,20.49558812,21.88511535,20.33298503,19.15998772,23.51626716,19.70790798,20.02489003,19.42019064,16.00793598,23.5748387,25.80428559,25.09824669,29.4338755,32.57678595,32.30446448,33.95531338,34.12885699,31.99587548,8.787742034,10.57714278,11.20780819,18.18961495,18.46904782,20.57888879,21.25284753,21.08492862,21.01629033,9.717543295,11.3392147,11.23425566,15.89113211,17.53376954,18.44167663,19.31882395,19.47290933,18.49284767,0.993778801,1,1,1,1,1,1,1,33.71560925,-83.30894675,2018,GAH2
PHN11_OH43_0001/PHB47,ONH2_2016,N,17.9,707.9518787,2,3,230.5,94,72,65,1.435483875,1.740833327,1.463802716,3.022687524,0.150999999,1.134659085,3.046446673,1.693503778,2.765116665,44.50000012,20.88999993,18.84600039,117.1590009,0.150999999,12.25349994,101.0444998,13.16149993,84.26899996,19.72563927,22.19747464,21.68954048,21.77365896,18.98664827,19.92678304,16.69906166,15.68152671,12.9072029,14.10741935,17.58083336,26.00758685,26.04894451,27.78099985,28.79287246,28.2480382,25.9224786,23.75348014,4.257419363,7.13166666,15.03828811,14.1477789,17.72699971,17.33924119,18.24672102,15.95494667,14.17526013,5.131346137,6.986841243,12.85116395,12.65171997,14.84296497,15.26027205,15.31782021,13.26534606,11.67621189,0.511244241,0.799851209,1,1,1,1,1,0.975829282,42.4530035,-81.88279875,2016,ONH2
B14A/H95,TXH3_2019,Y,11.49,805.5720068,0,0,195.5,74,71,71,1.71448275,0.072857141,3.656594302,9.095434564,0.409285716,1.207678571,5.355850783,1.246142852,1.574419343,49.71999974,0.50999999,52.00785631,328.2121388,0.592857139,9.661428571,146.4478573,6.531428533,47.51499965,15.42805705,20.52131135,18.76898834,18.57032559,21.42349659,18.85281525,20.14881361,21.03072751,19.84089234,18.45000007,25.76428577,24.43254944,27.27586732,31.09000002,32.37866099,32.72435205,34.04471448,34.98200776,6.826206914,10.35000004,10.67963154,14.78766739,18.65857179,21.85071427,21.02442735,21.79614282,22.6049739,7.457816468,11.1589152,10.85119479,13.46630403,16.91193677,19.11412105,18.84765314,19.77807102,20.01419559,0.749667494,1,0.945308164,1,1,1,1,0.999698925,30.546318,-96.4329965,2019,TXH3
B73/MO17,MNH1_2020,N,21.55,737.557139,3.75,2,256,147.25,68.25,65.5,0.943005099,6.546073051,4.140359128,4.707487639,0.452236841,2.543512757,5.928901117,4.270615044,2.501087783,29.23315806,64.90105435,50.61684199,155.384737,0.714736844,28.61736839,219.2994748,34.34473765,76.93105461,20.83516212,15.73399946,19.74828467,20.97522671,19.78574355,20.20086134,18.41063051,15.8353279,12.84776632,15.708455,18.53155205,25.82840423,28.49526052,29.92499944,28.21992409,26.52185226,25.93987928,19.74067922,2.261239378,9.186207707,13.99244036,16.68286788,19.34447405,16.90528318,15.09377646,14.30914312,8.593217323,5.370680578,7.953384306,12.46596379,14.77865871,16.66236577,14.75116185,13.25288188,13.01752467,8.666130292,0.622613994,0.838417993,1,1,1,0.988450437,0.93066422,0.780758993,44.06907839,-93.53263028,2020,MNH1
PHW52/PHN82,NCH1_2020,N,18.725,688.3223038,1.5,0,196.875,79.0625,65,64,3.811250031,6.583749771,1.870150701,7.593384547,0.8842857,2.636686467,3.330713381,6.121142871,7.323433169,121.960001,52.66999817,29.28357046,255.9407139,2.652857099,23.48571392,94.03142862,30.32857149,227.0264283,17.79310012,18.2030313,21.90311614,16.62410426,22.73441878,20.97653859,20.54309533,18.15988809,15.65141399,21.6678125,23.21999979,23.34870433,27.04964214,28.2173808,30.95634976,33.07043217,33.2972859,31.24656685,8.082812505,11.53125006,9.51933213,18.09668861,18.19142909,20.58560522,22.1124513,22.85800005,21.91055295,8.88590596,10.34544598,9.896418393,14.69404398,15.249625,17.76881847,19.50312724,19.99035698,18.5620876,0.935200903,1,0.995619773,1,1,1,1,1,35.30009892,-77.57131746,2020,NCH1
PHB47/PHZ51,NYH2_2017,Y,15.65,735.6263612,2.5,5.5,275,132.5,68,69.5,4.985806354,2.593333337,3.453715005,5.89688957,0.948070192,3.208418109,2.379655727,2.694333021,3.397972982,154.559997,23.34000003,55.2357889,222.9889478,1.763157895,41.81263091,117.7794744,23.637895,104.1910535,18.91896409,18.22902181,21.62310913,19.28169434,21.2024166,18.91678159,16.97406986,13.88043676,9.439494818,16.54903238,19.80111122,22.34881997,25.65461899,27.16105275,25.3148988,23.28803047,24.25146582,18.24460841,5.239677404,10.2422222,10.55939387,15.21770316,15.87359667,14.84504335,11.5614249,11.15398494,7.352427253,6.267898103,8.570747831,9.793885142,12.80097944,13.68904673,12.46138399,10.55155578,10.87663924,7.688896934,0.638917053,1,1,1,1,0.981507475,0.966916282,0.722284214,42.73248125,-76.65275025,2017,NYH2
LH212HT/LH195,NYH1_2017,N,17.7,731.1212129,0,2,229,110,65,64,4.758709581,4.139999986,2.953024942,5.715506232,4.320872878,2.701732063,2.616328443,1.022630585,3.614268439,147.519997,37.25999987,45.12618999,219.9223815,11.26857107,35.6957141,128.4247627,13.30476207,110.8900009,18.97444351,17.81005277,22.0763727,19.38397475,18.56141379,19.22534974,16.71382568,13.43506643,9.037548332,17.06967752,20.23333359,22.7745171,25.66488699,26.70396817,25.32691524,23.26007272,23.96840526,17.61119819,5.964193534,10.19,10.93717632,15.20362294,16.36293638,14.60656728,11.31793404,11.56685323,6.669544781,6.641127344,8.727253675,10.15270493,12.79474615,13.71935226,12.37567782,10.45035179,10.9124923,7.239151369,0.685760371,1,1,1,1,0.982493678,0.953634339,0.701363064,42.72880835,-76.6515625,2017,NYH1
F42/H95,WIH2_2016,N,20.75,834.7396242,0,7.5,272,141.5,64,63,2.185483832,6.563333432,3.447094458,4.124693788,6.707159024,6.158880111,5.945293137,1.654273513,4.758742445,67.74999878,39.38000059,44.45545418,149.2718189,18.91272705,63.86318129,228.7613642,17.11772738,143.1609097,20.07161814,17.64681498,20.48120554,20.03716075,21.00097141,18.73971629,16.31911952,14.94670844,10.3303759,18.34677419,27.65666644,25.59626749,27.3504729,29.44640147,29.15349181,26.70938079,24.21329019,20.37268081,4.840000014,15.2516667,12.43660419,15.21846351,16.18390156,17.81047537,15.29826924,12.0891497,9.537770322,6.76617685,13.67923016,11.77429452,13.6256578,15.0809804,15.56950508,13.35737665,11.10536848,8.849967039,0.729688939,1,1,1,1,0.998061418,0.979766622,0.886131912,43.32649075,-89.33882925,2016,WIH2
B73/PHM49,MNH1_2018,N,21.35285714,703.5386721,0,2,249,119.2857143,64.14285714,61.85714286,2.793871032,5.664285694,1.881383508,4.66962568,0.280777779,5.314848416,5.503097756,4.902593174,1.744490341,86.61000198,39.64999986,19.66333312,156.0266671,0.653333338,61.18466587,207.3246693,42.5680015,52.61600056,18.68617175,18.6483766,23.22190313,20.23498137,21.88409551,21.20453879,17.43849101,14.02805899,11.47763682,18.24580648,23.51142883,30.49568208,28.40295697,27.67288871,27.88288382,26.24424925,23.489937,17.2954947,6.62290317,13.35285704,16.1020056,17.07111629,16.25377796,15.7901465,14.83515609,12.42970144,6.347470975,7.12789267,11.15082684,15.42136783,14.91719499,14.1582049,14.10491894,13.08066536,11.20324133,7.126560519,0.79756912,1,1,1,1,0.978734696,0.910102722,0.699884152,44.07044721,-93.53494127,2018,MNH1
TX777/LH195,SCH1_2020,N,14.31,731.1212129,0,1.5,98.5,37,59.5,58.5,6.726129055,12.61950016,14.6709951,2.000047064,2.505749965,4.425319405,2.268462711,6.18714998,5.023091868,208.5100007,84.13000107,163.6860008,61.50999924,5.011499929,39.68149965,62.57699943,33.64599986,155.4654979,20.36817608,19.66978326,14.75526058,19.85961082,19.96014466,19.24465486,19.87809105,16.40752662,15.64625104,22.32567731,25.33999968,25.31846332,29.19710574,32.4110003,31.66961065,33.32032281,31.92909988,30.24042268,7.936741977,12.70899997,16.31955663,18.65521183,21.09725013,21.1736526,21.46883008,21.19136654,20.48826235,8.963701593,11.76593586,13.23428606,15.98846211,18.75412521,18.42141037,19.32426,18.56023321,17.40294316,0.984170504,1,0.973950938,1,1,1,1,1,34.62225,-82.736661,2020,SCH1
PHB47/PHZ51,TXH1_2020,Y,17.7,731.1212129,0,2,189.23,52.07,65,64,2.284333333,0,4.613530444,2.949806388,1.362941181,6.741056464,2.844869093,3.829088224,2.301094231,68.53,0,55.97058804,110.7988238,1.362941181,71.52235312,82.32059028,18.97352936,69.29117607,13.91343843,13.3863348,15.08816438,19.79337859,19.48130546,19.24170726,19.77113757,20.7945973,17.91495332,20.02266652,27.17999992,26.60815942,26.52479293,29.39617636,29.12989124,32.2266946,33.03076485,34.59511331,6.794333295,17.20400028,15.2455437,13.65359797,17.29686298,16.61337131,20.73348334,20.06167624,24.24037069,7.901247141,14.27292515,13.38037585,12.76738989,15.58009007,15.11126374,18.39892159,18.53701373,20.50202011,0.821357143,1,0.99243504,0.993791594,1,1,1,0.999042533,30.53781575,-96.4283715,2020,TXH1
B14A/OH43,NEH3_2015,N,16.35,743.9930652,0,0.5,229,110,63.5,61,3.231250057,0.918000031,0.565093977,1.286692195,3.19749999,1.391136354,0.258061221,1.474667183,0.155891338,103.4000018,4.590000153,6.150000095,39.04749978,4.720000029,15.30249989,11.17999983,14.52874985,4.648125023,21.79127574,25.69442635,22.86725485,21.82271665,15.26317632,20.59079,20.06412842,16.27968968,13.53861776,24.28750017,32.64599991,30.58771447,32.67731329,28.91593772,29.87238656,30.80707127,25.39031645,21.32018275,9.278749934,13.0079998,13.8828633,15.7826582,17.05531204,14.62710229,13.18313307,8.87540479,3.334017086,10.46257825,15.28330691,14.45465852,16.22005678,15.0938879,14.496454,14.53020136,10.90039565,7.851747396,0.909587052,1,1,1,1,0.965712824,0.862507779,0.80953931,41.15824525,-101.9872958,2015,NEH3
B14A/OH43,NYH3_2018,Y,21.37,684.4607481,0,13,199.5,99.5,70,67.5,4.152903213,0.855714253,1.333281551,1.973054112,19.58384622,4.14286014,1.827699262,3.76173812,1.90156246,128.7399996,5.989999771,17.49230713,69.9676929,40.09153858,44.76538462,69.41461665,34.65000019,57.30153882,20.64383799,23.73438372,20.91517994,21.34827616,15.57480097,18.28181198,18.59806785,13.9987834,13.21485935,12.82806446,24.72714315,24.74142799,27.59651287,28.68307664,28.50629367,27.06434367,24.34345721,20.06623908,1.452258048,10.48999977,13.10088293,14.82547593,19.13846159,17.45270631,15.13507682,13.07327349,8.10410419,4.113027627,10.74522894,11.82730489,13.73068126,15.93834835,15.05075648,13.50240047,11.64767513,8.352187515,0.351670502,1,0.973040659,0.995029228,1,0.992439429,0.946636381,0.843044516,42.7261605,-76.6556765,2018,NYH3
PHG39/PHN82,ILH1_2016,N,16.5,734.9827686,0.5,4,262,139.5,75.5,73.5,2.976905237,4.388409027,2.266536067,5.61207631,2.384848472,3.596551307,3.312350719,4.357499975,4.793790319,93.71999985,46.35499933,33.46068128,180.4177266,4.628863606,41.73386359,104.1413657,28.32431801,148.2020453,18.82488241,16.77241452,21.32061235,20.18653607,20.74234538,18.07981042,18.8666989,17.85818253,16.07680721,18.05081144,19.20204525,23.0422997,29.42292662,27.90308728,26.97317812,29.60218573,29.15938829,28.17592877,4.960040295,8.531272602,10.4507586,17.10049505,15.99717794,16.84881478,19.41054858,18.84383108,17.09740687,6.781235125,7.969267807,10.17119166,15.41614171,14.29579798,14.15384892,16.51995977,16.04951253,14.84458937,0.666766271,0.897956159,0.946860721,1,1,1,1,0.999883117,40.0607245,-88.2338815,2016,ILH1
B37/OH43,TXH1-Late_2018,N,11.1,724.6852867,0,2,235,89,61,59.5,3.579375003,7.22999986,0.880950212,3.393996506,5.74642872,3.619146949,3.455600496,0.428285708,2.278709721,114.5400001,43.37999916,11.7107143,109.309285,11.49285744,35.41714406,87.15857094,2.141428539,70.64000136,15.18905504,16.98149872,20.4111462,19.99876216,15.81608334,20.1152116,19.58230121,16.39417859,18.61523184,25.42156261,25.48166672,24.9240565,29.86096768,30.55928573,31.11103384,33.47173554,33.67857067,35.62923946,13.73406251,14.7233332,12.14174484,16.97683375,21.17380969,19.92907914,21.60030195,24.8844286,24.53525352,12.24876106,12.9546326,11.47321097,15.6369769,17.86869493,17.49319399,19.34856645,20.63058471,20.90474588,0.995234379,0.961607144,1,1,1,0.999944236,0.999152383,0.999033412,30.546318,-96.4329965,2018,TXH1-Late
LH74/PHN82,ARH1_2016,N,16.9,787.1137705,0,1.5,173.5,102.5,70,68,12.62656226,6.052222146,7.859593922,4.411032368,3.769999921,0.095833332,1.834913509,2.950363528,2.931715563,404.0499923,54.46999931,101.1431819,160.496816,7.539999843,0.824999988,46.86636396,14.75181764,90.88318244,16.40757677,14.40289243,17.41332625,19.31399891,17.48165414,22.15918181,19.7781726,18.25208951,17.22596404,20.37124979,20.08666674,25.25253507,26.30445415,29.50681779,32.27019592,33.22074717,33.17606868,32.75999986,8.53968759,10.04999993,14.84655054,15.67568893,20.10318184,20.90335237,23.01320039,23.46584116,23.35664232,8.376579132,8.623890092,12.4075181,13.38568101,16.80499981,18.57005087,20.09384313,20.24603027,19.89808151,0.932198657,0.999841266,1,1,1,1,1,1,34.72952,-90.7603555,2016,ARH1
B37/OH43,IAH4_2015,Y,19.9,680.9209887,0,7,238,130,65,64,1.42451612,4.854615514,2.513668144,6.351127419,5.46999979,2.154687441,1.85099418,0.335758934,4.064770202,44.15999973,63.11000168,35.58999979,218.2399999,10.93999958,20.30812445,58.48687407,2.377500039,125.1143763,19.83997888,19.28772805,16.02270398,20.69822917,17.27718186,21.35831173,20.17303565,19.59360772,15.6142427,15.83032262,16.78769229,22.26164163,27.88725423,29.37999988,31.52784708,28.69895342,30.18404469,25.46833276,2.473548389,5.024615425,13.48280789,16.59868734,20.37374985,19.78628468,17.37298211,16.89515858,12.68514048,5.318693913,6.228847238,10.78291245,14.47529064,16.87687486,17.66054739,15.18141656,15.71210426,12.05907357,0.585391697,0.659230777,0.98994413,1,1,1,1,0.952600636,41.19970961,-91.49362406,2015,IAH4
CG44/CGR01,IAH3_2019,N,14.25,724.0416941,0,0,224.5,103.5,65,64,2.879677419,8.325833271,8.514982687,3.930253796,0.537380945,2.3054841,2.306432914,9.350841805,5.38576807,89.26999998,99.90999925,122.1842849,140.4857139,1.612142835,22.50785688,97.56999955,77.30999979,164.0414292,18.1142604,18.14433392,18.34133211,20.20102762,20.30083813,21.10542726,19.14151731,15.03963484,12.83068274,16.60032246,18.1858333,22.24543073,27.09611601,28.60416662,30.1634999,27.59661349,25.62734982,23.13272506,3.497096781,6.015833348,10.94521806,15.70806976,18.18130992,18.44873807,15.55405048,14.14793364,12.04513443,5.803122395,7.048807354,9.977529243,13.7421048,15.43701566,16.36698878,13.8976006,12.43400485,10.94701098,0.634539169,0.718095232,0.926337681,1,1,1,0.9932483,0.897879883,41.97593131,-92.24310603,2019,IAH3
B73/MO17,GAH1_2015,N,13.75,773.5983256,0,5.5,190,85,63,58,4.231249915,0,5.95843649,3.852603143,2.594000032,2.429925956,4.217759372,2.225466652,2.667397826,135.3999973,0,82.56599903,137.5619979,4.851333332,21.8693336,117.5779999,11.12733326,82.68933261,16.59936112,21.58269278,19.11661296,20.61616366,14.5260024,17.86473659,19.792993,19.1551459,18.46432438,25.43281227,26.81500022,26.00854227,27.82657943,29.9603331,30.57562955,31.8228303,33.58693334,33.75221527,12.50374998,10.5999999,12.24448314,13.90452364,20.76811106,20.25348139,20.64254904,22.17719986,22.29090342,11.85447967,11.72664631,11.94062668,13.41492991,17.36422208,17.41455547,18.23714923,19.83066815,19.89653894,0.988973219,1,1,1,1,1,1,1,31.505771,-83.555095,2015,GAH1
B73/MO17,NEH1_2015,N,14.5,791.6189189,0,2,255,130,65,58.5,2.959062506,0.753999996,4.745632833,2.187040691,0.179999996,3.601448917,1.548000793,0.057812502,1.589214364,94.69000018,3.769999981,46.84999943,63.50812512,0.239999995,39.12187557,55.49499987,0.586250016,47.85812447,19.07194562,25.84699936,20.00593662,19.96245842,20.96463704,17.86296284,18.31175333,17.30405645,12.3794141,23.74906254,30.51399994,29.13009987,30.74148671,30.73750019,28.43858622,29.13031746,26.88374984,20.12342532,13.19218739,15.46999989,18.04036499,19.18092822,19.11281252,17.33248289,15.92131484,11.1533021,6.525200269,11.64481375,15.25955733,15.68336601,16.96891106,16.93845514,15.07345461,14.95183393,12.01070089,8.15887847,0.924598212,1,1,1,1,0.96969665,0.982957588,0.758540943,41.290979,-96.41664325,2015,NEH1
F42/MO17,GAH1_2019,N,14.77,717.2196123,1.5,0,205,110,62,61.5,4.224827643,1.980000006,1.908236784,2.106472486,0,0.090714284,5.691865924,1.473428559,3.045620547,122.5200016,17.82000005,22.37999977,72.04999958,0,0.725714275,156.5528547,7.367142797,92.8692846,16.4500471,17.48633936,17.40259385,20.9384506,22.51147406,21.84430948,17.66714436,19.76491442,19.71139218,21.20655165,22.58666695,26.81574745,29.5228407,35.04273814,35.70196446,32.62270198,33.62814315,33.36893722,7.214827602,8.595555623,14.04498416,14.47543411,19.21654783,20.58464301,20.89661115,21.78014287,21.253149,8.370628681,9.274220075,12.91642218,14.40044999,18.67726543,19.28313207,18.63395398,19.63555568,19.18049021,0.90216748,0.984365085,1,1,1,1,1,1,31.50582525,-83.55515025,2019,GAH1
F42/MO17,GAH1_2017,N,12.7,720.1801384,2.5,2,200,85,62,60,1.929687474,5.730000019,0.343252103,3.449286585,2.107618968,4.586772466,5.884115127,3.462793619,5.790337869,61.74999917,45.84000015,4.185237975,115.4628578,3.161428452,44.24761888,164.3961923,18.00285697,179.500474,16.80249013,20.13732326,20.17342047,19.27076224,21.20480144,16.6798163,18.15858085,19.37517402,17.73704587,23.5584375,24.76124978,28.73884546,29.02932191,29.79031757,30.11825943,30.88468736,33.04158726,32.39466959,8.654999979,9.073749959,13.81601286,15.94569083,16.85142871,20.07059283,21.0580027,22.24365102,22.03411694,9.935165979,10.3201674,13.6844889,14.81363998,15.5596332,17.10789698,17.95959829,19.61349988,19.1980032,0.8834375,1,1,1,1,1,1,1,31.50794425,-83.55854475,2017,GAH1
B73/MO17,IAH3_2015,Y,20.9,705.3775082,0,0,263.5,141,65,64,1.888124991,2.913571392,3.784813995,6.971928843,0,3.257500064,1.487385228,2.541446469,4.507444947,60.41999972,40.78999949,55.43999982,241.6600003,0,32.57500064,50.31437471,24.68500039,138.7756267,19.80172794,20.03998334,15.9141292,20.68283491,21.69136486,21.24428636,20.63784564,18.68301758,14.92198489,14.64187506,16.6814285,21.6371088,27.61372247,30.87885427,30.3035625,28.596254,28.51656267,24.33389908,0.83250004,3.600714236,12.24542872,16.05178152,19.47364565,18.11006255,15.99319583,14.30373217,10.64901215,4.605131548,5.787499831,10.11465775,14.1164012,17.17624996,16.25391669,14.57670766,13.97583386,10.87542788,0.501462055,0.634540813,0.981270753,1,1,1,0.968879463,0.933929792,41.97585629,-92.24291804,2015,IAH3
LH195/LH82,GAH2_2017,Y,17.7,731.1212129,0,2,229,110,65,64,5.215806507,2.59000005,0.877047008,6.976424555,36.66571527,11.68990473,2.766634194,6.717714339,5.237281131,161.6900017,18.13000035,10.98809533,219.4985743,69.630002,116.6428568,77.55666748,33.5885717,162.3557151,18.59375843,20.97986943,21.98193589,18.54567619,14.33990901,17.7663424,19.78523868,18.86354985,17.57616326,25.93516134,24.17571449,30.47339418,29.31252372,29.52904774,29.72980419,32.72601502,32.10511542,30.76784952,12.17225799,9.938571385,16.15324828,18.06353156,20.43476164,19.51114297,21.20992787,20.86352373,19.95543778,11.90954616,10.38538115,15.45655397,15.75249851,16.98190469,16.63412837,18.90169131,18.47155665,17.41241638,0.999631335,0.985714285,1,1,1,1,1,1,33.727145,-83.29821525,2017,GAH2
PHW52/PHN82,TXH1_2016,N,10.55,724.6852867,0,2,201.25,60.25,73,73.25,1.633666698,16.13999993,0.99702422,4.719865603,0.129393939,3.277272727,13.06232457,0.703636358,1.017125621,49.01000094,112.9799995,14.5313639,177.3549991,0.33090909,36.05,378.0672674,3.179999969,30.53454577,13.9726292,10.72874144,17.88940951,17.80076093,20.55685321,19.77792414,17.90480363,20.8338604,20.14326093,22.32500016,23.95000022,24.48309256,26.40498513,28.5388636,28.63545455,30.12870319,34.35404525,35.58838723,6.034666632,13.33571414,9.675379644,13.12758779,15.78530267,16.33764454,20.13902853,23.08186362,24.00118421,8.473379033,11.29783551,10.5045992,12.46111665,14.43681279,14.72204148,17.12368238,20.53225114,20.87599038,0.915869048,1,0.972225207,1,1,1,1,1,30.54708625,-96.43393475,2016,TXH1
B14A/H95,MNH1_2016,N,23.35,731.1212129,0,2,229,110,71,70,2.893225764,0.170000008,5.030425272,6.121705224,6.438583227,6.210954471,8.179238718,7.617170889,9.394742846,89.68999869,1.190000057,67.79499967,212.8530004,13.67999972,65.11499918,295.599999,62.20750045,287.315495,17.89673604,26.28611401,18.122652,20.29948324,15.80941307,17.87578139,16.93568638,15.29315111,12.15008877,17.5148386,25.45428576,24.53269911,27.63337014,28.14450006,28.70269129,27.15887183,24.8505404,22.53032632,6.338387108,9.824285678,13.68155402,15.81410535,17.82425013,18.42635015,16.92976579,13.57123889,11.50456607,6.871134867,10.90204251,11.6566452,13.98369248,15.05511886,15.68076391,14.22086787,11.86153057,10.26982602,0.734527645,1,1,1,1,0.999952477,0.98729881,0.936092645,44.06646925,-93.533648,2016,MNH1
CG119/CG108,WIH2_2020,N,19.625,723.8807959,19.25,2.375,214.875,113,62.125,60,1.142258063,7.375000167,3.772605813,4.528143625,15.91411821,3.015240613,2.848395651,6.559665308,3.073983535,35.40999997,73.75000167,42.96999988,163.850588,31.01764819,33.16764674,117.7699986,59.84176376,94.45823468,20.73953056,16.04352899,21.23354675,21.58093245,19.01370295,17.88573252,19.32013515,13.57540027,12.27254504,13.56999995,18.91099977,26.0938683,28.2322475,29.46647072,27.75422455,27.09322103,24.80509675,19.00189054,0.762580661,9.396999884,13.99892158,14.99589118,17.7452939,17.49807463,14.22893102,13.29211059,7.459399134,4.176897214,8.107987139,12.68677404,14.02444379,15.66411489,14.70790633,13.20588953,12.26960615,7.833960257,0.443168195,0.881928567,1,1,1,0.990384734,0.880973437,0.780679991,43.294786,-89.383968,2020,WIH2
B14A/MO17,GAH1_2018,N,14.15,425.221642,0,60,170,85,66,63,4.231249915,1.934999943,5.575464231,3.801027214,1.067857163,3.256190501,3.932246866,3.816857059,2.685023025,135.3999973,11.60999966,76.79571342,135.0185695,1.516428607,29.30571451,107.1921429,19.08428529,83.23571379,16.89130574,18.83037901,19.9789379,20.32622599,17.16636637,17.47509449,19.98058203,18.77657547,18.35496912,25.6268748,28.56500022,25.46428012,27.96417186,30.5753573,30.54857133,31.9994497,33.07128549,33.68336431,12.70062498,14.46999963,11.35988473,14.27301998,20.47928579,20.42444427,20.68398901,21.82542842,22.30905548,11.99291119,13.91639365,11.33534042,13.63652225,17.52732154,17.4865078,18.33967815,19.36985553,19.8838857,0.988973219,1,1,1,1,1,1,1,31.50582525,-83.55515025,2018,GAH1
2369/LH123HT,NYH3_2020,Y,13.5,740.7751021,0,7.5,271.5,135,69,68.5,4.422257993,0,1.373865683,3.203515064,6.161458224,3.578657229,2.247619776,1.339995863,2.270768823,137.0899978,0,18.69000064,113.6731244,12.19749978,37.86125033,87.74812532,17.041875,68.54562519,20.94560956,21.78233427,21.55267425,20.63825651,19.18147684,18.87690393,17.75633085,13.93943947,11.5316014,14.59225801,27.97729172,23.60945411,27.89842024,28.17958339,28.76829368,26.51617347,21.47489044,18.12990527,2.644717742,15.68266662,11.3508871,15.53912014,16.43281273,17.50013456,14.53010818,10.52921434,6.891416056,5.000434995,14.04753459,10.70035646,14.11697706,14.42792892,15.19886376,13.03509367,9.604727821,7.356101809,0.471947005,1,0.969562211,0.99553941,1,0.989555914,0.903066166,0.764418635,42.73227475,-76.6513705,2020,NYH3
LH212HT/LH195,KSH1_2016,N,13.7,746.5674357,0,2,175,85,93,93,0.381562503,5.593749881,9.031136959,3.981909994,0,0.897724769,5.011421387,3.322424253,5.670073263,12.2100001,44.74999905,140.9509078,148.5090918,0,8.374091108,139.438637,19.93454552,175.7722711,18.43315426,14.04582843,18.34613738,20.88446512,22.70328743,20.59441801,18.34986672,18.15379387,17.32510191,19.15124996,21.70124984,22.33901244,27.19377063,36.31272689,35.17540036,32.01078432,33.85633352,30.76895891,2.130625044,11.46499991,9.568238579,14.2621368,21.58727247,22.04353923,20.78061301,22.71134866,19.49139311,6.3158573,9.667291017,9.626890379,13.35418843,19.56599107,19.14397536,18.06824645,19.12054732,17.03744615,0.741573662,1,0.921279778,0.986042268,0.991287871,0.998977631,0.993550002,1,39.14480675,-96.62898225,2016,KSH1
B37/H95,MOH1_2_2020,N,18.2,731.1212129,0.6,0.8,235.6,94.6,59.8,56.2,2.765624954,8.119999743,10.23533287,1.900197364,6.862941181,7.496322061,3.61617108,2.901626778,3.303786197,88.49999854,40.59999871,96.12411712,56.39411764,8.455882353,68.01117661,117.8082348,21.52705885,101.3270584,18.75466287,21.25211372,22.58999711,20.28617166,20.64270943,17.48834951,18.15902921,17.2011884,14.69335169,22.18656257,30.76999931,28.84882905,30.74339714,30.90558787,31.2308437,28.74780649,29.21697892,24.17436303,12.23093753,19.21800041,17.30516703,20.0610583,19.70343171,21.50444419,18.15153395,17.40346693,12.7162556,10.41798935,16.99399986,15.18178367,17.42227064,17.30450979,18.37429674,15.5665539,15.53509051,11.41105442,0.936383936,1,1,1,1,1,0.996694042,0.965786214,38.8958275,-92.2071575,2020,MOH1
B37/MO17,WIH3_2020,N,20.65,682.208174,1.75,7.5,269.25,151.75,70.75,68.5,2.733870995,5.446666638,6.112394342,4.74655674,3.655208389,1.04360979,2.527373572,3.69928986,2.61452892,84.75000083,32.67999983,82.9068754,167.6149986,8.003125131,12.58312517,113.8450009,40.74312496,78.93437568,20.41919384,18.2775027,21.33639865,20.40337995,19.49413761,18.99324058,17.80850823,14.15156863,10.1168501,15.48354838,26.52499994,25.39100386,27.30541678,28.00124967,27.24401428,25.77617537,21.78088819,14.67245705,3.106129019,15.18500026,12.31273591,15.12317531,16.14624966,16.31340126,13.17330579,9.92591724,4.431311843,5.287102842,13.2823578,11.70416503,13.61992535,14.28505882,13.97808988,12.29059579,9.657643491,5.630137727,0.571854837,1,1,1,1,0.965668942,0.879609054,0.560799012,44.115703,-89.54491325,2020,WIH3
W10001_0022/PHB47,ONH2_2015,Y,21.8,762.0136585,0,8,281,129,76,74,1.876451608,4.282666683,1.928005431,1.58261263,10.80264742,1.923208582,3.114388399,4.294901914,2.356388962,58.16999984,64.24000025,23.61999965,57.22470651,21.60529484,21.1552944,115.5017658,31.56294079,72.1164696,18.95380112,18.76709785,21.17743809,22.45418875,20.04103015,18.4543581,18.45373918,15.80078253,13.34539525,11.17387095,14.38466663,23.91200153,26.61279381,30.15176526,27.65053462,26.77986929,25.87464046,20.7920557,2.006774224,5.636000033,13.64950245,15.64688346,19.32647026,18.51812829,16.74694623,15.4972221,11.03054456,3.742938436,5.617129505,11.53065914,13.52353119,16.78542678,15.13421866,13.95153495,13.1846932,9.37660249,0.276970043,0.589690475,0.985132406,1,1,1,0.993019959,0.931831119,42.45408625,-81.8816065,2015,ONH2
F42/MO17,MIH1_2016,N,20.05,697.6543968,0,2.5,227,117,63.5,63,3.213870927,0.372000003,1.277668238,2.072144594,0.204761899,2.382636341,6.277866916,3.129595251,4.115734243,99.62999874,1.860000014,16.77857134,74.4033328,0.614285696,24.34142835,217.3680916,23.88571438,123.5814282,20.04481233,22.69628944,22.57460654,21.19066928,19.62511718,19.41470496,17.43536011,14.16523572,12.41239439,17.74322581,29.20999985,25.57947765,28.1508514,27.23547651,30.32783564,28.27294529,26.6388532,22.50219404,5.299677434,16.33600006,11.90361174,14.70447611,15.74579377,17.52671,16.25511672,15.58650841,10.86825081,6.615827776,14.89908974,11.62365975,13.82943527,13.70908531,16.01583991,14.48649579,13.48265,10.09129455,0.734400922,1,1,1,1,0.999987733,0.99326559,0.936590208,42.41206675,-84.2952625,2016,MIH1
B73/PHM49,IAH4_2017,N,20,718.2493605,0,2,229,110,65,64,3.054193612,4.63857133,5.654282844,2.356146022,0.145000003,0.823262634,3.029939984,2.506485397,3.022032747,94.68000197,32.46999931,92.55000019,79.81000018,0.290000005,7.931363713,110.0431818,17.65818187,91.79227275,19.60434628,22.37855189,18.81628808,21.46940114,22.42332305,21.26952374,19.1513695,15.94205759,15.34138578,17.83935482,25.21428544,21.76755785,28.88340452,30.88984893,30.99338411,28.30609907,26.26622464,25.93438806,4.952580655,10.13999993,10.24708413,15.02150207,17.47128796,18.07608078,15.80662465,13.87026602,12.51354651,6.575243948,10.82301274,9.649960621,14.3656457,16.22810104,16.57398155,14.36597852,12.57546566,12.06214068,0.727396317,1,0.910082199,1,1,1,1,0.987168831,41.99455432,-93.69030947,2017,IAH4
PHB47/PHZ51,DEH1_2016,N,18.7,734.6609723,0,3,254.5,119.5,77.25,77.25,2.701875035,7.431818214,3.891344367,3.01543569,5.358105985,2.453055546,7.028031294,2.624318106,3.1968602,86.46000111,81.75000036,66.39499953,101.6163622,13.33454524,24.02227264,188.3231781,15.05272682,98.58045408,18.33047433,10.1000462,19.40971708,21.02938559,18.25055452,17.64652011,18.94468483,17.7865103,16.44449792,18.09,16.60090897,19.90208421,27.67646738,27.79681775,28.9030859,31.91379825,31.21812112,30.57169607,5.529687506,9.93090907,10.11289786,16.8589893,18.02106052,19.78800518,21.90881045,21.62957593,20.16127331,6.825577378,7.645605865,8.606637786,14.43603228,14.98401645,16.37610101,18.85541374,18.37748956,17.3477875,0.726328134,0.729318176,0.990929859,1,1,1,1,1,38.6482025,-75.44606,2016,DEH1
TX714/PHZ51,MNH1_2016,Y,19.6,731.1212129,0,2,229,110,70,68.5,2.893225764,0.170000008,5.030425272,6.121705224,6.438583227,6.210954471,8.179238718,7.617170889,9.394742846,89.68999869,1.190000057,67.79499967,212.8530004,13.67999972,65.11499918,295.599999,62.20750045,287.315495,17.89673604,26.28611401,18.122652,20.29948324,15.80941307,17.87578139,16.93568638,15.29315111,12.15008877,17.5148386,25.45428576,24.53269911,27.63337014,28.14450006,28.70269129,27.15887183,24.8505404,22.53032632,6.338387108,9.824285678,13.68155402,15.81410535,17.82425013,18.42635015,16.92976579,13.57123889,11.50456607,6.871134867,10.90204251,11.6566452,13.98369248,15.05511886,15.68076391,14.22086787,11.86153057,10.26982602,0.734527645,1,1,1,1,0.999952477,0.98729881,0.936092645,44.06646925,-93.533648,2016,MNH1
F42/MO17,ONH1_2015,Y,32.6,723.3981015,0,0.5,250,127.5,87.5,87.5,1.605625002,2.296315821,1.411426091,1.973297954,0.512941169,3.436769168,2.641035405,1.799953816,2.360571209,51.38000005,43.63000059,20.30117703,73.50294104,0.81882352,40.73352947,103.9364728,19.58470627,71.14882509,18.02169462,20.4737019,23.34007091,22.64543997,20.24065375,18.07254412,18.60447299,14.22755231,12.21920895,9.771562532,12.63473691,23.7578119,26.83441686,29.90941261,27.46928249,26.11972075,22.82201755,18.35250846,-0.327500018,2.045263152,11.01347606,13.31919887,17.43313718,16.50329302,14.06775752,11.69572195,7.013714688,2.851211725,4.201400589,10.67713105,12.77399982,15.76589753,14.15032606,12.63577386,10.48249806,7.379159901,0.167098218,0.403345874,0.957007131,0.991950294,1,0.994472794,0.939113043,0.772366561,43.49741975,-80.44806025,2015,ONH1
PHG29/PHG47,ARH2_2016,N,13.25,731.1212129,0,2,179.5,106,62,60.5,5.780937422,12.26500018,3.712120208,7.0222886,1.105000019,0.295568184,1.931287914,1.454696927,6.280835692,184.9899975,73.59000111,50.67409075,233.2059098,2.210000038,2.364545475,51.29727264,7.656817956,194.7059064,17.76457119,17.22719622,20.14058537,19.80644481,18.88262117,19.79738723,18.69440654,19.88854878,15.60714355,21.02781257,25.69833342,24.88224707,27.55747889,33.1628785,33.38017045,32.40728063,33.71248445,31.37684753,8.517187547,14.13833332,13.26693003,16.75834882,22.79151535,23.21522755,22.56353312,22.95024234,22.3752492,8.626308124,12.37618007,11.75818796,14.46644855,19.89189903,20.24263088,19.43024202,20.23735303,18.81126952,0.958649555,1,1,1,1,1,1,1,35.838614,-90.66530155,2016,ARH2
B37/MO17,OHH1_2018,N,19.05,714.3878048,0,1.5,268,120.5,60.5,65,3.056774178,9.537500136,1.922452157,2.385565957,3.342142727,1.8544286,3.625787622,3.100846839,2.007798001,94.75999951,76.30000108,21.73714328,80.43785755,3.342142727,18.544286,121.7649994,22.15357072,61.29071423,19.31095449,14.64635724,20.72885596,20.94366931,19.27592959,20.95649317,17.99811894,17.37176276,15.4204415,15.33419351,20.99500024,26.65036435,28.81994394,32.41071347,30.66092864,28.53085842,26.94730604,24.73435724,3.376129027,12.14624989,14.55931522,16.57316253,19.49428545,18.47499986,17.24720124,15.03980618,12.05347394,5.35712311,9.832246518,13.13485159,14.9051591,17.95401161,16.59941793,15.03822312,13.39555861,11.48513665,0.534285712,0.926785712,1,1,1,1,0.999125,0.970735544,39.85688825,-83.671225,2018,OHH1
LH82/PHB47,NEH3_2017,N,18.65,769.7367699,20.5,2,174,86.5,65,64,6.03471326,3.955444498,0.18882913,3.842009577,1.316296295,1.435570981,2.764433094,3.912023778,4.15136979,187.076111,38.21611161,1.987222274,117.8244439,3.948888885,12.8655555,93.99333183,27.38611089,126.3194449,18.53150537,21.70326166,24.15860034,20.80931081,18.66603313,19.02487726,18.75887595,17.51813417,15.15718003,20.20137986,23.21257118,30.13389904,30.13339279,32.06462927,32.76776237,28.39622898,27.87449379,27.0242909,7.908297486,10.26215086,15.17879712,16.87891665,20.62425956,20.98993062,16.95054818,15.08081369,13.75654417,8.47748899,10.0955543,14.95078719,15.67969265,18.3413362,18.75248222,14.77642402,13.79312874,13.00111339,0.783510626,0.953819441,1,1,1,1,1,0.993105158,41.162,-96.409,2017,NEH3
B73/PHM49,MIH1_2017,N,17.7,731.1212129,0,2,229,110,65,64,2.651290334,1.642500043,0.365195355,3.685889798,0.022982455,0.462972321,1.745768067,1.924198947,6.215848807,82.19000036,13.14000034,4.417894763,131.6678931,0.068947365,5.871578781,77.40789432,25.15789459,187.919471,20.75480046,19.52619267,24.47429891,19.89055103,21.94334328,22.12060477,17.47908742,14.76431364,9.641321864,18.99677434,22.1187501,26.44652255,27.49693157,27.7329823,27.82492569,25.37386911,24.10071042,20.63989867,5.961290348,11.91874993,11.36318641,16.0503933,16.08877179,14.96255052,12.27657104,9.93890341,8.936309075,7.303217139,10.01258026,11.86785018,14.06113521,14.11607898,13.75096176,11.67659513,10.59348898,9.148775778,0.770126733,1,1,1,1,0.999072621,0.949278334,0.816440377,42.68116575,-84.49434125,2017,MIH1
F42/MO17,INH1_2019,Y,25.695,844.0073579,0,2,233,123,63.5,61,4.638124973,1.291666667,4.254883356,1.873002707,7.542143106,0.579848493,2.745608418,1.194209184,2.037834084,148.4199991,7.75,53.11714339,53.83785783,14.64785763,6.669285808,98.22214476,12.45785718,61.58714233,19.82387961,19.183822,19.33565513,20.5079362,16.64856858,22.30931036,17.46113557,15.79330395,12.43542766,23.34687504,26.15000025,24.44131608,31.06458042,27.9682139,28.43625549,27.60941131,25.59340811,22.91422815,11.29093746,15.88166634,14.27159151,19.40569109,18.2715475,15.1189393,15.69895629,13.38685715,10.33005226,10.62626718,13.2428989,11.86638398,17.27971266,15.26406297,14.09359416,13.93027737,12.23653025,10.46761426,0.918526784,1,1,1,1,0.999060374,0.966691327,0.86252861,40.477063,-87.00020175,2019,INH1
PHP02/PHB47,IAH2_2017,N,15.1,750.4289914,1,13,200,93,65,64,2.991935476,4.003749907,5.594154361,1.824159742,2.965909053,1.138616173,3.544395797,5.525860929,3.224964342,92.74999976,32.02999926,86.83999968,64.74363607,5.880909015,11.03545466,133.6850016,39.36636487,98.02272796,18.91811151,22.03083944,18.39067038,21.91300981,21.59707026,21.00058551,18.76246256,16.50136756,14.56336975,16.70258062,25.25375009,21.16444029,28.78792803,31.34295403,31.03890899,27.79230679,26.54138994,25.01808603,3.836129038,9.060000002,9.836484062,14.72352594,17.1804546,18.00485339,15.61890002,13.9478747,12.25710857,5.884356407,10.52058178,9.325556586,14.19611432,16.29393371,16.57150033,14.05801276,12.73803514,11.57992501,0.659274195,1,0.882113053,1,1,1,1,0.976890029,42.06582876,-94.72050129,2017,IAH2
PHB47/PHN82,OHH1_2020,Y,22,712.457027,0,0.5,229,110,56.5,55,4.175312527,1.24000001,2.003453903,2.609830299,3.238461531,4.458868342,3.000365612,1.621237519,2.44580479,133.6100008,6.200000048,24.41307693,78.60461595,5.612307695,46.13538504,105.0992289,18.40384625,73.98230748,19.06994028,20.34349766,22.26062964,20.30125672,18.94980258,17.72364635,17.47781057,14.69815231,13.31876726,20.75593752,29.31000023,26.9862925,30.26951119,31.92230738,29.63458284,27.3548547,24.45496262,20.91339716,9.301875014,17.61400032,14.18652547,18.22082699,19.47423084,18.74255468,15.66305293,13.07056974,8.164555027,9.098127154,15.53923951,13.05396234,16.29356655,17.69826911,16.21360084,13.84725457,11.75523116,8.713632263,0.810993302,1,1,1,1,0.998602591,0.941606618,0.857376019,39.85643475,-83.67288725,2020,OHH1
PHP02/PHB47,ONH1_2017,Y,30.1,631.3643572,0,6.5,257.5,102.5,75.5,75.5,4.42290319,4.904999876,1.545173221,3.420435244,1.695375006,2.594700004,1.855534774,1.54565171,2.383111348,137.1099989,49.04999876,23.52600009,140.8034994,5.378000009,36.46150006,95.23350107,29.85300009,72.44250006,18.65662235,17.08545341,23.10813164,20.12586768,18.11232318,19.44819915,16.33652997,11.62209215,7.957733996,13.94322577,18.20700026,22.35689536,24.80045755,25.17183321,25.2296929,22.79396283,22.13957367,13.29532023,3.578387066,9.706999969,10.10387851,14.12185296,14.82349991,13.63261195,10.3904862,9.847475595,3.166289439,4.958212412,8.025894563,9.659097931,11.97096233,12.35740613,11.98311106,9.953455995,10.0654016,5.273375752,0.439723498,0.877642858,1,1,1,0.972410901,0.840292505,0.515578473,43.49546,-80.42596875,2017,ONH1
B14A/MO17,TXH1_2020,Y,10.435,717.6057679,0,2,194.31,67.31,68,67,2.284333333,0,4.613530444,2.949806388,1.362941181,6.741056464,2.844869093,3.829088224,2.301094231,68.53,0,55.97058804,110.7988238,1.362941181,71.52235312,82.32059028,18.97352936,69.29117607,13.91343843,13.3863348,15.08816438,19.79337859,19.48130546,19.24170726,19.77113757,20.7945973,17.91495332,20.02266652,27.17999992,26.60815942,26.52479293,29.39617636,29.12989124,32.2266946,33.03076485,34.59511331,6.794333295,17.20400028,15.2455437,13.65359797,17.29686298,16.61337131,20.73348334,20.06167624,24.24037069,7.901247141,14.27292515,13.38037585,12.76738989,15.58009007,15.11126374,18.39892159,18.53701373,20.50202011,0.821357143,1,0.99243504,0.993791594,1,1,1,0.999042533,30.53781575,-96.4283715,2020,TXH1
PHW52/PHN82,MIH1_2016,N,21.5,686.7133223,0,3.5,207,99,63.5,62.5,3.213870927,0.372000003,1.277668238,2.072144594,0.204761899,2.382636341,6.277866916,3.129595251,4.115734243,99.62999874,1.860000014,16.77857134,74.4033328,0.614285696,24.34142835,217.3680916,23.88571438,123.5814282,20.04481233,22.69628944,22.57460654,21.19066928,19.62511718,19.41470496,17.43536011,14.16523572,12.41239439,17.74322581,29.20999985,25.57947765,28.1508514,27.23547651,30.32783564,28.27294529,26.6388532,22.50219404,5.299677434,16.33600006,11.90361174,14.70447611,15.74579377,17.52671,16.25511672,15.58650841,10.86825081,6.615827776,14.89908974,11.62365975,13.82943527,13.70908531,16.01583991,14.48649579,13.48265,10.09129455,0.734400922,1,1,1,1,0.999987733,0.99326559,0.936590208,42.41206675,-84.2952625,2016,MIH1
B73/MO17,SCH1_2020,N,14.185,731.1212129,1.5,5,98,32,59,58,6.726129055,12.61950016,14.6709951,2.000047064,2.505749965,4.425319405,2.268462711,6.18714998,5.023091868,208.5100007,84.13000107,163.6860008,61.50999924,5.011499929,39.68149965,62.57699943,33.64599986,155.4654979,20.36817608,19.66978326,14.75526058,19.85961082,19.96014466,19.24465486,19.87809105,16.40752662,15.64625104,22.32567731,25.33999968,25.31846332,29.19710574,32.4110003,31.66961065,33.32032281,31.92909988,30.24042268,7.936741977,12.70899997,16.31955663,18.65521183,21.09725013,21.1736526,21.46883008,21.19136654,20.48826235,8.963701593,11.76593586,13.23428606,15.98846211,18.75412521,18.42141037,19.32426,18.56023321,17.40294316,0.984170504,1,0.973950938,1,1,1,1,1,34.62225,-82.736661,2020,SCH1
PHW52/PHM49,ONH2_2015,Y,29.1,761.3700659,0,0.5,261.5,141.5,80.5,79.5,1.876451608,4.282666683,1.928005431,1.58261263,10.80264742,1.923208582,3.114388399,4.294901914,2.356388962,58.16999984,64.24000025,23.61999965,57.22470651,21.60529484,21.1552944,115.5017658,31.56294079,72.1164696,18.95380112,18.76709785,21.17743809,22.45418875,20.04103015,18.4543581,18.45373918,15.80078253,13.34539525,11.17387095,14.38466663,23.91200153,26.61279381,30.15176526,27.65053462,26.77986929,25.87464046,20.7920557,2.006774224,5.636000033,13.64950245,15.64688346,19.32647026,18.51812829,16.74694623,15.4972221,11.03054456,3.742938436,5.617129505,11.53065914,13.52353119,16.78542678,15.13421866,13.95153495,13.1846932,9.37660249,0.276970043,0.589690475,0.985132406,1,1,1,0.993019959,0.931831119,42.45408625,-81.8816065,2015,ONH2
PHG39/PHN82,OHH1_2015,N,16.5,791.6189189,0,0,251,110.5,67,64.5,4.820000016,2.056666652,1.801667061,2.430255425,2.070588264,2.75488235,3.664772063,1.623969288,1.874022108,149.4200005,12.33999991,20.27235275,82.00588303,2.23529414,26.29176468,128.0200007,12.16764697,57.18411674,17.71339239,20.831882,20.85048625,20.93566426,20.28419298,19.59839119,17.66236547,17.23782846,14.83481447,16.95064511,28.03666687,26.64173705,29.01382079,31.07970569,30.59522857,27.99762273,26.69097183,23.34659959,5.9283871,15.42166694,14.66308043,16.74801267,19.23764672,18.74322206,16.69895781,13.90980629,10.26308727,6.580773377,14.04730329,13.19467995,15.08203889,17.16864649,16.69143216,14.53513226,12.92347397,10.29932856,0.672569122,1,1,1,1,1,0.994932126,0.947361455,39.855785,-83.66477375,2015,OHH1
B73/PHM49,COH1_2017,N,36.925,567.6486882,0.75,13.75,234.25,103.75,78,76.5,3.393124943,0,0.001708684,0.360843908,0.891428554,3.560382097,1.42287895,1.565670675,1.770870451,108.5799982,0,0.02904762,12.29476177,1.600476163,43.78523833,56.48285717,21.02523811,53.20285701,22.26802993,25.65694836,25.9931063,24.2875628,21.26982858,19.37652668,19.65631787,15.92591012,11.99136935,20.38624986,26.27857154,29.00990249,30.95750085,32.84396765,29.24597739,27.87075516,24.49812031,17.64004964,4.676250031,9.955714362,11.44166305,13.33492254,15.64190474,14.2894836,11.55992968,8.650869984,2.505724526,7.387813889,11.22152513,12.97827389,14.53136664,16.23032426,14.11586508,12.58015619,10.40568176,6.007000116,0.859799101,1,1,1,1,0.978368119,0.882220332,0.653649732,40.64850025,-104.9997825,2017,COH1
CG44/CGR01,SCH1_2020,N,13.32,731.1212129,1.5,2,96,28,59,58,6.726129055,12.61950016,14.6709951,2.000047064,2.505749965,4.425319405,2.268462711,6.18714998,5.023091868,208.5100007,84.13000107,163.6860008,61.50999924,5.011499929,39.68149965,62.57699943,33.64599986,155.4654979,20.36817608,19.66978326,14.75526058,19.85961082,19.96014466,19.24465486,19.87809105,16.40752662,15.64625104,22.32567731,25.33999968,25.31846332,29.19710574,32.4110003,31.66961065,33.32032281,31.92909988,30.24042268,7.936741977,12.70899997,16.31955663,18.65521183,21.09725013,21.1736526,21.46883008,21.19136654,20.48826235,8.963701593,11.76593586,13.23428606,15.98846211,18.75412521,18.42141037,19.32426,18.56023321,17.40294316,0.984170504,1,0.973950938,1,1,1,1,1,34.62225,-82.736661,2020,SCH1
B14A/MO17,IAH4_2017,Y,23.3,671.9106921,5.25,1.75,228.5,111.25,69,67.75,3.054193612,4.63857133,5.654282844,2.356146022,0.145000003,0.823262634,3.029939984,2.506485397,3.022032747,94.68000197,32.46999931,92.55000019,79.81000018,0.290000005,7.931363713,110.0431818,17.65818187,91.79227275,19.60434628,22.37855189,18.81628808,21.46940114,22.42332305,21.26952374,19.1513695,15.94205759,15.34138578,17.83935482,25.21428544,21.76755785,28.88340452,30.88984893,30.99338411,28.30609907,26.26622464,25.93438806,4.952580655,10.13999993,10.24708413,15.02150207,17.47128796,18.07608078,15.80662465,13.87026602,12.51354651,6.575243948,10.82301274,9.649960621,14.3656457,16.22810104,16.57398155,14.36597852,12.57546566,12.06214068,0.727396317,1,0.910082199,1,1,1,1,0.987168831,41.99455432,-93.69030947,2017,IAH4
CG44/CGR01,MNH1_2019,Y,22.2775,707.308286,6.375,4.125,242.75,110.375,64.875,62.875,5.301249992,3.475999832,3.602993786,6.929571154,0.665000021,5.494791652,5.263070224,5.621187949,3.218817211,169.6399997,17.37999916,52.03749943,225.572501,0.665000021,65.93749982,237.3162515,64.04000057,97.09750019,20.08423158,23.23368454,18.89062728,19.10632096,20.66435087,19.89868527,15.01321032,12.57416254,8.931227934,18.84156254,30.07599983,22.64517247,27.8446756,25.93437445,26.98812485,23.63970818,22.67396729,11.50651745,7.590312487,16.46599998,13.06713844,17.85158404,15.20500028,15.88958326,13.39640844,11.73885282,1.693081995,7.690019481,15.3684929,10.60199808,14.93632352,12.89140505,13.69019131,11.26189256,10.71987293,4.447532915,0.811763395,1,1,1,1,0.985092269,0.878346274,0.404429721,44.0664117,-93.52500471,2019,MNH1
B37/H95,MNH1_2019,N,24.9425,670.2373513,9.15,3.7,237,112.8,65.25,62.2,5.301249992,3.475999832,3.602993786,6.929571154,0.665000021,5.494791652,5.263070224,5.621187949,3.218817211,169.6399997,17.37999916,52.03749943,225.572501,0.665000021,65.93749982,237.3162515,64.04000057,97.09750019,20.08423158,23.23368454,18.89062728,19.10632096,20.66435087,19.89868527,15.01321032,12.57416254,8.931227934,18.84156254,30.07599983,22.64517247,27.8446756,25.93437445,26.98812485,23.63970818,22.67396729,11.50651745,7.590312487,16.46599998,13.06713844,17.85158404,15.20500028,15.88958326,13.39640844,11.73885282,1.693081995,7.690019481,15.3684929,10.60199808,14.93632352,12.89140505,13.69019131,11.26189256,10.71987293,4.447532915,0.811763395,1,1,1,1,0.985092269,0.878346274,0.404429721,44.0664117,-93.52500471,2019,MNH1
B37/H95,ONH2_2019,Y,17.7,731.1212129,34.5,2.5,264.5,128.5,63,60,3.148749955,1.707142813,2.884788786,4.447732757,0.559615387,2.381315681,1.591062148,2.963873616,2.693056068,100.7599986,11.94999969,28.24076917,155.5976948,1.398461539,27.51692318,83.67846091,41.8892306,82.50307587,19.66548085,22.32332843,21.1459014,19.53903082,19.21471346,16.24443645,13.80926932,11.15414419,7.415876262,21.25437486,24.3300002,28.12065395,27.65940311,26.58807711,26.0777262,22.19925608,19.8977064,9.549499144,11.33624993,14.43999985,17.94791472,17.45486711,16.31807709,16.95925516,13.13253797,10.95349597,1.834706344,9.515816833,11.92539607,15.12217856,14.69848405,13.62366511,13.69445237,10.64536319,9.344594814,3.453371008,0.985803572,1,1,1,1,0.93986372,0.838029257,0.289255913,42.45221275,-81.881844,2019,ONH2
B14A/OH43,WIH1_2020,Y,23.1,641.6618391,0.5,1,280.5,149,75.5,73,1.598387111,6.507143004,4.413520471,5.455426438,9.576153682,6.848251811,1.847198819,1.302442385,3.233674973,49.55000043,91.10000205,54.05307698,191.9769218,14.76999958,75.33076992,75.52923148,17.19923096,99.29769339,20.3303612,17.70938441,19.63774696,21.71928057,19.47191414,18.08778093,19.52506722,17.02277317,12.74244368,13.80935484,15.78214281,24.71870171,28.0331271,31.3961547,28.17125902,26.95535567,26.2427393,20.06715065,1.332903252,5.150000061,13.25869882,14.90724568,18.80923077,17.63741262,14.66820073,13.00544381,8.429758508,4.404075426,5.920121855,11.73838603,13.88054584,17.12955683,14.95247276,13.30208011,12.63591888,8.588509069,0.46481566,0.623010193,1,1,1,0.987099279,0.934776512,0.808464704,43.05505505,-89.52853825,2020,WIH1
PHN11_PHG47_0251/PHB47,MOH1_2015,N,14.1,731.1212129,0,0,195,82.5,73,72,3.914838722,3.002727248,2.7038834,5.646226268,2.268750012,1.183333344,4.736744086,1.740401796,3.666491943,121.3600004,33.02999973,34.41999933,178.8712478,5.868750036,10.6500001,140.2618746,11.88312507,113.6612502,18.81846694,18.88703156,16.92919735,21.70591481,15.72154266,19.94530069,18.47422179,20.12873028,17.02653892,18.28451609,18.00181831,23.77805456,28.93028285,29.85593748,31.76118019,30.42140763,28.58050013,28.43143147,5.857096827,7.500000065,15.21487777,17.6487962,21.67281234,21.45979159,20.28182538,17.09899995,17.28669369,7.068544315,7.302193139,11.97142579,15.39796361,17.76437491,18.61048589,17.380694,14.99182695,15.05317439,0.723283405,0.814935086,1,1,1,1,1,1,38.8965375,-92.20800417,2015,MOH1
TX714/TX779,WIH2_2020,N,20.5625,708.1127768,8.625,0,292.625,180.625,88.125,84.75,1.142258063,7.375000167,3.772605813,4.528143625,15.91411821,3.015240613,2.848395651,6.559665308,3.073983535,35.40999997,73.75000167,42.96999988,163.850588,31.01764819,33.16764674,117.7699986,59.84176376,94.45823468,20.73953056,16.04352899,21.23354675,21.58093245,19.01370295,17.88573252,19.32013515,13.57540027,12.27254504,13.56999995,18.91099977,26.0938683,28.2322475,29.46647072,27.75422455,27.09322103,24.80509675,19.00189054,0.762580661,9.396999884,13.99892158,14.99589118,17.7452939,17.49807463,14.22893102,13.29211059,7.459399134,4.176897214,8.107987139,12.68677404,14.02444379,15.66411489,14.70790633,13.20588953,12.26960615,7.833960257,0.443168195,0.881928567,1,1,1,0.990384734,0.880973437,0.780679991,43.294786,-89.383968,2020,WIH2
TX714/PHZ51,GAH1_2015,Y,13.1,715.6749901,0,5,210,100,63,58.5,4.231249915,0,5.95843649,3.852603143,2.594000032,2.429925956,4.217759372,2.225466652,2.667397826,135.3999973,0,82.56599903,137.5619979,4.851333332,21.8693336,117.5779999,11.12733326,82.68933261,16.59936112,21.58269278,19.11661296,20.61616366,14.5260024,17.86473659,19.792993,19.1551459,18.46432438,25.43281227,26.81500022,26.00854227,27.82657943,29.9603331,30.57562955,31.8228303,33.58693334,33.75221527,12.50374998,10.5999999,12.24448314,13.90452364,20.76811106,20.25348139,20.64254904,22.17719986,22.29090342,11.85447967,11.72664631,11.94062668,13.41492991,17.36422208,17.41455547,18.23714923,19.83066815,19.89653894,0.988973219,1,1,1,1,1,1,1,31.505771,-83.555095,2015,GAH1
F42/OH43,NYH1_2018,N,20.7,731.1212129,1,18.5,236,107,65,64,4.394516057,1.637142931,0.546464292,3.461265884,6.062261837,4.338061718,2.067540981,1.177456758,2.359527655,136.2299978,11.46000051,7.340000123,113.5449994,14.95785693,45.27285745,83.63714323,15.50214277,71.28500016,21.14905797,19.51909583,22.50012197,20.49014312,17.37909559,18.62357236,17.54437735,14.42309006,11.11333684,16.43838702,24.34714304,24.48084385,28.4079325,28.47095262,28.85558784,26.25577716,21.21730113,17.53723965,4.181612903,13.18428578,11.78804566,16.02970596,18.15166677,17.53428468,14.37510127,9.649634667,6.532510054,6.046172102,11.82070517,11.18993529,14.50776692,15.35223703,15.26441478,12.8637381,9.179788733,7.084201569,0.564688941,0.946581643,0.98880424,0.99833546,1,0.984010821,0.898581807,0.740508559,42.72940418,-76.65161667,2018,NYH1
B37/H95,MIH1_2017,Y,17.7,731.1212129,0,2,229,110,65,64,2.651290334,1.642500043,0.365195355,3.685889798,0.022982455,0.462972321,1.745768067,1.924198947,6.215848807,82.19000036,13.14000034,4.417894763,131.6678931,0.068947365,5.871578781,77.40789432,25.15789459,187.919471,20.75480046,19.52619267,24.47429891,19.89055103,21.94334328,22.12060477,17.47908742,14.76431364,9.641321864,18.99677434,22.1187501,26.44652255,27.49693157,27.7329823,27.82492569,25.37386911,24.10071042,20.63989867,5.961290348,11.91874993,11.36318641,16.0503933,16.08877179,14.96255052,12.27657104,9.93890341,8.936309075,7.303217139,10.01258026,11.86785018,14.06113521,14.11607898,13.75096176,11.67659513,10.59348898,9.148775778,0.770126733,1,1,1,1,0.999072621,0.949278334,0.816440377,42.68116575,-84.49434125,2017,MIH1
LH74/PHN82,NYH1_2019,N,24.2,679.6338035,0.5,1,240.6666667,131.5,68,69,3.742499989,3.13750004,5.753824184,3.193184694,5.054999975,4.679644987,3.141734315,2.115619262,4.095645999,119.7599996,25.10000032,83.05615347,110.7876916,10.59692295,60.83538484,169.67846,49.66846142,126.1984601,19.31204623,22.90652502,19.40556432,20.09548462,19.54416251,18.43271946,14.78687504,11.82668111,8.218362691,18.69937494,22.85875034,22.9010546,27.51683221,28.25012823,26.24284011,22.02988517,19.80082275,11.00573521,7.845625035,10.06374997,12.28813039,16.10263177,16.07333343,14.39934908,10.67406786,8.357505336,1.635690852,7.6395284,9.775213808,10.49055945,14.05854059,14.39300596,12.73828549,9.762895495,8.676471021,3.980466677,0.838560269,0.991875008,1,1,1,0.934962266,0.800347462,0.399612352,42.7288875,-76.65152084,2019,NYH1
B14A/OH43,IAH1_2019,Y,31.9,646.1669874,0,4,201.5,99.5,65,64,8.157187574,0.75333335,7.315577374,1.144389074,0.212857144,0.731688293,3.103679801,5.185721735,4.918979992,261.0300024,4.5200001,87.30642721,32.26642813,0.212857144,8.04857122,121.5035704,46.39999972,147.9399989,18.01904646,22.72114833,18.53868323,20.84617194,19.20093738,21.91428985,16.4832458,14.23349405,11.00878768,22.30999994,27.52999973,24.52617789,31.4481278,28.63047609,29.47870132,27.11002697,25.00731411,20.46577188,10.93062501,14.96333329,14.91684483,20.02766766,18.36452364,16.34071412,15.67686671,13.06746994,9.592819484,10.11779152,13.58137929,12.09039624,17.73903178,15.5681627,15.08353594,13.70818638,12.14295105,9.387875541,0.879263394,1,1,1,1,0.994329881,0.928985237,0.797752907,41.1992562,-91.4941418,2019,IAH1
B37/OH43,MOH2_2015,N,16.9,731.1212129,1,0,225,110,72,70,3.914838722,3.534545422,2.891676029,5.446623968,2.505882375,1.1137255,5.068586465,0.980448186,4.011119538,121.3600004,38.87999964,35.23176398,173.6929392,5.011764751,10.0235295,148.9223525,6.487058864,124.3447057,19.08701148,18.12534948,17.16717858,21.59629129,16.88945411,20.34516158,18.32895435,19.90608894,16.95494386,18.756129,18.24727275,23.87322904,29.02836507,30.59176479,31.93248319,30.27285599,28.73220747,28.34062618,6.152580692,8.059091026,15.30129973,17.80114352,21.94705907,21.39261428,20.17023127,17.40519331,17.20941189,7.288196993,7.58478923,12.05891064,15.51775091,18.26941193,18.66254873,17.2518739,15.21359182,14.97078901,0.75554147,0.814935086,1,1,1,1,1,1,38.89807917,-92.2079,2015,MOH2
PHN11_OH43_0001/PHB47,ONH2_2017,Y,17.7,731.1212129,0,2,229,110,65,64,3.566774253,5.816000056,0.640467161,2.602850346,0.276190468,0.553043346,1.774150425,1.832219351,2.40528059,110.5700018,58.16000056,8.999047586,96.02571482,0.552380936,6.918571438,78.70857161,24.06619065,72.98142847,18.8542372,16.74867072,24.21291039,19.37094181,21.19715784,20.84705237,17.61151759,14.253685,9.927824707,15.7532257,18.68899984,23.40262829,26.34974997,26.59380949,26.86065013,24.57225317,22.91748616,20.00596815,5.764838726,10.96000004,12.03359118,16.18007827,16.63301581,15.91920336,13.14574071,11.27177775,10.10650586,6.141928302,8.38660306,10.68394655,13.52521671,13.7753985,13.64998718,11.58821465,10.41552723,9.107414304,0.598502303,0.966571423,1,1,1,0.999084662,0.956230826,0.8300025,42.45293025,-81.8827315,2017,ONH2
PHW52/PHN82,ONH2_2019,N,43.45,664.7024548,0,0,273.5,107,58.5,57,3.148749955,1.707142813,2.884788786,4.447732757,0.559615387,2.381315681,1.591062148,2.963873616,2.693056068,100.7599986,11.94999969,28.24076917,155.5976948,1.398461539,27.51692318,83.67846091,41.8892306,82.50307587,19.66548085,22.32332843,21.1459014,19.53903082,19.21471346,16.24443645,13.80926932,11.15414419,7.415876262,21.25437486,24.3300002,28.12065395,27.65940311,26.58807711,26.0777262,22.19925608,19.8977064,9.549499144,11.33624993,14.43999985,17.94791472,17.45486711,16.31807709,16.95925516,13.13253797,10.95349597,1.834706344,9.515816833,11.92539607,15.12217856,14.69848405,13.62366511,13.69445237,10.64536319,9.344594814,3.453371008,0.985803572,1,1,1,1,0.93986372,0.838029257,0.289255913,42.45221275,-81.881844,2019,ONH2
PHW52/PHN82,ILH1_2018,Y,16,740.7751021,0,2,219.5,100.5,59,57,4.93870967,7.677000022,2.588106254,5.605117571,0.281428576,3.456349163,4.202656593,1.004543384,2.183824858,153.0999998,76.77000022,33.4678576,176.7721435,0.281428576,32.73642816,135.7042854,6.586428666,67.2342849,18.91812334,19.3164753,20.10278531,22.12028957,18.91592986,20.16297878,19.11980649,19.09856314,16.2127272,15.99580652,18.50399971,25.32625123,29.19453127,30.85535676,31.83740471,28.20358558,28.86124239,26.43877647,3.618387117,7.573000085,14.94700907,16.75211974,20.46500043,20.0205478,17.14982155,16.71822788,13.95248539,5.629456993,7.587936205,12.64486739,15.17263993,17.66017859,17.94105007,14.82889519,14.97382886,12.85823928,0.640783421,0.72660713,1,1,1,1,1,0.984431123,40.06300125,-88.2291765,2018,ILH1
W10001_0022/PHB47,WIH2_2017,Y,19.15,778.1034739,0,2,255,125,73,73,5.048709616,4.636666616,1.142383575,5.763857885,8.001590729,6.160048604,1.607776433,1.167726513,2.257555268,156.5099981,41.72999954,17.5799998,219.3963643,12.14409065,74.04090792,72.28863683,15.04409093,68.0204557,18.1690344,19.72049554,20.64727683,20.23287988,19.13163679,19.37493243,18.51401576,14.93340477,10.89478233,16.03129027,21.86555545,22.15746071,26.59689143,27.90045501,26.76799254,24.73062069,22.38533393,20.51274781,3.24419354,8.791111098,9.553497601,14.54337319,16.81037892,15.37831158,12.19271258,9.193202486,7.868866577,5.438218202,9.209131236,9.451203107,13.05708411,14.51682301,13.37610723,11.31306373,9.686333754,8.853113959,0.624158991,0.847976183,0.950288768,1,1,0.998699911,0.954544862,0.834596302,43.3246415,-89.33688775,2017,WIH2
LH212HT/LH195,GAH2_2016,N,12.75,731.1212129,0,2,247.5,195,53,53.5,1.486129045,0,7.316392826,2.079782856,1.718421064,1.264671045,2.43256314,4.61773679,3.235456168,46.07000041,0,60.50999928,55.97210474,3.436842128,10.11736836,67.31736801,23.15894711,100.2847377,20.21189387,22.87583466,19.10112302,21.34036575,17.85876091,19.83818451,18.50479945,15.9975398,17.29687983,27.80677426,30.50400009,32.06010812,34.2138269,34.93842035,34.86282896,34.62455114,33.33373696,32.80003392,13.8351613,16.55600014,19.35906305,20.32019684,22.9621054,21.76434208,22.04984942,22.29670187,20.14649938,13.32566871,15.60302283,17.72531793,18.78372546,20.36638125,19.89190838,19.9091667,19.70080105,18.42340329,1,1,1,1,1,1,1,1,33.717295,-83.3110275,2016,GAH2
TX951/LH195,GAH2_2016,N,12.15,731.1212129,0,2,244.5,227.5,56,54,1.486129045,0,7.316392826,2.079782856,1.718421064,1.264671045,2.43256314,4.61773679,3.235456168,46.07000041,0,60.50999928,55.97210474,3.436842128,10.11736836,67.31736801,23.15894711,100.2847377,20.21189387,22.87583466,19.10112302,21.34036575,17.85876091,19.83818451,18.50479945,15.9975398,17.29687983,27.80677426,30.50400009,32.06010812,34.2138269,34.93842035,34.86282896,34.62455114,33.33373696,32.80003392,13.8351613,16.55600014,19.35906305,20.32019684,22.9621054,21.76434208,22.04984942,22.29670187,20.14649938,13.32566871,15.60302283,17.72531793,18.78372546,20.36638125,19.89190838,19.9091667,19.70080105,18.42340329,1,1,1,1,1,1,1,1,33.717295,-83.3110275,2016,GAH2
LH82/PHB47,NEH1_2015,Y,14.2,791.6189189,0,2,230,110,65,51,2.959062506,0.753999996,4.745632833,2.187040691,0.179999996,3.601448917,1.548000793,0.057812502,1.589214364,94.69000018,3.769999981,46.84999943,63.50812512,0.239999995,39.12187557,55.49499987,0.586250016,47.85812447,19.07194562,25.84699936,20.00593662,19.96245842,20.96463704,17.86296284,18.31175333,17.30405645,12.3794141,23.74906254,30.51399994,29.13009987,30.74148671,30.73750019,28.43858622,29.13031746,26.88374984,20.12342532,13.19218739,15.46999989,18.04036499,19.18092822,19.11281252,17.33248289,15.92131484,11.1533021,6.525200269,11.64481375,15.25955733,15.68336601,16.96891106,16.93845514,15.07345461,14.95183393,12.01070089,8.15887847,0.924598212,1,1,1,1,0.96969665,0.982957588,0.758540943,41.290979,-96.41664325,2015,NEH1
CG44/CGR01,NCH1_2018,Y,16.9,731.1212129,0,1.5,238,115.5,55,54.5,4.157741868,0,6.852651043,4.101575565,0.281428576,2.753968325,7.265916583,9.606714405,8.963617552,128.8899979,0,78.76714403,125.545715,0.410714286,22.4842863,196.6735732,49.18571489,277.8721441,19.15814344,24.86455965,15.13897653,19.38558293,23.18458939,19.6068393,18.38664919,15.55735787,15.52161696,22.42709686,23.6650002,25.05504787,28.99162569,32.21999972,32.77589287,33.41271207,32.57228504,30.53730396,9.272903273,8.262500107,16.63082339,19.21430847,20.43714251,21.48106165,22.41052549,22.8214047,21.52269578,9.383610038,9.710722454,13.07063738,16.1524193,18.32857112,19.12847726,19.83450897,19.67052049,18.05632483,0.990449307,1,1,1,1,1,1,1,35.6667825,-78.492372,2018,NCH1
TX779/LH195,NCH1_2019,N,15.525,763.9444363,0,1,219.1875,102.8125,62.25,61.25,2.191129027,0,0.107342031,4.775073233,0.466011907,4.533660718,6.24100048,2.370892844,2.941295675,67.92499983,0,1.347142833,143.4146411,0.94178571,36.26928575,165.0100003,13.54249993,91.02821354,18.69452832,25.30126673,21.77382428,19.07893176,22.56876209,20.7892765,19.22903807,18.96679552,16.71087377,25.69580629,28.76666609,32.29891346,30.08294473,33.3002377,33.83080339,32.75741781,32.04927549,30.79691829,13.34274195,12.19133326,19.06280588,18.61089734,20.56851188,21.23558053,21.08131414,19.9046464,19.77832645,12.18436683,13.33597385,17.64216348,16.39126772,18.88342746,19.44075481,18.8247811,17.98080212,17.31161093,1,1,1,1,1,1,1,1,35.67010175,-78.510504,2019,NCH1
PHN11_PHW65_0323/LH195,NCH1_2016,N,15.35,731.1212129,0,2,201,107,65,64,2.901562452,3.125714166,7.137907935,4.683034439,4.3177271,0.863030289,5.226283407,5.104181825,4.507668668,92.84999847,21.87999916,91.86318315,160.7736342,8.497726928,8.495454409,139.9318182,26.12772732,139.7377287,16.36857818,22.27138465,15.49498623,18.72849078,21.8793198,21.8664799,18.529992,18.05675722,17.32656161,20.86125001,25.58571407,25.68946269,27.1054564,30.20318166,31.0559697,32.42423852,33.59766701,33.26035177,7.692187494,8.212857212,14.27003911,16.07300028,18.02681784,18.80169681,21.2796372,22.62190931,22.7218182,8.383421821,10.43985322,12.46468669,13.95599298,16.17160042,16.99727481,18.83160592,19.980567,19.86697781,0.913761163,1,1,1,1,1,1,1,35.30015175,-77.57127825,2016,NCH1
PHW52/PHM49,MOH1_1_2020,N,13.93333333,731.1212129,0,0.333333333,231.3333333,92.33333333,60,57.33333333,2.765624954,8.119999743,10.49656654,1.909885915,5.802857127,7.415295831,3.691475556,2.293301892,3.400930865,88.49999854,40.59999871,96.7978566,57.0957143,7.737142835,67.39857156,118.848571,17.52928566,104.715714,18.75466287,21.25211372,22.49923535,20.31658939,20.84622072,17.68630925,18.12476098,17.46293798,14.64158327,22.18656257,30.76999931,28.86546125,30.72469998,30.62226157,31.26253243,28.67352632,29.54480095,24.35225034,12.23093753,19.21800041,17.35636515,20.03188031,19.40511944,21.45309498,18.10676495,17.58972003,12.9136675,10.41798935,16.99399986,15.213465,17.3995364,17.01369051,18.36589209,15.51205264,15.80164337,11.56818364,0.936383936,1,1,1,1,1,0.995985623,0.962870504,38.8978375,-92.2070925,2020,MOH1
PHP02/PHB47,ONH2_2016,Y,18.05,722.7545088,0,2,220.5,81,69.5,65,1.435483875,1.740833327,1.463802716,3.022687524,0.150999999,1.134659085,3.046446673,1.693503778,2.765116665,44.50000012,20.88999993,18.84600039,117.1590009,0.150999999,12.25349994,101.0444998,13.16149993,84.26899996,19.72563927,22.19747464,21.68954048,21.77365896,18.98664827,19.92678304,16.69906166,15.68152671,12.9072029,14.10741935,17.58083336,26.00758685,26.04894451,27.78099985,28.79287246,28.2480382,25.9224786,23.75348014,4.257419363,7.13166666,15.03828811,14.1477789,17.72699971,17.33924119,18.24672102,15.95494667,14.17526013,5.131346137,6.986841243,12.85116395,12.65171997,14.84296497,15.26027205,15.31782021,13.26534606,11.67621189,0.511244241,0.799851209,1,1,1,1,1,0.975829282,42.4530035,-81.88279875,2016,ONH2
B97/PHB47,NEH2_2015,N,12.6,777.4598813,0,0.5,229,110,94,92,1.358750008,3.755999994,3.031264216,1.286090902,0.286666671,1.657187527,3.751759362,0.157499999,0.616713691,43.48000026,37.55999994,66.29000026,43.49999976,0.860000014,16.57187527,117.6431233,0.944999993,18.99062441,19.53783247,19.98656282,18.8528682,23.65152674,23.21232343,22.7312118,19.62767813,21.61948185,18.20728239,15.03874992,23.15200024,18.66927583,30.14561768,32.37510385,32.60862507,30.36489819,32.31320816,28.31448706,-2.426562488,5.230999994,5.264051067,13.5723423,16.5714581,16.13087479,15.9646131,15.56819047,11.19634675,4.192485347,8.478296732,6.894904354,14.37610508,16.560328,16.47008009,15.3434088,16.05261291,12.83173005,0.519497764,0.97653572,0.809891265,1,1,1,1,0.922021698,41.0514495,-100.7471915,2015,NEH2
F42/OH43,GAH1_2015,N,13.15,764.5880289,0,3,190,80,62,58,4.231249915,0,5.95843649,3.852603143,2.594000032,2.429925956,4.217759372,2.225466652,2.667397826,135.3999973,0,82.56599903,137.5619979,4.851333332,21.8693336,117.5779999,11.12733326,82.68933261,16.59936112,21.58269278,19.11661296,20.61616366,14.5260024,17.86473659,19.792993,19.1551459,18.46432438,25.43281227,26.81500022,26.00854227,27.82657943,29.9603331,30.57562955,31.8228303,33.58693334,33.75221527,12.50374998,10.5999999,12.24448314,13.90452364,20.76811106,20.25348139,20.64254904,22.17719986,22.29090342,11.85447967,11.72664631,11.94062668,13.41492991,17.36422208,17.41455547,18.23714923,19.83066815,19.89653894,0.988973219,1,1,1,1,1,1,1,31.505771,-83.555095,2015,GAH1
B97/PHB47,NEH3_2015,N,13.65,783.8958075,0,1,229,110,63.5,62,3.231250057,0.918000031,0.565093977,1.286692195,3.19749999,1.391136354,0.258061221,1.474667183,0.155891338,103.4000018,4.590000153,6.150000095,39.04749978,4.720000029,15.30249989,11.17999983,14.52874985,4.648125023,21.79127574,25.69442635,22.86725485,21.82271665,15.26317632,20.59079,20.06412842,16.27968968,13.53861776,24.28750017,32.64599991,30.58771447,32.67731329,28.91593772,29.87238656,30.80707127,25.39031645,21.32018275,9.278749934,13.0079998,13.8828633,15.7826582,17.05531204,14.62710229,13.18313307,8.87540479,3.334017086,10.46257825,15.28330691,14.45465852,16.22005678,15.0938879,14.496454,14.53020136,10.90039565,7.851747396,0.909587052,1,1,1,1,0.965712824,0.862507779,0.80953931,41.15824525,-101.9872958,2015,NEH3
PHP02/PHB47,WIH2_2015,N,28.45,772.3111404,0,0,236.5,118.5,65,64,3.126774188,2.655000041,4.103605878,5.336067251,1.868823528,3.142847566,3.066358713,6.463272165,3.426278957,96.92999983,15.93000025,53.58117651,186.0694135,5.435882344,36.03705852,132.4747064,52.80117733,103.4994124,19.63646212,20.57311455,21.5892617,21.07111177,18.36300238,19.20517036,18.54583572,13.68038168,11.37476292,15.6409678,24.97666677,26.11823115,28.09529077,27.51588227,27.91298604,26.4469062,23.95331443,17.63645543,3.355806466,13.62666686,13.88922494,15.17788174,17.2276475,16.92946091,13.73434519,12.63733902,6.343913375,5.370860554,11.93138906,12.65256426,14.04290221,14.43586033,14.57588984,12.76646014,11.49482956,7.023163717,0.588214292,1,1,1,1,0.979783322,0.914260835,0.715230077,43.3264485,-89.33359975,2015,WIH2
2369/LH123HT,NCH1_2019,N,14.875,760.7264732,0,1,226.6875,104.375,61.25,60.75,2.191129027,0,0.107342031,4.775073233,0.466011907,4.533660718,6.24100048,2.370892844,2.941295675,67.92499983,0,1.347142833,143.4146411,0.94178571,36.26928575,165.0100003,13.54249993,91.02821354,18.69452832,25.30126673,21.77382428,19.07893176,22.56876209,20.7892765,19.22903807,18.96679552,16.71087377,25.69580629,28.76666609,32.29891346,30.08294473,33.3002377,33.83080339,32.75741781,32.04927549,30.79691829,13.34274195,12.19133326,19.06280588,18.61089734,20.56851188,21.23558053,21.08131414,19.9046464,19.77832645,12.18436683,13.33597385,17.64216348,16.39126772,18.88342746,19.44075481,18.8247811,17.98080212,17.31161093,1,1,1,1,1,1,1,1,35.67010175,-78.510504,2019,NCH1
TX779/LH195,MOH1_2_2020,N,18.6625,731.1212129,0,0.25,218.25,111.5,62.125,60.5,2.765624954,8.119999743,10.23533287,1.900197364,6.862941181,7.496322061,3.61617108,2.901626778,3.303786197,88.49999854,40.59999871,96.12411712,56.39411764,8.455882353,68.01117661,117.8082348,21.52705885,101.3270584,18.75466287,21.25211372,22.58999711,20.28617166,20.64270943,17.48834951,18.15902921,17.2011884,14.69335169,22.18656257,30.76999931,28.84882905,30.74339714,30.90558787,31.2308437,28.74780649,29.21697892,24.17436303,12.23093753,19.21800041,17.30516703,20.0610583,19.70343171,21.50444419,18.15153395,17.40346693,12.7162556,10.41798935,16.99399986,15.18178367,17.42227064,17.30450979,18.37429674,15.5665539,15.53509051,11.41105442,0.936383936,1,1,1,1,1,0.996694042,0.965786214,38.8958275,-92.2071575,2020,MOH1
PHB47/PHZ51,MNH1_2015,Y,15,722.7545088,1.5,7.5,244,123.5,77,75,2.676451665,6.10285713,1.587216104,4.707726326,2.093823531,4.685775359,5.935015669,2.223261507,2.198788145,82.97000162,42.71999991,19.59000013,155.007059,3.965294123,52.23235247,227.0947085,20.90117698,67.40117758,19.81693462,15.87546921,21.62818458,20.65236193,17.21434565,21.12123323,17.7408483,14.5374504,12.06297535,17.43387093,22.63000025,27.28921799,28.46423671,28.36529418,28.07899716,26.14089523,24.73259507,17.90095705,4.567419307,13.73428563,14.30007362,16.89716897,18.65411764,16.19745995,14.75643511,13.57280729,6.634647692,6.2838161,10.87437977,13.26905608,14.87023808,15.64114514,14.35392043,12.99006372,12.46836687,7.55733068,0.722983866,1,1,1,1,0.977703003,0.878626049,0.721229646,44.07038575,-93.53519625,2015,MNH1
PB80/PHZ51,IAH2_2017,Y,14.95,753.6469545,0.5,26,230,117.5,65,64,2.991935476,4.003749907,5.594154361,1.824159742,2.965909053,1.138616173,3.544395797,5.525860929,3.224964342,92.74999976,32.02999926,86.83999968,64.74363607,5.880909015,11.03545466,133.6850016,39.36636487,98.02272796,18.91811151,22.03083944,18.39067038,21.91300981,21.59707026,21.00058551,18.76246256,16.50136756,14.56336975,16.70258062,25.25375009,21.16444029,28.78792803,31.34295403,31.03890899,27.79230679,26.54138994,25.01808603,3.836129038,9.060000002,9.836484062,14.72352594,17.1804546,18.00485339,15.61890002,13.9478747,12.25710857,5.884356407,10.52058178,9.325556586,14.19611432,16.29393371,16.57150033,14.05801276,12.73803514,11.57992501,0.659274195,1,0.882113053,1,1,1,1,0.976890029,42.06582876,-94.72050129,2017,IAH2
PHN11_OH43_0001/PHB47,WIH1_2016,N,18.95,719.5365458,0,4,250,119,72,71.5,2.076129018,1.94750002,4.430291291,4.068377178,0.606590927,8.204471101,6.520888551,7.285801826,4.413191112,64.35999957,23.37000024,50.66818307,153.9786358,1.017727305,87.41727302,222.4604529,58.95590957,134.9268184,19.92805462,20.9108026,19.53546339,20.65690042,18.97296773,19.76360502,17.50876714,15.21370917,12.23883056,16.70258062,17.57583312,27.08182728,26.49130857,27.22159082,28.35833875,27.6700069,25.1458901,22.98674642,3.327419363,4.990833327,14.04723809,14.47423798,17.58636334,16.7186736,17.17399145,14.32051147,12.5735533,5.875866612,6.419508974,12.98865398,12.92924289,14.50224274,14.72651534,14.55658067,12.23924581,10.7486024,0.621198161,0.7653869,1,1,1,0.999967803,0.998306277,0.970976554,43.05632525,-89.53194975,2016,WIH1
LH74/PHN82,NEH2_2015,N,13.45,774.2419182,0,0,229,110,92,92,1.358750008,3.755999994,3.031264216,1.286090902,0.286666671,1.657187527,3.751759362,0.157499999,0.616713691,43.48000026,37.55999994,66.29000026,43.49999976,0.860000014,16.57187527,117.6431233,0.944999993,18.99062441,19.53783247,19.98656282,18.8528682,23.65152674,23.21232343,22.7312118,19.62767813,21.61948185,18.20728239,15.03874992,23.15200024,18.66927583,30.14561768,32.37510385,32.60862507,30.36489819,32.31320816,28.31448706,-2.426562488,5.230999994,5.264051067,13.5723423,16.5714581,16.13087479,15.9646131,15.56819047,11.19634675,4.192485347,8.478296732,6.894904354,14.37610508,16.560328,16.47008009,15.3434088,16.05261291,12.83173005,0.519497764,0.97653572,0.809891265,1,1,1,1,0.922021698,41.0514495,-100.7471915,2015,NEH2
PHG29/PHG47,ARH1_2016,N,15.65,798.6984376,0,3,156.5,97.5,65.5,64.5,12.62656226,6.052222146,7.859593922,4.411032368,3.769999921,0.095833332,1.834913509,2.950363528,2.931715563,404.0499923,54.46999931,101.1431819,160.496816,7.539999843,0.824999988,46.86636396,14.75181764,90.88318244,16.40757677,14.40289243,17.41332625,19.31399891,17.48165414,22.15918181,19.7781726,18.25208951,17.22596404,20.37124979,20.08666674,25.25253507,26.30445415,29.50681779,32.27019592,33.22074717,33.17606868,32.75999986,8.53968759,10.04999993,14.84655054,15.67568893,20.10318184,20.90335237,23.01320039,23.46584116,23.35664232,8.376579132,8.623890092,12.4075181,13.38568101,16.80499981,18.57005087,20.09384313,20.24603027,19.89808151,0.932198657,0.999841266,1,1,1,1,1,1,34.72952,-90.7603555,2016,ARH1
PHG39/PHN82,KSH1_2018,N,15.25,792.2625115,4.75,2,229,110,65,64,0.123225804,1.309000027,2.835063753,1.245921432,6.190769489,0.847777789,5.121826591,3.691923017,0.576771715,3.819999933,13.09000027,33.35999966,37.39923182,6.190769489,7.630000105,140.8584615,22.1515381,17.82230777,23.1370286,19.20606413,23.76917973,25.01946837,21.72317813,23.99633906,18.76579115,18.12170014,19.24157322,22.75709664,20.771,27.08892973,34.13484851,36.79923102,35.27700868,33.17677556,30.51957897,31.48973893,3.915806478,6.778999925,10.75682887,16.60383588,18.26846137,18.37008543,18.87125761,16.15291204,15.043086,8.255034949,8.267600828,11.90551203,16.73972083,17.84021903,17.73256873,17.54545708,15.43757555,15.43621363,0.847615199,0.789999991,1,1,1,1,1,0.970122947,37.810107,-100.775188,2018,KSH1
PHG39/PHN82,OHH1_2017,N,17.7,731.1212129,0,2,229,110,65,64,4.401935447,12.29571451,4.299880116,6.252045262,18.36299991,4.892395558,3.195317293,3.431958172,3.794688752,136.4599988,86.0700016,53.63949916,223.8204996,40.86499989,50.26800107,124.097,30.99400014,115.4320013,19.0647902,19.03427505,21.00226491,20.15032754,19.69555429,18.89580098,18.69837911,16.0400155,13.85510684,20.47903239,25.43142836,25.24002704,27.25803818,28.09541678,28.73270468,26.30456447,24.69395371,24.25720733,8.011935501,13.44999967,12.59882409,15.91673102,16.75358336,18.39824095,14.97688189,13.11535887,11.81284403,8.407228033,12.106522,11.63721293,13.8931373,14.6377479,15.63224373,13.07252875,11.66012039,11.13333271,0.85352535,1,1,1,1,0.996926048,1,0.96495674,39.855785,-83.66477375,2017,OHH1
F42/H95,SCH1_2019,N,10.435,731.1212129,7,2,191.77,82.55,57,62,3.522580645,3.026666641,1.832071666,3.15534991,1.497023807,2.439880971,1.838213127,1.715047598,2.162465429,109.2,18.15999985,19.94999987,97.87357193,2.846428582,21.92714303,50.9164284,9.481428444,67.0364283,18.2238054,19.24788825,19.83816148,19.9388592,17.79349522,20.88775084,19.93011295,20.19525604,17.6553152,24.08129043,27.55666669,26.86360264,30.30302253,30.15095266,31.81823454,32.87501498,31.84457125,32.33357145,10.7222581,15.88833332,14.78977791,18.33498627,20.49666657,19.48954379,21.18366564,19.1694286,20.16504603,10.62715993,13.88239503,13.27455789,16.3672742,17.32380961,17.64580353,19.00989067,17.48787314,18.15917061,0.967315668,1,1,1,1,1,1,1,34.62248225,-82.73756775,2019,SCH1
B73/PHM49,IAH1_2017,N,17.7,731.1212129,0,2,229,110,65,64,3.40562493,4.965384584,4.756276119,1.833606587,3.814090996,2.221484887,3.670808328,1.81325484,2.347473118,108.9799978,64.54999959,71.28272616,63.78727258,4.177727374,22.83863677,118.9068186,13.7622725,72.03681816,16.19865167,17.41178014,18.84198651,22.07722619,19.57094626,20.6423577,19.65334879,19.12382584,16.87809105,17.11343735,15.37846162,22.95951679,28.09807267,26.50742381,30.27960591,29.79948923,26.92834941,26.37674051,5.413125027,4.923076978,11.46549016,14.16962528,11.61757578,16.65775237,16.66504091,13.38757222,12.41510662,6.530778339,5.768563812,10.45370215,13.71965113,11.94783378,15.64262598,15.39964617,12.71239892,12.1737806,0.629988832,0.555054952,0.946458762,1,1,1,1,0.998130952,41.19924609,-91.49402296,2017,IAH1
PHG39/TX205,KSH1_2016,N,12.8,776.1726961,0,1,175,90,91,91,0.381562503,5.593749881,9.031136959,3.981909994,0,0.897724769,5.011421387,3.322424253,5.670073263,12.2100001,44.74999905,140.9509078,148.5090918,0,8.374091108,139.438637,19.93454552,175.7722711,18.43315426,14.04582843,18.34613738,20.88446512,22.70328743,20.59441801,18.34986672,18.15379387,17.32510191,19.15124996,21.70124984,22.33901244,27.19377063,36.31272689,35.17540036,32.01078432,33.85633352,30.76895891,2.130625044,11.46499991,9.568238579,14.2621368,21.58727247,22.04353923,20.78061301,22.71134866,19.49139311,6.3158573,9.667291017,9.626890379,13.35418843,19.56599107,19.14397536,18.06824645,19.12054732,17.03744615,0.741573662,1,0.921279778,0.986042268,0.991287871,0.998977631,0.993550002,1,39.14480675,-96.62898225,2016,KSH1
LH212HT/LH195,NYH3_2015,N,20.25,731.1212129,0,0.5,236.5,115,82,83,4.268387075,0,1.234803629,3.315485905,3.744705864,3.708743319,2.034738589,2.091907533,2.160160663,132.3199993,0,17.66999944,111.4647067,9.843529393,38.42352946,75.35117763,21.49235322,65.37235311,20.95885717,21.76160183,22.01003167,20.47654391,19.37507164,18.84800849,18.09954582,14.25866518,12.17165493,15.21516129,28.41399994,23.9726608,27.94852153,28.22411762,29.00645443,26.88612691,22.65429039,19.02039094,3.206451565,16.00799999,11.62235867,15.61032629,16.7502941,17.72633694,14.88804443,11.60832066,7.356588233,5.349626667,14.38734971,10.95773449,14.17183136,14.61937489,15.41213998,13.31670354,10.34569698,7.707711279,0.504331792,1,0.97267375,0.996219796,1,0.995345527,0.95775528,0.812032548,42.7233625,-76.6555945,2015,NYH3
W10001_0022/PHB47,GAH2_2016,N,12.05,731.1212129,0,2,247,203.5,50.5,48.5,1.486129045,0,7.316392826,2.079782856,1.718421064,1.264671045,2.43256314,4.61773679,3.235456168,46.07000041,0,60.50999928,55.97210474,3.436842128,10.11736836,67.31736801,23.15894711,100.2847377,20.21189387,22.87583466,19.10112302,21.34036575,17.85876091,19.83818451,18.50479945,15.9975398,17.29687983,27.80677426,30.50400009,32.06010812,34.2138269,34.93842035,34.86282896,34.62455114,33.33373696,32.80003392,13.8351613,16.55600014,19.35906305,20.32019684,22.9621054,21.76434208,22.04984942,22.29670187,20.14649938,13.32566871,15.60302283,17.72531793,18.78372546,20.36638125,19.89190838,19.9091667,19.70080105,18.42340329,1,1,1,1,1,1,1,1,33.717295,-83.3110275,2016,GAH2
PHP02/PHB47,IAH3_2015,Y,17.4,716.9621753,3,1,272,138,65,64,1.888124991,2.913571392,3.784813995,6.971928843,0,3.257500064,1.487385228,2.541446469,4.507444947,60.41999972,40.78999949,55.43999982,241.6600003,0,32.57500064,50.31437471,24.68500039,138.7756267,19.80172794,20.03998334,15.9141292,20.68283491,21.69136486,21.24428636,20.63784564,18.68301758,14.92198489,14.64187506,16.6814285,21.6371088,27.61372247,30.87885427,30.3035625,28.596254,28.51656267,24.33389908,0.83250004,3.600714236,12.24542872,16.05178152,19.47364565,18.11006255,15.99319583,14.30373217,10.64901215,4.605131548,5.787499831,10.11465775,14.1164012,17.17624996,16.25391669,14.57670766,13.97583386,10.87542788,0.501462055,0.634540813,0.981270753,1,1,1,0.968879463,0.933929792,41.97585629,-92.24291804,2015,IAH3
LH74/PHN82,MOH1_2017,Y,17.7,731.1212129,0,2,229,110,65,64,8.937741737,9.40166688,2.512230721,3.318030003,5.035714369,1.794490762,1.996986524,1.220079397,1.67255761,277.0699939,56.41000128,33.26619119,103.9014299,11.93095259,15.87761924,65.30142803,7.334762096,51.25476209,18.72482054,18.08832916,22.62422694,21.00800173,18.77514496,19.93438148,19.70533138,19.36646121,17.34329115,21.92032254,25.32999992,25.47495036,29.30087203,30.46650729,32.25412016,29.92026774,28.22145964,28.04827898,10.06000005,15.27666648,12.99827088,17.39768618,19.78222205,21.21359122,18.70404881,16.33857143,14.9717184,9.612847321,12.76903024,11.94928206,15.49761919,17.12130987,18.67277384,16.20463701,14.48208578,13.92850008,0.915472353,1,1,1,1,1,1,0.999239796,38.89264,-92.2057525,2017,MOH1
F42/H95,OHH1_2015,Y,16.1,780.0342518,0,1,269,132,64,64,4.820000016,2.056666652,1.801667061,2.430255425,2.070588264,2.75488235,3.664772063,1.623969288,1.874022108,149.4200005,12.33999991,20.27235275,82.00588303,2.23529414,26.29176468,128.0200007,12.16764697,57.18411674,17.71339239,20.831882,20.85048625,20.93566426,20.28419298,19.59839119,17.66236547,17.23782846,14.83481447,16.95064511,28.03666687,26.64173705,29.01382079,31.07970569,30.59522857,27.99762273,26.69097183,23.34659959,5.9283871,15.42166694,14.66308043,16.74801267,19.23764672,18.74322206,16.69895781,13.90980629,10.26308727,6.580773377,14.04730329,13.19467995,15.08203889,17.16864649,16.69143216,14.53513226,12.92347397,10.29932856,0.672569122,1,1,1,1,1,0.994932126,0.947361455,39.855785,-83.66477375,2015,OHH1
PHN11_PHW65_0323/LH195,ARH1_2016,N,18.05,776.1726961,0,2,196,91.5,71.5,71,12.62656226,6.052222146,7.859593922,4.411032368,3.769999921,0.095833332,1.834913509,2.950363528,2.931715563,404.0499923,54.46999931,101.1431819,160.496816,7.539999843,0.824999988,46.86636396,14.75181764,90.88318244,16.40757677,14.40289243,17.41332625,19.31399891,17.48165414,22.15918181,19.7781726,18.25208951,17.22596404,20.37124979,20.08666674,25.25253507,26.30445415,29.50681779,32.27019592,33.22074717,33.17606868,32.75999986,8.53968759,10.04999993,14.84655054,15.67568893,20.10318184,20.90335237,23.01320039,23.46584116,23.35664232,8.376579132,8.623890092,12.4075181,13.38568101,16.80499981,18.57005087,20.09384313,20.24603027,19.89808151,0.932198657,0.999841266,1,1,1,1,1,1,34.72952,-90.7603555,2016,ARH1
PHN11_PHG47_0251/PHB47,IAH1_2015,Y,16.15,720.1801384,0,4,259.5,127,65,64,1.566451638,2.213076954,8.402418557,1.323463692,0.084411761,2.297359398,2.93999255,2.37101191,2.732793763,48.56000078,28.7700004,122.1399999,43.52999979,0.168823523,22.82352863,100.1182349,16.67000003,83.81294001,20.43214903,18.85811498,14.63317728,22.31276759,19.14227258,22.20806523,19.83862588,18.33763158,15.0581957,16.08774191,16.64538457,21.84697853,28.7334183,30.26852911,31.30747052,29.05105531,29.39636272,24.66946357,1.839032284,4.865384661,13.12892854,16.86768962,20.05941139,18.05705196,16.3929614,15.43749916,11.17229855,5.447129731,6.098188577,10.48240964,14.99632473,17.16639266,16.72884186,14.96924927,14.77137221,11.30644361,0.593087559,0.682994502,0.988452545,1,1,0.997626801,1,0.896934674,41.9980952,-93.69336973,2015,IAH1
F42/OH43,ONH1_2016,Y,32.95,637.1566908,0,1.5,195.5,110,85,79.5,1.979032247,2.105714291,0.92181366,1.439738287,4.720833318,2.435439396,4.62931563,1.31185227,2.043303741,61.34999967,29.48000008,13.31600007,60.28400005,10.99249999,28.54150001,172.0475013,11.37649985,61.38049932,20.24883872,21.56727634,23.77365349,22.41142308,19.3081847,20.61473607,17.12813691,15.31534219,11.6349499,10.49290321,16.47999988,25.01561457,25.51466922,28.22516696,27.99415914,27.31356147,24.49017951,20.3886015,-0.735806467,3.753571405,10.93050922,11.61184699,15.55325019,14.71775745,15.07244109,12.71620509,9.185787659,3.269306411,5.688768484,11.09209761,11.56175859,14.2216101,13.76399544,13.57642435,11.5133866,8.776899495,0.291105988,0.684668367,0.99891379,0.988093962,1,0.998165816,0.971212584,0.877977401,43.4997965,-80.451125,2016,ONH1
2369/LH123HT,IAH4_2017,N,21.8,709.5608602,8.25,1.75,236,113.25,69.5,67.75,3.054193612,4.63857133,5.654282844,2.356146022,0.145000003,0.823262634,3.029939984,2.506485397,3.022032747,94.68000197,32.46999931,92.55000019,79.81000018,0.290000005,7.931363713,110.0431818,17.65818187,91.79227275,19.60434628,22.37855189,18.81628808,21.46940114,22.42332305,21.26952374,19.1513695,15.94205759,15.34138578,17.83935482,25.21428544,21.76755785,28.88340452,30.88984893,30.99338411,28.30609907,26.26622464,25.93438806,4.952580655,10.13999993,10.24708413,15.02150207,17.47128796,18.07608078,15.80662465,13.87026602,12.51354651,6.575243948,10.82301274,9.649960621,14.3656457,16.22810104,16.57398155,14.36597852,12.57546566,12.06214068,0.727396317,1,0.910082199,1,1,1,1,0.987168831,41.99455432,-93.69030947,2017,IAH4
LH195/PHZ51,TXH3_2020,N,10.85,656.4644693,0,2,204.47,67.31,65,64,3.45875001,5.345714297,0.996479651,4.090893152,11.37176514,0.055555557,3.334418123,0.880352915,2.226110039,110.6800003,37.42000008,12.08058808,124.9758839,22.74353027,0.450000013,88.32823513,3.714117541,69.00941121,15.8034201,18.34009743,21.30541133,19.40762275,20.16580067,20.62125497,19.02899565,16.94703156,18.75160362,25.77062485,24.00285694,27.63577502,29.95402965,30.19186265,32.38063702,33.36328143,35.03835301,35.63206825,14.19906271,12.24428552,13.92062761,17.60156859,18.33921522,21.14142164,21.88591696,25.71364726,24.34760913,12.60372436,11.20425028,13.29865333,15.96364287,16.27361839,18.69618421,19.4144726,21.47019646,20.81901077,0.989866069,1,1,1,1,0.99995416,0.999321567,0.998827006,30.53869475,-96.4274175,2020,TXH3
B14A/OH43,MOH1_2_2020,N,19.28,731.1212129,0,2,247.8,108.6,56.6,56,2.765624954,8.119999743,10.23533287,1.900197364,6.862941181,7.496322061,3.61617108,2.901626778,3.303786197,88.49999854,40.59999871,96.12411712,56.39411764,8.455882353,68.01117661,117.8082348,21.52705885,101.3270584,18.75466287,21.25211372,22.58999711,20.28617166,20.64270943,17.48834951,18.15902921,17.2011884,14.69335169,22.18656257,30.76999931,28.84882905,30.74339714,30.90558787,31.2308437,28.74780649,29.21697892,24.17436303,12.23093753,19.21800041,17.30516703,20.0610583,19.70343171,21.50444419,18.15153395,17.40346693,12.7162556,10.41798935,16.99399986,15.18178367,17.42227064,17.30450979,18.37429674,15.5665539,15.53509051,11.41105442,0.936383936,1,1,1,1,1,0.996694042,0.965786214,38.8958275,-92.2071575,2020,MOH1
CG119/CG108,MOH1_1_2018,N,15.73333333,731.1212129,0,13,184.3333333,84.66666667,47.33333333,45,4.419032262,0.120000001,6.56660792,4.995913726,0,0.865952386,4.867908623,7.318145406,3.629241153,136.9900001,0.840000004,71.60142667,150.6285707,0,7.793571472,145.6157139,39.85928573,112.0157138,18.39395777,18.46565301,20.1607481,20.70593221,19.87326009,21.97749135,18.06982858,17.46468943,16.31914076,19.5254839,22.76714298,27.16554273,29.60936822,31.6271427,32.32420578,29.51628185,29.85375934,27.04843165,7.99741943,14.14714282,16.43732974,18.81172612,21.79964249,20.71007941,19.44316189,19.21155699,15.91814144,7.992986492,11.1555316,14.00535673,16.26359619,18.7133926,18.51714259,16.54699664,16.60044059,13.86670431,0.872361758,1,1,1,1,1,1,0.995607144,38.89791675,-92.20952075,2018,MOH1
PHW52/PHM49,NYH1_2017,Y,17.7,731.1212129,0,2,229,110,65,64,4.758709581,4.139999986,2.953024942,5.715506232,4.320872878,2.701732063,2.616328443,1.022630585,3.614268439,147.519997,37.25999987,45.12618999,219.9223815,11.26857107,35.6957141,128.4247627,13.30476207,110.8900009,18.97444351,17.81005277,22.0763727,19.38397475,18.56141379,19.22534974,16.71382568,13.43506643,9.037548332,17.06967752,20.23333359,22.7745171,25.66488699,26.70396817,25.32691524,23.26007272,23.96840526,17.61119819,5.964193534,10.19,10.93717632,15.20362294,16.36293638,14.60656728,11.31793404,11.56685323,6.669544781,6.641127344,8.727253675,10.15270493,12.79474615,13.71935226,12.37567782,10.45035179,10.9124923,7.239151369,0.685760371,1,1,1,1,0.982493678,0.953634339,0.701363064,42.72880835,-76.6515625,2017,NYH1
F42/H95,INH1_2018,Y,21.135,883.5239446,0,2,253.5,125,64,62.5,2.767096756,4.68454543,2.7337539,2.608245307,0.180000007,3.094468228,3.412660528,0.546071422,1.653962344,85.77999943,51.52999973,31.28214284,86.61642764,0.256428582,29.52071404,116.6621433,3.926428522,50.80214219,18.97651723,17.84080185,18.4751702,21.91502565,21.1577316,19.53552192,18.82147066,19.16946561,15.73843824,16.02451609,18.1199998,25.33039297,28.95851984,31.36964308,31.15694425,28.16765345,28.4284546,26.00206774,3.260645186,6.861818249,15.08608447,16.0398559,19.18499974,18.88806934,16.73005964,15.8360335,13.18834038,5.572938243,7.259226835,12.75390782,14.76719288,17.27732141,17.05840253,14.63863294,14.40004061,12.39915253,0.613732714,0.707012975,1,1,1,1,1,0.979968538,40.4787825,-86.9898145,2018,INH1
PHW52/PHN82,ILH1_2016,N,15.425,726.6160645,0,2,250.25,124.5,73.75,72.25,2.976905237,4.388409027,2.266536067,5.61207631,2.384848472,3.596551307,3.312350719,4.357499975,4.793790319,93.71999985,46.35499933,33.46068128,180.4177266,4.628863606,41.73386359,104.1413657,28.32431801,148.2020453,18.82488241,16.77241452,21.32061235,20.18653607,20.74234538,18.07981042,18.8666989,17.85818253,16.07680721,18.05081144,19.20204525,23.0422997,29.42292662,27.90308728,26.97317812,29.60218573,29.15938829,28.17592877,4.960040295,8.531272602,10.4507586,17.10049505,15.99717794,16.84881478,19.41054858,18.84383108,17.09740687,6.781235125,7.969267807,10.17119166,15.41614171,14.29579798,14.15384892,16.51995977,16.04951253,14.84458937,0.666766271,0.897956159,0.946860721,1,1,1,1,0.999883117,40.0607245,-88.2338815,2016,ILH1
LH195/LH82,MOH1_2016,N,17.675,731.1212129,0,2,206.25,101.25,58,56.5,2.465483877,8.058000231,0.264259377,6.282521268,1.94553035,9.25680559,4.358907121,3.354664451,5.453130527,76.43000019,40.29000115,2.879999995,172.8372758,4.262727369,83.20363667,125.2090916,21.13363606,168.2240918,20.2309363,16.93509369,22.49829557,20.20959989,18.68177986,19.21408964,18.0090922,17.17714413,15.87534947,21.83193548,27.56600037,27.88644765,31.21215235,30.25795442,31.2505745,30.57423065,29.80077912,28.25339236,10.073871,16.74400005,16.26474463,19.86215984,19.98371223,20.49117413,20.76153791,19.91431794,17.56318368,9.497798547,14.24343349,14.21296425,17.47336946,17.12232598,17.8699151,17.65104862,16.90998551,15.09561117,0.937315665,1,1,1,1,1,1,0.999442641,38.8955475,-92.2072025,2016,MOH1
LH212HT/LH195,DEH1_2017,N,20.35,713.1006196,0,3,245.5,115.5,66,65.5,2.917187458,6.201428686,3.00780289,3.517983876,1.211428521,1.632751291,5.214259368,11.31934688,4.882730708,93.34999865,43.4100008,45.34571489,126.7790489,1.268571377,15.48333303,157.8533328,69.24809492,151.3147631,17.05647962,17.73228645,20.71096481,19.57386043,19.15556694,20.88592809,18.21237176,18.15756056,16.58607394,20.26624998,24.66142872,21.72245043,26.82298965,30.35071437,30.31148162,30.69555299,28.43090921,27.29702356,9.32593758,14.19571427,10.68752201,16.75855213,19.906349,19.88150788,21.21690322,18.72144455,17.91444491,8.690479953,12.08402314,9.787934269,14.12431868,17.15482568,17.14050735,17.94790556,15.63546309,14.74613823,0.907287956,1,0.959736116,1,1,1,1,1,38.67025825,-75.4333645,2017,DEH1
TX951/LH195,GAH2_2020,N,16.375,767.4841957,7.75,28.25,253.25,142,64,62.75,4.57387094,0.441111114,8.353941854,2.596292498,5.733571683,2.103095203,2.179001438,2.485142878,3.918548365,141.7899991,3.970000029,91.39071568,80.77428585,11.41500051,18.92785683,57.71499962,12.42571439,121.4749993,20.66171874,23.27184486,17.58943298,19.5164109,18.75300796,20.35385684,20.26001561,17.11426864,16.01109332,24.32935487,22.81222216,27.25049476,29.76903398,31.23452386,32.73428517,34.13891635,33.4245718,31.64458511,9.683548431,7.437777784,15.07002369,18.41195949,20.46821458,20.95039675,21.2406723,21.91714281,20.83905522,10.34437265,8.95024402,13.55540875,16.15181668,17.85136922,18.84234096,19.40061188,19.58004094,18.23728962,0.993479262,1,1,1,1,1,1,1,33.72355555,-83.30265185,2020,GAH2
B73/MO17,ARH1_2016,N,16.2,792.2625115,0,1.5,192,108,71.5,69.5,12.62656226,6.052222146,7.859593922,4.411032368,3.769999921,0.095833332,1.834913509,2.950363528,2.931715563,404.0499923,54.46999931,101.1431819,160.496816,7.539999843,0.824999988,46.86636396,14.75181764,90.88318244,16.40757677,14.40289243,17.41332625,19.31399891,17.48165414,22.15918181,19.7781726,18.25208951,17.22596404,20.37124979,20.08666674,25.25253507,26.30445415,29.50681779,32.27019592,33.22074717,33.17606868,32.75999986,8.53968759,10.04999993,14.84655054,15.67568893,20.10318184,20.90335237,23.01320039,23.46584116,23.35664232,8.376579132,8.623890092,12.4075181,13.38568101,16.80499981,18.57005087,20.09384313,20.24603027,19.89808151,0.932198657,0.999841266,1,1,1,1,1,1,34.72952,-90.7603555,2016,ARH1
F42/MO17,MOH1_1_2018,N,18.43333333,731.1212129,0,2,219,94.33333333,55.66666667,52,4.419032262,0.120000001,6.56660792,4.995913726,0,0.865952386,4.867908623,7.318145406,3.629241153,136.9900001,0.840000004,71.60142667,150.6285707,0,7.793571472,145.6157139,39.85928573,112.0157138,18.39395777,18.46565301,20.1607481,20.70593221,19.87326009,21.97749135,18.06982858,17.46468943,16.31914076,19.5254839,22.76714298,27.16554273,29.60936822,31.6271427,32.32420578,29.51628185,29.85375934,27.04843165,7.99741943,14.14714282,16.43732974,18.81172612,21.79964249,20.71007941,19.44316189,19.21155699,15.91814144,7.992986492,11.1555316,14.00535673,16.26359619,18.7133926,18.51714259,16.54699664,16.60044059,13.86670431,0.872361758,1,1,1,1,1,1,0.995607144,38.89791675,-92.20952075,2018,MOH1
PHW52/PHM49,OHH1_2018,Y,17.8,756.2213249,0,2,245,109,60.5,62,3.056774178,9.537500136,1.922452157,2.385565957,3.342142727,1.8544286,3.625787622,3.100846839,2.007798001,94.75999951,76.30000108,21.73714328,80.43785755,3.342142727,18.544286,121.7649994,22.15357072,61.29071423,19.31095449,14.64635724,20.72885596,20.94366931,19.27592959,20.95649317,17.99811894,17.37176276,15.4204415,15.33419351,20.99500024,26.65036435,28.81994394,32.41071347,30.66092864,28.53085842,26.94730604,24.73435724,3.376129027,12.14624989,14.55931522,16.57316253,19.49428545,18.47499986,17.24720124,15.03980618,12.05347394,5.35712311,9.832246518,13.13485159,14.9051591,17.95401161,16.59941793,15.03822312,13.39555861,11.48513665,0.534285712,0.926785712,1,1,1,1,0.999125,0.970735544,39.85688825,-83.671225,2018,OHH1
PB80/PHZ51,ARH2_2017,N,16.9,731.1212129,0,2,187,74.5,64,63.5,2.789999995,15.83285686,4.776016413,2.853949028,1.142500003,5.651818152,3.905948255,2.4430325,4.688621725,89.27999985,110.829998,61.6427269,88.95863769,3.003181826,52.42863608,105.2449988,13.33772746,145.3472735,17.14489296,19.09436907,20.93439511,19.65670258,19.84409681,19.1211903,18.81176407,19.65259997,17.546866,23.65656266,24.55142866,25.38541455,28.9612549,32.40098458,30.84565692,31.84241473,32.83627249,30.20087953,12.07343751,12.16142872,12.7110645,18.0477898,21.78734854,20.24410098,21.87781566,22.25639174,20.26112908,10.83878158,11.22094165,11.88579938,15.62584547,19.09416656,17.54487895,18.8103181,19.27693671,17.25265116,0.991674107,1,0.97315368,1,1,1,1,1,35.67418125,-90.0752695,2017,ARH2
B73/DK3IIH6,NYH2_2017,Y,17.43529412,729.6825941,0.235294118,2.941176471,235.4705882,114.1176471,65.88235294,65.17647059,4.985806354,2.593333337,3.453715005,5.89688957,0.948070192,3.208418109,2.379655727,2.694333021,3.397972982,154.559997,23.34000003,55.2357889,222.9889478,1.763157895,41.81263091,117.7794744,23.637895,104.1910535,18.91896409,18.22902181,21.62310913,19.28169434,21.2024166,18.91678159,16.97406986,13.88043676,9.439494818,16.54903238,19.80111122,22.34881997,25.65461899,27.16105275,25.3148988,23.28803047,24.25146582,18.24460841,5.239677404,10.2422222,10.55939387,15.21770316,15.87359667,14.84504335,11.5614249,11.15398494,7.352427253,6.267898103,8.570747831,9.793885142,12.80097944,13.68904673,12.46138399,10.55155578,10.87663924,7.688896934,0.638917053,1,1,1,1,0.981507475,0.966916282,0.722284214,42.73248125,-76.65275025,2017,NYH2
PHW52/PHM49,ILH1_2018,Y,15.1,751.072584,0,2,223.5,97.5,61,58.5,4.93870967,7.677000022,2.588106254,5.605117571,0.281428576,3.456349163,4.202656593,1.004543384,2.183824858,153.0999998,76.77000022,33.4678576,176.7721435,0.281428576,32.73642816,135.7042854,6.586428666,67.2342849,18.91812334,19.3164753,20.10278531,22.12028957,18.91592986,20.16297878,19.11980649,19.09856314,16.2127272,15.99580652,18.50399971,25.32625123,29.19453127,30.85535676,31.83740471,28.20358558,28.86124239,26.43877647,3.618387117,7.573000085,14.94700907,16.75211974,20.46500043,20.0205478,17.14982155,16.71822788,13.95248539,5.629456993,7.587936205,12.64486739,15.17263993,17.66017859,17.94105007,14.82889519,14.97382886,12.85823928,0.640783421,0.72660713,1,1,1,1,1,0.984431123,40.06300125,-88.2291765,2018,ILH1
F42/MO17,TXH1_2020,N,10.875,743.6712689,0,2,215.265,77.47,69.75,68.75,2.284333333,0,4.613530444,2.949806388,1.362941181,6.741056464,2.844869093,3.829088224,2.301094231,68.53,0,55.97058804,110.7988238,1.362941181,71.52235312,82.32059028,18.97352936,69.29117607,13.91343843,13.3863348,15.08816438,19.79337859,19.48130546,19.24170726,19.77113757,20.7945973,17.91495332,20.02266652,27.17999992,26.60815942,26.52479293,29.39617636,29.12989124,32.2266946,33.03076485,34.59511331,6.794333295,17.20400028,15.2455437,13.65359797,17.29686298,16.61337131,20.73348334,20.06167624,24.24037069,7.901247141,14.27292515,13.38037585,12.76738989,15.58009007,15.11126374,18.39892159,18.53701373,20.50202011,0.821357143,1,0.99243504,0.993791594,1,1,1,0.999042533,30.53781575,-96.4283715,2020,TXH1
2369/LH123HT,GAH2_2019,Y,13.5,748.1764172,0,1.25,252,121.75,63.75,63.5,1.545000002,4.557500124,0.250380961,1.26115813,2.257142884,9.485350662,1.336144097,0.813952387,3.350460841,49.44000006,36.46000099,3.755714417,38.36428595,2.257142884,98.62571442,36.52428579,4.78428575,103.8642861,18.18435833,18.19265985,22.8847832,21.24247432,23.3434718,16.19739035,20.40643492,19.78647718,19.94823177,21.36937484,23.13125002,27.34691779,30.77499698,32.53285762,28.60028574,32.70957317,33.58714258,33.18838734,7.029687526,9.771250069,11.28150206,17.20030934,17.5714283,19.08651926,20.35438482,22.40104739,20.7990781,8.377064876,9.945548605,12.20340126,16.01551644,17.09277291,15.89283108,18.47046504,19.81563867,18.90725155,0.94271205,0.94334821,1,1,1,1,1,1,33.7204165,-83.308125,2019,GAH2
TX714/TX779,WIH3_2020,N,17.575,700.8723599,0,0,289.25,186.5,82.5,80.5,2.733870995,5.446666638,6.112394342,4.74655674,3.655208389,1.04360979,2.527373572,3.69928986,2.61452892,84.75000083,32.67999983,82.9068754,167.6149986,8.003125131,12.58312517,113.8450009,40.74312496,78.93437568,20.41919384,18.2775027,21.33639865,20.40337995,19.49413761,18.99324058,17.80850823,14.15156863,10.1168501,15.48354838,26.52499994,25.39100386,27.30541678,28.00124967,27.24401428,25.77617537,21.78088819,14.67245705,3.106129019,15.18500026,12.31273591,15.12317531,16.14624966,16.31340126,13.17330579,9.92591724,4.431311843,5.287102842,13.2823578,11.70416503,13.61992535,14.28505882,13.97808988,12.29059579,9.657643491,5.630137727,0.571854837,1,1,1,1,0.965668942,0.879609054,0.560799012,44.115703,-89.54491325,2020,WIH3
B14A/H95,TXH1-Early_2018,Y,10.55,754.2905471,0,2,246,94,72,71,2.442333295,0.87833333,4.91741256,2.91095925,1.112321411,5.987347663,3.094033648,2.445309502,2.573656677,73.26999886,5.269999981,55.2178573,113.3721426,4.449285643,64.36357035,86.72785865,13.67714274,77.357857,13.4988633,14.49154552,13.92485348,19.6618496,19.390827,19.64184359,19.38410293,21.21373351,18.01258323,19.68933331,26.95833333,25.66614373,26.56996845,30.24238085,29.14372996,31.91805433,33.2644762,34.51160554,6.357666679,15.03999996,15.13755815,13.69055459,18.24071415,16.44843436,20.63070323,20.50154739,23.97494014,7.613570572,13.40715604,12.87528071,12.79536137,16.34410207,15.0664779,18.21233438,18.75919739,20.40606275,0.821476194,1,0.991620595,0.99408643,1,1,1,0.999013392,30.546318,-96.4329965,2018,TXH1-Early
TX714/TX779,GAH1_2019,N,15.045,733.5025055,29,0,155,90,59.5,59.5,4.224827643,1.980000006,1.908236784,2.106472486,0,0.090714284,5.691865924,1.473428559,3.045620547,122.5200016,17.82000005,22.37999977,72.04999958,0,0.725714275,156.5528547,7.367142797,92.8692846,16.4500471,17.48633936,17.40259385,20.9384506,22.51147406,21.84430948,17.66714436,19.76491442,19.71139218,21.20655165,22.58666695,26.81574745,29.5228407,35.04273814,35.70196446,32.62270198,33.62814315,33.36893722,7.214827602,8.595555623,14.04498416,14.47543411,19.21654783,20.58464301,20.89661115,21.78014287,21.253149,8.370628681,9.274220075,12.91642218,14.40044999,18.67726543,19.28313207,18.63395398,19.63555568,19.18049021,0.90216748,0.984365085,1,1,1,1,1,1,31.50582525,-83.55515025,2019,GAH1
LH74/PHN82,MOH2_2015,N,14.85,731.1212129,0,1,200,95,71,70,3.914838722,3.534545422,2.891676029,5.446623968,2.505882375,1.1137255,5.068586465,0.980448186,4.011119538,121.3600004,38.87999964,35.23176398,173.6929392,5.011764751,10.0235295,148.9223525,6.487058864,124.3447057,19.08701148,18.12534948,17.16717858,21.59629129,16.88945411,20.34516158,18.32895435,19.90608894,16.95494386,18.756129,18.24727275,23.87322904,29.02836507,30.59176479,31.93248319,30.27285599,28.73220747,28.34062618,6.152580692,8.059091026,15.30129973,17.80114352,21.94705907,21.39261428,20.17023127,17.40519331,17.20941189,7.288196993,7.58478923,12.05891064,15.51775091,18.26941193,18.66254873,17.2518739,15.21359182,14.97078901,0.75554147,0.814935086,1,1,1,1,1,1,38.89807917,-92.2079,2015,MOH2
LH74/PHN82,IAH3_2019,Y,22.8,694.4364337,0,0,211,110,65,64,2.879677419,8.325833271,8.514982687,3.930253796,0.537380945,2.3054841,2.306432914,9.350841805,5.38576807,89.26999998,99.90999925,122.1842849,140.4857139,1.612142835,22.50785688,97.56999955,77.30999979,164.0414292,18.1142604,18.14433392,18.34133211,20.20102762,20.30083813,21.10542726,19.14151731,15.03963484,12.83068274,16.60032246,18.1858333,22.24543073,27.09611601,28.60416662,30.1634999,27.59661349,25.62734982,23.13272506,3.497096781,6.015833348,10.94521806,15.70806976,18.18130992,18.44873807,15.55405048,14.14793364,12.04513443,5.803122395,7.048807354,9.977529243,13.7421048,15.43701566,16.36698878,13.8976006,12.43400485,10.94701098,0.634539169,0.718095232,0.926337681,1,1,1,0.9932483,0.897879883,41.97593131,-92.24310603,2019,IAH3
B73/PHN82,NEH3_2017,N,24.55,720.823731,12,2,210,107,65,64,6.03471326,3.955444498,0.18882913,3.842009577,1.316296295,1.435570981,2.764433094,3.912023778,4.15136979,187.076111,38.21611161,1.987222274,117.8244439,3.948888885,12.8655555,93.99333183,27.38611089,126.3194449,18.53150537,21.70326166,24.15860034,20.80931081,18.66603313,19.02487726,18.75887595,17.51813417,15.15718003,20.20137986,23.21257118,30.13389904,30.13339279,32.06462927,32.76776237,28.39622898,27.87449379,27.0242909,7.908297486,10.26215086,15.17879712,16.87891665,20.62425956,20.98993062,16.95054818,15.08081369,13.75654417,8.47748899,10.0955543,14.95078719,15.67969265,18.3413362,18.75248222,14.77642402,13.79312874,13.00111339,0.783510626,0.953819441,1,1,1,1,1,0.993105158,41.162,-96.409,2017,NEH3
B37/MO17,NCH1_2018,Y,15.875,731.1212129,2.5,8.25,219.75,116,54.75,53.75,4.157741868,0,6.852651043,4.101575565,0.281428576,2.753968325,7.265916583,9.606714405,8.963617552,128.8899979,0,78.76714403,125.545715,0.410714286,22.4842863,196.6735732,49.18571489,277.8721441,19.15814344,24.86455965,15.13897653,19.38558293,23.18458939,19.6068393,18.38664919,15.55735787,15.52161696,22.42709686,23.6650002,25.05504787,28.99162569,32.21999972,32.77589287,33.41271207,32.57228504,30.53730396,9.272903273,8.262500107,16.63082339,19.21430847,20.43714251,21.48106165,22.41052549,22.8214047,21.52269578,9.383610038,9.710722454,13.07063738,16.1524193,18.32857112,19.12847726,19.83450897,19.67052049,18.05632483,0.990449307,1,1,1,1,1,1,1,35.6667825,-78.492372,2018,NCH1
PHW52/PHN82,ONH2_2015,Y,26.55,764.5880289,0,0,273.5,127,80.5,80,1.876451608,4.282666683,1.928005431,1.58261263,10.80264742,1.923208582,3.114388399,4.294901914,2.356388962,58.16999984,64.24000025,23.61999965,57.22470651,21.60529484,21.1552944,115.5017658,31.56294079,72.1164696,18.95380112,18.76709785,21.17743809,22.45418875,20.04103015,18.4543581,18.45373918,15.80078253,13.34539525,11.17387095,14.38466663,23.91200153,26.61279381,30.15176526,27.65053462,26.77986929,25.87464046,20.7920557,2.006774224,5.636000033,13.64950245,15.64688346,19.32647026,18.51812829,16.74694623,15.4972221,11.03054456,3.742938436,5.617129505,11.53065914,13.52353119,16.78542678,15.13421866,13.95153495,13.1846932,9.37660249,0.276970043,0.589690475,0.985132406,1,1,1,0.993019959,0.931831119,42.45408625,-81.8816065,2015,ONH2
B73/PHM49,IAH1_2019,Y,24.5,695.0800263,0,6,244,107,65,64,8.157187574,0.75333335,7.315577374,1.144389074,0.212857144,0.731688293,3.103679801,5.185721735,4.918979992,261.0300024,4.5200001,87.30642721,32.26642813,0.212857144,8.04857122,121.5035704,46.39999972,147.9399989,18.01904646,22.72114833,18.53868323,20.84617194,19.20093738,21.91428985,16.4832458,14.23349405,11.00878768,22.30999994,27.52999973,24.52617789,31.4481278,28.63047609,29.47870132,27.11002697,25.00731411,20.46577188,10.93062501,14.96333329,14.91684483,20.02766766,18.36452364,16.34071412,15.67686671,13.06746994,9.592819484,10.11779152,13.58137929,12.09039624,17.73903178,15.5681627,15.08353594,13.70818638,12.14295105,9.387875541,0.879263394,1,1,1,1,0.994329881,0.928985237,0.797752907,41.1992562,-91.4941418,2019,IAH1
LH82/PHB47,WIH1_2017,Y,17.55,731.4430092,0,2,234.25,97.5,74,74,3.894838602,1.694000003,3.49156578,6.251914317,26.29780264,12.3515148,1.782621048,1.031219451,2.019413967,120.7399967,16.94000003,60.77000046,238.2086357,55.48409002,148.2181776,77.27181808,11.13545426,60.74545419,17.96009764,21.56986256,18.71582301,20.73316127,19.69440102,19.58726141,19.1692292,15.69151392,12.21998586,16.03451621,20.2119998,20.22998088,26.71060266,27.00553033,27.16428033,24.80808837,24.03641879,21.845045,3.37838715,6.260000002,9.268565708,14.6662765,15.35575767,16.21109857,13.17589581,11.52521119,9.509429623,5.507434962,7.720411242,8.664602637,13.14891279,13.46068042,13.9043846,11.67856357,10.90146065,9.608265423,0.606900932,0.8735357,0.867893568,1,1,0.998220242,0.971647403,0.89569217,43.05668125,-89.5308135,2017,WIH1
LH195/PHZ51,SDH1_2015,N,23.075,622.6758569,0,0.5,171.75,88,74,74,1.890000034,2.68444448,2.847212523,0.928406021,1.08916667,1.213193166,1.12388612,3.994558873,0.570569385,58.59000105,24.16000032,33.86000057,31.14874977,1.720000006,12.77624983,39.02562428,27.90249949,17.65812508,21.16446504,23.3864585,24.03054242,23.94878495,21.74335716,21.42490048,20.60212775,16.27746828,15.18579983,19.04290341,22.5888888,27.20826416,30.46229654,29.54760476,31.86073879,31.47770382,29.48664523,24.89733582,4.208709664,8.468888919,11.69082143,14.25969647,14.29062517,16.06534098,14.02269822,14.11578116,6.942900096,6.807516906,9.210660666,12.27390437,14.67606113,14.18888263,15.81431879,15.00552731,14.17539039,9.834808296,0.77025346,0.983690483,1,1,1,0.983472358,0.961069402,0.950039755,44.208745,-102.928745,2015,SDH1
B73/TX779,ARH1_2017,N,13.4,601.7590969,0,2,191.15,106.05,72,71,3.058125025,3.532857077,9.871688678,6.405160528,0.516363615,5.988171668,5.119232493,3.102318153,5.34158356,97.86000079,24.72999954,132.0327285,211.6218184,0.569545432,54.36818138,136.8913653,16.08272713,165.5890903,17.13974981,16.55343887,20.38424011,18.76225527,22.81364793,19.06964508,19.53553475,19.77193111,17.12972935,24.60906261,23.96000045,24.77057006,28.06605652,30.35469691,31.5146664,31.30577636,32.78459133,30.91587993,11.9175,14.17857156,11.8445801,17.60850246,18.97249995,21.30615642,21.39979275,22.50533316,21.62237538,11.1639709,11.77578055,11.22655186,14.97537354,16.74359516,18.41041141,18.33049426,19.54768126,18.22457608,1,1,1,1,1,1,1,1,34.7272515,-90.76032575,2017,ARH1
WF9/H95,ONH2_2015,Y,23.55,743.3494726,0,13,286,133.5,80.5,78.5,1.876451608,4.282666683,1.928005431,1.58261263,10.80264742,1.923208582,3.114388399,4.294901914,2.356388962,58.16999984,64.24000025,23.61999965,57.22470651,21.60529484,21.1552944,115.5017658,31.56294079,72.1164696,18.95380112,18.76709785,21.17743809,22.45418875,20.04103015,18.4543581,18.45373918,15.80078253,13.34539525,11.17387095,14.38466663,23.91200153,26.61279381,30.15176526,27.65053462,26.77986929,25.87464046,20.7920557,2.006774224,5.636000033,13.64950245,15.64688346,19.32647026,18.51812829,16.74694623,15.4972221,11.03054456,3.742938436,5.617129505,11.53065914,13.52353119,16.78542678,15.13421866,13.95153495,13.1846932,9.37660249,0.276970043,0.589690475,0.985132406,1,1,1,0.993019959,0.931831119,42.45408625,-81.8816065,2015,ONH2
PHB47/PHN82,WIH3_2020,N,22.85,685.4261371,0.833333333,0.166666667,241.5,112.3333333,65.16666667,62.5,2.733870995,5.446666638,6.112394342,4.74655674,3.655208389,1.04360979,2.527373572,3.69928986,2.61452892,84.75000083,32.67999983,82.9068754,167.6149986,8.003125131,12.58312517,113.8450009,40.74312496,78.93437568,20.41919384,18.2775027,21.33639865,20.40337995,19.49413761,18.99324058,17.80850823,14.15156863,10.1168501,15.48354838,26.52499994,25.39100386,27.30541678,28.00124967,27.24401428,25.77617537,21.78088819,14.67245705,3.106129019,15.18500026,12.31273591,15.12317531,16.14624966,16.31340126,13.17330579,9.92591724,4.431311843,5.287102842,13.2823578,11.70416503,13.61992535,14.28505882,13.97808988,12.29059579,9.657643491,5.630137727,0.571854837,1,1,1,1,0.965668942,0.879609054,0.560799012,44.115703,-89.54491325,2020,WIH3
PHW52/PHM49,ARH1_2018,N,20.55,449.4850837,0,2,179.5,88,63,57.5,6.807499945,4.709999936,2.627776375,4.735912158,3.619166647,6.960178526,4.330437569,0.796285741,3.374677434,217.8399982,32.96999955,35.48928591,145.2942843,5.831428528,62.51428531,109.7978577,4.003571561,104.6150005,17.99706709,21.70226043,20.05949982,19.52680112,21.59397623,17.99264813,18.0574776,19.33215022,18.30424355,21.07062507,24.31857109,24.02168934,29.45279857,31.73095224,30.70692423,32.5717108,33.29521443,31.83741963,10.26718749,12.03571429,12.70205088,18.67412083,19.99154783,20.64677572,22.90335213,23.23585706,21.28834102,9.223277534,11.01036775,11.27832322,16.11267445,17.86206546,17.6775748,19.72770382,20.19469271,18.54368809,0.945725441,1,1,1,1,1,1,1,34.729679,-90.7603455,2018,ARH1
2369/LH123HT,ONH2_2016,N,20.95,730.4776202,0,18.5,261.5,137,76.5,74,1.435483875,1.740833327,1.463802716,3.022687524,0.150999999,1.134659085,3.046446673,1.693503778,2.765116665,44.50000012,20.88999993,18.84600039,117.1590009,0.150999999,12.25349994,101.0444998,13.16149993,84.26899996,19.72563927,22.19747464,21.68954048,21.77365896,18.98664827,19.92678304,16.69906166,15.68152671,12.9072029,14.10741935,17.58083336,26.00758685,26.04894451,27.78099985,28.79287246,28.2480382,25.9224786,23.75348014,4.257419363,7.13166666,15.03828811,14.1477789,17.72699971,17.33924119,18.24672102,15.95494667,14.17526013,5.131346137,6.986841243,12.85116395,12.65171997,14.84296497,15.26027205,15.31782021,13.26534606,11.67621189,0.511244241,0.799851209,1,1,1,1,1,0.975829282,42.4530035,-81.88279875,2016,ONH2
W10001_0022/PHB47,MOH2_2015,Y,13.8,731.1212129,0,3,240,100,68,66,3.914838722,3.534545422,2.891676029,5.446623968,2.505882375,1.1137255,5.068586465,0.980448186,4.011119538,121.3600004,38.87999964,35.23176398,173.6929392,5.011764751,10.0235295,148.9223525,6.487058864,124.3447057,19.08701148,18.12534948,17.16717858,21.59629129,16.88945411,20.34516158,18.32895435,19.90608894,16.95494386,18.756129,18.24727275,23.87322904,29.02836507,30.59176479,31.93248319,30.27285599,28.73220747,28.34062618,6.152580692,8.059091026,15.30129973,17.80114352,21.94705907,21.39261428,20.17023127,17.40519331,17.20941189,7.288196993,7.58478923,12.05891064,15.51775091,18.26941193,18.66254873,17.2518739,15.21359182,14.97078901,0.75554147,0.814935086,1,1,1,1,1,1,38.89807917,-92.2079,2015,MOH2
B37/MO17,MOH1_1_2020,N,17.03333333,731.1212129,3,1.666666667,235.6666667,103,60,57.66666667,2.765624954,8.119999743,10.49656654,1.909885915,5.802857127,7.415295831,3.691475556,2.293301892,3.400930865,88.49999854,40.59999871,96.7978566,57.0957143,7.737142835,67.39857156,118.848571,17.52928566,104.715714,18.75466287,21.25211372,22.49923535,20.31658939,20.84622072,17.68630925,18.12476098,17.46293798,14.64158327,22.18656257,30.76999931,28.86546125,30.72469998,30.62226157,31.26253243,28.67352632,29.54480095,24.35225034,12.23093753,19.21800041,17.35636515,20.03188031,19.40511944,21.45309498,18.10676495,17.58972003,12.9136675,10.41798935,16.99399986,15.213465,17.3995364,17.01369051,18.36589209,15.51205264,15.80164337,11.56818364,0.936383936,1,1,1,1,1,0.995985623,0.962870504,38.8978375,-92.2070925,2020,MOH1
LH195/LH82,WIH1_2017,Y,19.7,730.7994166,0,2,225.75,103.75,70.5,70,3.894838602,1.694000003,3.49156578,6.251914317,26.29780264,12.3515148,1.782621048,1.031219451,2.019413967,120.7399967,16.94000003,60.77000046,238.2086357,55.48409002,148.2181776,77.27181808,11.13545426,60.74545419,17.96009764,21.56986256,18.71582301,20.73316127,19.69440102,19.58726141,19.1692292,15.69151392,12.21998586,16.03451621,20.2119998,20.22998088,26.71060266,27.00553033,27.16428033,24.80808837,24.03641879,21.845045,3.37838715,6.260000002,9.268565708,14.6662765,15.35575767,16.21109857,13.17589581,11.52521119,9.509429623,5.507434962,7.720411242,8.664602637,13.14891279,13.46068042,13.9043846,11.67856357,10.90146065,9.608265423,0.606900932,0.8735357,0.867893568,1,1,0.998220242,0.971647403,0.89569217,43.05668125,-89.5308135,2017,WIH1
B37/H95,INH1_2015,Y,14.9,759.439288,1,10.5,240,114,68,68,2.968064535,5.608750075,2.401797478,2.620596579,1.049062505,3.048312443,3.454130844,1.332533481,1.484370975,92.01000059,44.8700006,26.44312483,85.12437463,1.715625018,30.48312443,116.5724995,9.316249996,45.68062523,19.44608656,13.59046638,21.88315593,21.65689439,20.60130358,19.73326552,18.77560381,17.99738388,15.64927463,15.67580632,21.0562501,27.44396829,29.52449332,32.66781175,30.16981242,28.17317586,28.46934151,25.5406298,3.004516139,13.05249977,15.22068343,16.62214482,19.56843758,18.02818774,16.71489706,16.46563638,12.56847521,5.360930658,9.9438759,13.725819,15.26696414,18.11812466,16.1828721,14.63810214,14.67667849,11.95902497,0.609504607,1,1,1,1,1,1,0.986081101,40.477075,-87.000205,2015,INH1
PHP02/PHB47,MOH1_2015,N,14.2,731.1212129,3,0,200,75,72,71,3.914838722,3.002727248,2.7038834,5.646226268,2.268750012,1.183333344,4.736744086,1.740401796,3.666491943,121.3600004,33.02999973,34.41999933,178.8712478,5.868750036,10.6500001,140.2618746,11.88312507,113.6612502,18.81846694,18.88703156,16.92919735,21.70591481,15.72154266,19.94530069,18.47422179,20.12873028,17.02653892,18.28451609,18.00181831,23.77805456,28.93028285,29.85593748,31.76118019,30.42140763,28.58050013,28.43143147,5.857096827,7.500000065,15.21487777,17.6487962,21.67281234,21.45979159,20.28182538,17.09899995,17.28669369,7.068544315,7.302193139,11.97142579,15.39796361,17.76437491,18.61048589,17.380694,14.99182695,15.05317439,0.723283405,0.814935086,1,1,1,1,1,1,38.8965375,-92.20800417,2015,MOH1
F42/MO17,ONH2_2019,Y,38.05,630.2058905,6,16.5,266.5,128.5,59,57,3.148749955,1.707142813,2.884788786,4.447732757,0.559615387,2.381315681,1.591062148,2.963873616,2.693056068,100.7599986,11.94999969,28.24076917,155.5976948,1.398461539,27.51692318,83.67846091,41.8892306,82.50307587,19.66548085,22.32332843,21.1459014,19.53903082,19.21471346,16.24443645,13.80926932,11.15414419,7.415876262,21.25437486,24.3300002,28.12065395,27.65940311,26.58807711,26.0777262,22.19925608,19.8977064,9.549499144,11.33624993,14.43999985,17.94791472,17.45486711,16.31807709,16.95925516,13.13253797,10.95349597,1.834706344,9.515816833,11.92539607,15.12217856,14.69848405,13.62366511,13.69445237,10.64536319,9.344594814,3.453371008,0.985803572,1,1,1,1,0.93986372,0.838029257,0.289255913,42.45221275,-81.881844,2019,ONH2
B37/H95,IAH3_2019,Y,25.1,702.8031377,6.5,1.5,237.5,122.5,65,64,2.879677419,8.325833271,8.514982687,3.930253796,0.537380945,2.3054841,2.306432914,9.350841805,5.38576807,89.26999998,99.90999925,122.1842849,140.4857139,1.612142835,22.50785688,97.56999955,77.30999979,164.0414292,18.1142604,18.14433392,18.34133211,20.20102762,20.30083813,21.10542726,19.14151731,15.03963484,12.83068274,16.60032246,18.1858333,22.24543073,27.09611601,28.60416662,30.1634999,27.59661349,25.62734982,23.13272506,3.497096781,6.015833348,10.94521806,15.70806976,18.18130992,18.44873807,15.55405048,14.14793364,12.04513443,5.803122395,7.048807354,9.977529243,13.7421048,15.43701566,16.36698878,13.8976006,12.43400485,10.94701098,0.634539169,0.718095232,0.926337681,1,1,1,0.9932483,0.897879883,41.97593131,-92.24310603,2019,IAH3
F42/OH43,INH1_2019,Y,22.405,782.544263,5,1.5,259,143,62,60.5,4.638124973,1.291666667,4.254883356,1.873002707,7.542143106,0.579848493,2.745608418,1.194209184,2.037834084,148.4199991,7.75,53.11714339,53.83785783,14.64785763,6.669285808,98.22214476,12.45785718,61.58714233,19.82387961,19.183822,19.33565513,20.5079362,16.64856858,22.30931036,17.46113557,15.79330395,12.43542766,23.34687504,26.15000025,24.44131608,31.06458042,27.9682139,28.43625549,27.60941131,25.59340811,22.91422815,11.29093746,15.88166634,14.27159151,19.40569109,18.2715475,15.1189393,15.69895629,13.38685715,10.33005226,10.62626718,13.2428989,11.86638398,17.27971266,15.26406297,14.09359416,13.93027737,12.23653025,10.46761426,0.918526784,1,1,1,1,0.999060374,0.966691327,0.86252861,40.477063,-87.00020175,2019,INH1
PHB47/PHN82,ONH1_2016,Y,28.95,650.6721357,0,1.5,208.5,108.5,83,80.5,1.979032247,2.105714291,0.92181366,1.439738287,4.720833318,2.435439396,4.62931563,1.31185227,2.043303741,61.34999967,29.48000008,13.31600007,60.28400005,10.99249999,28.54150001,172.0475013,11.37649985,61.38049932,20.24883872,21.56727634,23.77365349,22.41142308,19.3081847,20.61473607,17.12813691,15.31534219,11.6349499,10.49290321,16.47999988,25.01561457,25.51466922,28.22516696,27.99415914,27.31356147,24.49017951,20.3886015,-0.735806467,3.753571405,10.93050922,11.61184699,15.55325019,14.71775745,15.07244109,12.71620509,9.185787659,3.269306411,5.688768484,11.09209761,11.56175859,14.2216101,13.76399544,13.57642435,11.5133866,8.776899495,0.291105988,0.684668367,0.99891379,0.988093962,1,0.998165816,0.971212584,0.877977401,43.4997965,-80.451125,2016,ONH1
F42/H95,NCH1_2017,N,16.65,731.1212129,1,4,217.5,107.5,65,64,5.929354779,4.097142833,0.297958702,3.860588722,6.673809642,5.437090039,2.513672686,1.67758051,4.140460835,183.8099982,28.67999983,4.023333254,115.8195228,10.90952401,51.84571517,65.15761944,9.68857149,128.3542859,16.84796118,19.66078799,22.20077414,19.20396089,15.77249108,20.54839894,18.7994723,19.26606379,16.40835168,26.07000006,23.57857159,28.17011276,29.72614366,31.01404729,30.48814813,32.54721675,31.95695904,30.43138246,13.64064524,11.25142826,15.69757802,18.87536398,22.57674573,19.84793622,22.28039625,21.2748593,20.81350234,12.56442422,10.48784987,14.26665949,16.36044911,18.79940835,17.21144066,19.38557496,18.57336573,17.65269876,0.998329492,1,1,1,1,1,1,1,35.29663725,-77.5668065,2017,NCH1
TX951/LH195,WIH3_2020,N,33.275,630.7207646,0,0.25,273,155,73.75,71.5,2.733870995,5.446666638,6.112394342,4.74655674,3.655208389,1.04360979,2.527373572,3.69928986,2.61452892,84.75000083,32.67999983,82.9068754,167.6149986,8.003125131,12.58312517,113.8450009,40.74312496,78.93437568,20.41919384,18.2775027,21.33639865,20.40337995,19.49413761,18.99324058,17.80850823,14.15156863,10.1168501,15.48354838,26.52499994,25.39100386,27.30541678,28.00124967,27.24401428,25.77617537,21.78088819,14.67245705,3.106129019,15.18500026,12.31273591,15.12317531,16.14624966,16.31340126,13.17330579,9.92591724,4.431311843,5.287102842,13.2823578,11.70416503,13.61992535,14.28505882,13.97808988,12.29059579,9.657643491,5.630137727,0.571854837,1,1,1,1,0.965668942,0.879609054,0.560799012,44.115703,-89.54491325,2020,WIH3
B73/PHZ51,NEH4_2015,N,14.3,798.054845,0,2,270,145,65,56,2.821875036,0,3.668207424,2.0125769,1.951249957,2.654893884,1.684158262,0.190010425,1.166079967,90.30000114,0,33.89000034,59.04687595,1.951249957,28.04999942,59.1787506,1.401875056,35.09749981,18.84220009,27.31064491,20.41342533,20.52862815,19.03072298,18.81303122,18.33826559,17.15407273,12.68489203,24.01437524,30.79399948,29.66091772,30.90712841,30.81250072,28.65153035,29.50292414,26.73776808,20.93262179,13.35843744,15.59799976,18.4981335,19.26878801,20.26031268,17.34358901,16.24316685,11.04417556,7.09840123,11.80342709,15.44887437,16.14310254,17.09436255,17.53736601,15.18702607,15.25106182,11.88303257,8.618375536,0.931774556,1,1,1,1,0.97284651,0.984144349,0.784438609,41.16732275,-96.41663225,2015,NEH4
B73/MO17,INH1_2018,Y,21.445,852.3097026,0,2,254,125.5,67,63,2.767096756,4.68454543,2.7337539,2.608245307,0.180000007,3.094468228,3.412660528,0.546071422,1.653962344,85.77999943,51.52999973,31.28214284,86.61642764,0.256428582,29.52071404,116.6621433,3.926428522,50.80214219,18.97651723,17.84080185,18.4751702,21.91502565,21.1577316,19.53552192,18.82147066,19.16946561,15.73843824,16.02451609,18.1199998,25.33039297,28.95851984,31.36964308,31.15694425,28.16765345,28.4284546,26.00206774,3.260645186,6.861818249,15.08608447,16.0398559,19.18499974,18.88806934,16.73005964,15.8360335,13.18834038,5.572938243,7.259226835,12.75390782,14.76719288,17.27732141,17.05840253,14.63863294,14.40004061,12.39915253,0.613732714,0.707012975,1,1,1,1,1,0.979968538,40.4787825,-86.9898145,2018,INH1
B73/DK3IIH6,IAH2_2017,Y,13.8,714.3878048,3.5,23.5,243.5,124.5,65,64,2.991935476,4.003749907,5.594154361,1.824159742,2.965909053,1.138616173,3.544395797,5.525860929,3.224964342,92.74999976,32.02999926,86.83999968,64.74363607,5.880909015,11.03545466,133.6850016,39.36636487,98.02272796,18.91811151,22.03083944,18.39067038,21.91300981,21.59707026,21.00058551,18.76246256,16.50136756,14.56336975,16.70258062,25.25375009,21.16444029,28.78792803,31.34295403,31.03890899,27.79230679,26.54138994,25.01808603,3.836129038,9.060000002,9.836484062,14.72352594,17.1804546,18.00485339,15.61890002,13.9478747,12.25710857,5.884356407,10.52058178,9.325556586,14.19611432,16.29393371,16.57150033,14.05801276,12.73803514,11.57992501,0.659274195,1,0.882113053,1,1,1,1,0.976890029,42.06582876,-94.72050129,2017,IAH2
B97/PHB47,NCH1_2016,N,13.85,731.1212129,10,1.5,224,110.5,65,64,2.901562452,3.125714166,7.137907935,4.683034439,4.3177271,0.863030289,5.226283407,5.104181825,4.507668668,92.84999847,21.87999916,91.86318315,160.7736342,8.497726928,8.495454409,139.9318182,26.12772732,139.7377287,16.36857818,22.27138465,15.49498623,18.72849078,21.8793198,21.8664799,18.529992,18.05675722,17.32656161,20.86125001,25.58571407,25.68946269,27.1054564,30.20318166,31.0559697,32.42423852,33.59766701,33.26035177,7.692187494,8.212857212,14.27003911,16.07300028,18.02681784,18.80169681,21.2796372,22.62190931,22.7218182,8.383421821,10.43985322,12.46468669,13.95599298,16.17160042,16.99727481,18.83160592,19.980567,19.86697781,0.913761163,1,1,1,1,1,1,1,35.30015175,-77.57127825,2016,NCH1
PHB47/PHZ51,WIH1_2015,Y,23.03333333,737.9862008,0,3.333333333,282.6666667,144.3333333,65,64,4.730000059,9.059999784,2.430610682,6.190059866,3.242812514,1.739310909,2.563222068,2.582604527,2.064862235,151.3600019,54.3599987,32.30062549,198.0887501,6.485625029,21.11437514,113.2525011,35.42937557,62.48000012,19.32367544,22.19104989,23.8972515,19.04105101,21.62804324,20.72553659,16.09255797,13.7227876,9.595561915,19.95718755,28.15000025,26.05326099,28.85932006,29.07385437,26.51056077,24.82739399,20.18089026,14.51549808,8.517187543,15.30499983,11.82802944,17.48783518,16.48010375,14.49615378,12.31509137,8.581945626,2.680440183,8.558350873,13.98301754,11.81015597,15.26183828,14.95581898,12.98753542,11.68123469,8.628108428,5.087550731,0.777276777,1,1,1,1,0.929186389,0.833919484,0.505939954,43.05511725,-89.528525,2015,WIH1
B14A/OH43,NYH2_2016,N,18.95,731.1212129,0.5,2,169,76.5,78.5,74,2.034516133,1.030000001,1.88805842,0.867300396,1.140952366,2.326450204,3.376451109,4.287746575,3.208572451,63.07000011,12.36000001,22.4085716,34.4438095,2.622857094,25.59095225,116.65619,31.75809508,97.82571426,19.21240982,23.35584625,23.40556822,22.17883586,23.94456446,21.25361649,17.18897092,16.17245816,13.35906413,14.04935483,18.68749992,27.50851283,26.23633728,28.78071431,29.31692664,28.41638555,26.44500865,23.15297547,1.686774175,4.439999988,12.92699036,12.85534504,13.89476193,15.65588736,16.863818,13.58818034,10.55762265,4.511298309,6.607155497,12.88765676,12.33330427,13.7996272,14.74166699,14.82295673,12.66050813,10.26842414,0.447315667,0.804761906,0.999400038,0.994542932,1,0.999880088,0.994843294,0.949842165,42.726117,-76.655339,2016,NYH2
TX714/PHZ51,WIH2_2016,Y,19.5,807.7087343,0,8,309,162.5,63,62.5,2.185483832,6.563333432,3.447094458,4.124693788,6.707159024,6.158880111,5.945293137,1.654273513,4.758742445,67.74999878,39.38000059,44.45545418,149.2718189,18.91272705,63.86318129,228.7613642,17.11772738,143.1609097,20.07161814,17.64681498,20.48120554,20.03716075,21.00097141,18.73971629,16.31911952,14.94670844,10.3303759,18.34677419,27.65666644,25.59626749,27.3504729,29.44640147,29.15349181,26.70938079,24.21329019,20.37268081,4.840000014,15.2516667,12.43660419,15.21846351,16.18390156,17.81047537,15.29826924,12.0891497,9.537770322,6.76617685,13.67923016,11.77429452,13.6256578,15.0809804,15.56950508,13.35737665,11.10536848,8.849967039,0.729688939,1,1,1,1,0.998061418,0.979766622,0.886131912,43.32649075,-89.33882925,2016,WIH2
F42/OH43,SCH1_2018,N,15.29,731.1212129,0,2,203,110.5,64,63,5.509375073,3.372500002,5.775327928,7.728127661,4.71095229,3.130603142,3.123485158,2.01328566,5.79306447,176.3000023,26.98000002,97.60999952,245.6735731,5.415714213,31.8442854,83.93428482,10.53785687,179.5849986,18.64772365,19.28692877,21.1730546,18.16318131,18.84742333,19.2548603,19.994513,19.31783344,16.30139442,22.53906247,22.53374982,23.09020479,27.61870045,28.0654766,28.90856809,32.58479132,33.48333298,31.1168664,9.301562469,9.311250091,8.762400081,17.50665347,16.7615475,18.38295894,21.20797915,21.67128537,20.80767273,9.591191253,9.400074843,9.574505228,14.76793775,14.51962258,15.72381397,18.86169653,19.45105318,17.96288574,0.951841518,1,0.982626499,0.991514695,1,1,1,1,34.6223015,-82.7364835,2018,SCH1
B97/PHB47,NCH1_2017,Y,17.7,731.1212129,0,2,229,110,65,64,5.929354779,4.097142833,0.297958702,3.860588722,6.673809642,5.437090039,2.513672686,1.67758051,4.140460835,183.8099982,28.67999983,4.023333254,115.8195228,10.90952401,51.84571517,65.15761944,9.68857149,128.3542859,16.84796118,19.66078799,22.20077414,19.20396089,15.77249108,20.54839894,18.7994723,19.26606379,16.40835168,26.07000006,23.57857159,28.17011276,29.72614366,31.01404729,30.48814813,32.54721675,31.95695904,30.43138246,13.64064524,11.25142826,15.69757802,18.87536398,22.57674573,19.84793622,22.28039625,21.2748593,20.81350234,12.56442422,10.48784987,14.26665949,16.36044911,18.79940835,17.21144066,19.38557496,18.57336573,17.65269876,0.998329492,1,1,1,1,1,1,1,35.29663725,-77.5668065,2017,NCH1
W10001_0022/PHB47,IAH1_2015,Y,16.75,723.3981015,0.5,17.5,266,134,65,64,1.566451638,2.213076954,8.402418557,1.323463692,0.084411761,2.297359398,2.93999255,2.37101191,2.732793763,48.56000078,28.7700004,122.1399999,43.52999979,0.168823523,22.82352863,100.1182349,16.67000003,83.81294001,20.43214903,18.85811498,14.63317728,22.31276759,19.14227258,22.20806523,19.83862588,18.33763158,15.0581957,16.08774191,16.64538457,21.84697853,28.7334183,30.26852911,31.30747052,29.05105531,29.39636272,24.66946357,1.839032284,4.865384661,13.12892854,16.86768962,20.05941139,18.05705196,16.3929614,15.43749916,11.17229855,5.447129731,6.098188577,10.48240964,14.99632473,17.16639266,16.72884186,14.96924927,14.77137221,11.30644361,0.593087559,0.682994502,0.988452545,1,1,0.997626801,1,0.896934674,41.9980952,-93.69336973,2015,IAH1
PHB47/PHN82,NYH2_2020,N,14.75,720.823731,0,7.5,212.5,84.5,66.5,66,4.422257993,0,1.391731236,3.182357247,6.170888774,3.507901041,2.283490724,1.426918664,2.172175634,137.0899978,0,18.68266731,113.2706661,12.6093331,36.98266699,88.46933366,18.14666667,65.61600019,20.94267544,21.78244971,21.55666085,20.64321436,19.27786447,18.92984529,17.76882093,13.77968924,11.70490539,14.55447306,27.94977782,23.62933928,27.86541297,27.88688897,28.78672537,26.53302948,21.56675493,18.20507674,2.61195699,15.66431106,11.35573055,15.51025755,16.31100023,17.48208292,14.53826355,10.86377734,6.879177126,4.979415324,14.02697238,10.70801105,14.09392345,14.22879085,15.20067311,13.04971037,9.749522427,7.387680802,0.470065285,1,0.969822941,0.995242037,1,0.988859641,0.904446401,0.765938608,42.73230075,-76.65036275,2020,NYH2
B14A/OH43,OHH1_2018,Y,17.7,727.2596572,0,2,245,109.5,59,60,3.056774178,9.537500136,1.922452157,2.385565957,3.342142727,1.8544286,3.625787622,3.100846839,2.007798001,94.75999951,76.30000108,21.73714328,80.43785755,3.342142727,18.544286,121.7649994,22.15357072,61.29071423,19.31095449,14.64635724,20.72885596,20.94366931,19.27592959,20.95649317,17.99811894,17.37176276,15.4204415,15.33419351,20.99500024,26.65036435,28.81994394,32.41071347,30.66092864,28.53085842,26.94730604,24.73435724,3.376129027,12.14624989,14.55931522,16.57316253,19.49428545,18.47499986,17.24720124,15.03980618,12.05347394,5.35712311,9.832246518,13.13485159,14.9051591,17.95401161,16.59941793,15.03822312,13.39555861,11.48513665,0.534285712,0.926785712,1,1,1,1,0.999125,0.970735544,39.85688825,-83.671225,2018,OHH1
F42/H95,NYH2_2018,N,19.985,739.4235576,5.5,5,208,100,71,69.5,4.152903213,0.855714253,1.31693108,2.056877316,18.60714291,4.17142208,1.796460541,3.71345921,2.001911684,128.7399996,5.989999771,17.50499944,73.5107149,37.6500001,45.13714288,70.0178584,34.82000022,60.53000028,20.64383799,23.73438372,20.97980276,21.28373647,15.72294375,18.26843876,18.50915054,13.77481919,12.83457813,12.82806446,24.72714315,24.76775456,27.60101009,28.96428537,28.5122727,26.91050025,24.01606741,19.66558606,1.452258048,10.48999977,13.07559666,14.8719081,19.08642861,17.4819286,14.95013511,12.80738491,7.865124395,4.113027627,10.74522894,11.82847182,13.74928068,16.05096628,15.06575239,13.37181447,11.42873851,8.144119245,0.351670502,1,0.973410204,0.99504728,1,0.991140913,0.940533101,0.821942422,42.72611075,-76.65530175,2018,NYH2
CG60/LH162,IAH3_2015,N,15,731.1212129,0,1.5,221,97.5,65,64,1.888124991,2.913571392,3.784813995,6.971928843,0,3.257500064,1.487385228,2.541446469,4.507444947,60.41999972,40.78999949,55.43999982,241.6600003,0,32.57500064,50.31437471,24.68500039,138.7756267,19.80172794,20.03998334,15.9141292,20.68283491,21.69136486,21.24428636,20.63784564,18.68301758,14.92198489,14.64187506,16.6814285,21.6371088,27.61372247,30.87885427,30.3035625,28.596254,28.51656267,24.33389908,0.83250004,3.600714236,12.24542872,16.05178152,19.47364565,18.11006255,15.99319583,14.30373217,10.64901215,4.605131548,5.787499831,10.11465775,14.1164012,17.17624996,16.25391669,14.57670766,13.97583386,10.87542788,0.501462055,0.634540813,0.981270753,1,1,1,0.968879463,0.933929792,41.97585629,-92.24291804,2015,IAH3
B73/PHM49,WIH2_2017,Y,23.6,753.0033618,0,2,262.5,136,78,79,5.048709616,4.636666616,1.142383575,5.763857885,8.001590729,6.160048604,1.607776433,1.167726513,2.257555268,156.5099981,41.72999954,17.5799998,219.3963643,12.14409065,74.04090792,72.28863683,15.04409093,68.0204557,18.1690344,19.72049554,20.64727683,20.23287988,19.13163679,19.37493243,18.51401576,14.93340477,10.89478233,16.03129027,21.86555545,22.15746071,26.59689143,27.90045501,26.76799254,24.73062069,22.38533393,20.51274781,3.24419354,8.791111098,9.553497601,14.54337319,16.81037892,15.37831158,12.19271258,9.193202486,7.868866577,5.438218202,9.209131236,9.451203107,13.05708411,14.51682301,13.37610723,11.31306373,9.686333754,8.853113959,0.624158991,0.847976183,0.950288768,1,1,0.998699911,0.954544862,0.834596302,43.3246415,-89.33688775,2017,WIH2
PHN11_PHG47_0251/PHB47,NCH1_2016,N,14.2,731.1212129,4,2,209.5,101,65,64,2.901562452,3.125714166,7.137907935,4.683034439,4.3177271,0.863030289,5.226283407,5.104181825,4.507668668,92.84999847,21.87999916,91.86318315,160.7736342,8.497726928,8.495454409,139.9318182,26.12772732,139.7377287,16.36857818,22.27138465,15.49498623,18.72849078,21.8793198,21.8664799,18.529992,18.05675722,17.32656161,20.86125001,25.58571407,25.68946269,27.1054564,30.20318166,31.0559697,32.42423852,33.59766701,33.26035177,7.692187494,8.212857212,14.27003911,16.07300028,18.02681784,18.80169681,21.2796372,22.62190931,22.7218182,8.383421821,10.43985322,12.46468669,13.95599298,16.17160042,16.99727481,18.83160592,19.980567,19.86697781,0.913761163,1,1,1,1,1,1,1,35.30015175,-77.57127825,2016,NCH1
CG108/CGR03,OHH1_2017,Y,14.7,747.8546209,0,2,229,110,65,64,4.401935447,12.29571451,4.299880116,6.252045262,18.36299991,4.892395558,3.195317293,3.431958172,3.794688752,136.4599988,86.0700016,53.63949916,223.8204996,40.86499989,50.26800107,124.097,30.99400014,115.4320013,19.0647902,19.03427505,21.00226491,20.15032754,19.69555429,18.89580098,18.69837911,16.0400155,13.85510684,20.47903239,25.43142836,25.24002704,27.25803818,28.09541678,28.73270468,26.30456447,24.69395371,24.25720733,8.011935501,13.44999967,12.59882409,15.91673102,16.75358336,18.39824095,14.97688189,13.11535887,11.81284403,8.407228033,12.106522,11.63721293,13.8931373,14.6377479,15.63224373,13.07252875,11.66012039,11.13333271,0.85352535,1,1,1,1,0.996926048,1,0.96495674,39.855785,-83.66477375,2017,OHH1
CG44/CGR01,GAH1_2019,N,14.5,582.3869591,15.5,0,145,65,53,51,4.224827643,1.980000006,1.908236784,2.106472486,0,0.090714284,5.691865924,1.473428559,3.045620547,122.5200016,17.82000005,22.37999977,72.04999958,0,0.725714275,156.5528547,7.367142797,92.8692846,16.4500471,17.48633936,17.40259385,20.9384506,22.51147406,21.84430948,17.66714436,19.76491442,19.71139218,21.20655165,22.58666695,26.81574745,29.5228407,35.04273814,35.70196446,32.62270198,33.62814315,33.36893722,7.214827602,8.595555623,14.04498416,14.47543411,19.21654783,20.58464301,20.89661115,21.78014287,21.253149,8.370628681,9.274220075,12.91642218,14.40044999,18.67726543,19.28313207,18.63395398,19.63555568,19.18049021,0.90216748,0.984365085,1,1,1,1,1,1,31.50582525,-83.55515025,2019,GAH1
F42/OH43,IAH3_2015,Y,24.15,651.959321,4.5,3.5,253,125.5,65,64,1.888124991,2.913571392,3.784813995,6.971928843,0,3.257500064,1.487385228,2.541446469,4.507444947,60.41999972,40.78999949,55.43999982,241.6600003,0,32.57500064,50.31437471,24.68500039,138.7756267,19.80172794,20.03998334,15.9141292,20.68283491,21.69136486,21.24428636,20.63784564,18.68301758,14.92198489,14.64187506,16.6814285,21.6371088,27.61372247,30.87885427,30.3035625,28.596254,28.51656267,24.33389908,0.83250004,3.600714236,12.24542872,16.05178152,19.47364565,18.11006255,15.99319583,14.30373217,10.64901215,4.605131548,5.787499831,10.11465775,14.1164012,17.17624996,16.25391669,14.57670766,13.97583386,10.87542788,0.501462055,0.634540813,0.981270753,1,1,1,0.968879463,0.933929792,41.97585629,-92.24291804,2015,IAH3
W10001_0022/PHB47,DEH1_2017,Y,17.7,731.1212129,0,2,229,110,65,64,2.917187458,6.201428686,3.00780289,3.517983876,1.211428521,1.632751291,5.214259368,11.31934688,4.882730708,93.34999865,43.4100008,45.34571489,126.7790489,1.268571377,15.48333303,157.8533328,69.24809492,151.3147631,17.05647962,17.73228645,20.71096481,19.57386043,19.15556694,20.88592809,18.21237176,18.15756056,16.58607394,20.26624998,24.66142872,21.72245043,26.82298965,30.35071437,30.31148162,30.69555299,28.43090921,27.29702356,9.32593758,14.19571427,10.68752201,16.75855213,19.906349,19.88150788,21.21690322,18.72144455,17.91444491,8.690479953,12.08402314,9.787934269,14.12431868,17.15482568,17.14050735,17.94790556,15.63546309,14.74613823,0.907287956,1,0.959736116,1,1,1,1,1,38.67025825,-75.4333645,2017,DEH1
PHG29/PHG47,WIH1_2017,Y,17.3,738.2007317,0,2,247,107.5,73,74,3.894838602,1.694000003,3.49156578,6.251914317,26.29780264,12.3515148,1.782621048,1.031219451,2.019413967,120.7399967,16.94000003,60.77000046,238.2086357,55.48409002,148.2181776,77.27181808,11.13545426,60.74545419,17.96009764,21.56986256,18.71582301,20.73316127,19.69440102,19.58726141,19.1692292,15.69151392,12.21998586,16.03451621,20.2119998,20.22998088,26.71060266,27.00553033,27.16428033,24.80808837,24.03641879,21.845045,3.37838715,6.260000002,9.268565708,14.6662765,15.35575767,16.21109857,13.17589581,11.52521119,9.509429623,5.507434962,7.720411242,8.664602637,13.14891279,13.46068042,13.9043846,11.67856357,10.90146065,9.608265423,0.606900932,0.8735357,0.867893568,1,1,0.998220242,0.971647403,0.89569217,43.05668125,-89.5308135,2017,WIH1
B37/OH43,GAH1_2016,N,15.3,754.2905471,1.5,1.5,185,85,60,57,6.466250051,4.395000041,0.566421492,2.549627568,3.17469698,5.859943136,4.096967014,2.330999996,2.476261007,206.9200016,35.16000032,6.21000006,86.0200003,9.52409094,52.42727233,105.6731797,11.65499998,76.76409122,15.95696127,18.25385642,20.33100053,20.74024209,20.01064868,19.54302735,19.38198769,19.26953352,18.21451922,23.62687498,22.98249984,28.56134937,29.4983659,33.37075638,32.62719045,33.25026907,34.51499955,33.94928126,11.29749997,10.47000009,15.64744728,16.2846205,20.78287862,20.61269551,21.56927107,22.51809092,22.40467728,10.53971422,9.962440438,14.36481163,15.11313475,19.02952924,18.56859265,19.26668195,20.34390963,19.99415841,0.993928569,1,1,1,1,1,1,1,31.5079175,-83.55854775,2016,GAH1
B37/OH43,WIH1_2019,Y,24,685.4261371,0,0,251.665,140.835,73.5,72.5,3.104193578,4.990909143,3.989206625,5.063632664,7.174102343,5.657788874,3.979490855,4.117971668,7.043559998,96.23000091,54.90000057,56.46538491,184.9676922,7.656153606,56.9199983,170.6046141,43.34153838,211.8461548,19.32800511,20.47989629,21.14585761,19.94081469,20.4834897,19.00171798,17.70480678,14.70759561,11.13260624,14.4303226,19.6027272,23.71186264,26.54399323,29.1737175,29.51828996,25.99775321,22.10125555,19.22207941,3.044193574,6.375454621,11.90649765,15.02653282,17.46782019,18.4264638,14.78313726,11.24849031,9.42963116,4.974875238,7.497369644,10.75801096,13.26663909,15.42227287,16.03343447,12.80151602,10.12875121,8.730340077,0.520449311,0.882272729,0.994529143,0.999440504,1,0.998245342,0.92932789,0.792629622,43.060857,-89.494068,2019,WIH1
2369/LH123HT,MIH1_2016,N,18.85,729.190435,0,2,253.5,157.5,63.5,63,3.213870927,0.372000003,1.277668238,2.072144594,0.204761899,2.382636341,6.277866916,3.129595251,4.115734243,99.62999874,1.860000014,16.77857134,74.4033328,0.614285696,24.34142835,217.3680916,23.88571438,123.5814282,20.04481233,22.69628944,22.57460654,21.19066928,19.62511718,19.41470496,17.43536011,14.16523572,12.41239439,17.74322581,29.20999985,25.57947765,28.1508514,27.23547651,30.32783564,28.27294529,26.6388532,22.50219404,5.299677434,16.33600006,11.90361174,14.70447611,15.74579377,17.52671,16.25511672,15.58650841,10.86825081,6.615827776,14.89908974,11.62365975,13.82943527,13.70908531,16.01583991,14.48649579,13.48265,10.09129455,0.734400922,1,1,1,1,0.999987733,0.99326559,0.936590208,42.41206675,-84.2952625,2016,MIH1
PHG39/PHN82,TXH2_2019,N,11.725,807.6508109,0,0,191.5,57,70.5,68.5,1.71448275,0.072857141,3.656594302,9.095434564,0.409285716,1.207678571,5.355850783,1.246142852,1.574419343,49.71999974,0.50999999,52.00785631,328.2121388,0.592857139,9.661428571,146.4478573,6.531428533,47.51499965,15.42805705,20.52131135,18.76898834,18.57032559,21.42349659,18.85281525,20.14881361,21.03072751,19.84089234,18.45000007,25.76428577,24.43254944,27.27586732,31.09000002,32.37866099,32.72435205,34.04471448,34.98200776,6.826206914,10.35000004,10.67963154,14.78766739,18.65857179,21.85071427,21.02442735,21.79614282,22.6049739,7.457816468,11.1589152,10.85119479,13.46630403,16.91193677,19.11412105,18.84765314,19.77807102,20.01419559,0.749667494,1,0.945308164,1,1,1,1,0.999698925,30.546318,-96.4329965,2019,TXH2
B37/OH43,WIH2_2018,N,28.0625,727.5814535,6.125,2,268.625,139.125,68.875,68,3.144193572,1.768571428,3.785071194,5.164846227,1.715952385,3.402224049,3.044948822,9.615599338,3.371772616,97.47000074,12.38,46.28142902,179.8699983,4.560714279,37.70642883,131.4821453,73.47714479,101.7171416,19.25733411,21.12108299,21.47525877,21.2745393,18.31717262,18.53021556,18.66070884,13.62580315,11.37185475,15.52870961,24.66571426,26.09170284,28.23486864,27.86595249,27.65838755,26.70641136,24.92152362,17.96867439,3.195161297,12.95000008,13.88902894,15.13385395,17.40500012,17.0648215,13.77097062,13.5657747,6.887165117,5.289841082,11.57195132,12.6458491,14.08946858,14.71699087,14.50107081,12.89356629,12.23397282,7.279203781,0.580092163,1,1,1,1,0.981419113,0.932006969,0.73866365,43.38075,-89.38645,2018,WIH2
CG44/CGR01,NEH3_2015,N,15.4,752.3597692,0,0.5,229,110,63.5,61.5,3.231250057,0.918000031,0.565093977,1.286692195,3.19749999,1.391136354,0.258061221,1.474667183,0.155891338,103.4000018,4.590000153,6.150000095,39.04749978,4.720000029,15.30249989,11.17999983,14.52874985,4.648125023,21.79127574,25.69442635,22.86725485,21.82271665,15.26317632,20.59079,20.06412842,16.27968968,13.53861776,24.28750017,32.64599991,30.58771447,32.67731329,28.91593772,29.87238656,30.80707127,25.39031645,21.32018275,9.278749934,13.0079998,13.8828633,15.7826582,17.05531204,14.62710229,13.18313307,8.87540479,3.334017086,10.46257825,15.28330691,14.45465852,16.22005678,15.0938879,14.496454,14.53020136,10.90039565,7.851747396,0.909587052,1,1,1,1,0.965712824,0.862507779,0.80953931,41.15824525,-101.9872958,2015,NEH3
CG44/CGR01,GAH2_2020,N,15.4,696.6890079,6.5,19.5,217.5,99,53,53.75,4.57387094,0.441111114,8.353941854,2.596292498,5.733571683,2.103095203,2.179001438,2.485142878,3.918548365,141.7899991,3.970000029,91.39071568,80.77428585,11.41500051,18.92785683,57.71499962,12.42571439,121.4749993,20.66171874,23.27184486,17.58943298,19.5164109,18.75300796,20.35385684,20.26001561,17.11426864,16.01109332,24.32935487,22.81222216,27.25049476,29.76903398,31.23452386,32.73428517,34.13891635,33.4245718,31.64458511,9.683548431,7.437777784,15.07002369,18.41195949,20.46821458,20.95039675,21.2406723,21.91714281,20.83905522,10.34437265,8.95024402,13.55540875,16.15181668,17.85136922,18.84234096,19.40061188,19.58004094,18.23728962,0.993479262,1,1,1,1,1,1,1,33.72355555,-83.30265185,2020,GAH2
W10001_0022/PHB47,WIH1_2015,Y,24.25,733.6955833,0,0,260,131.5,65,64,4.730000059,9.059999784,2.430610682,6.190059866,3.242812514,1.739310909,2.563222068,2.582604527,2.064862235,151.3600019,54.3599987,32.30062549,198.0887501,6.485625029,21.11437514,113.2525011,35.42937557,62.48000012,19.32367544,22.19104989,23.8972515,19.04105101,21.62804324,20.72553659,16.09255797,13.7227876,9.595561915,19.95718755,28.15000025,26.05326099,28.85932006,29.07385437,26.51056077,24.82739399,20.18089026,14.51549808,8.517187543,15.30499983,11.82802944,17.48783518,16.48010375,14.49615378,12.31509137,8.581945626,2.680440183,8.558350873,13.98301754,11.81015597,15.26183828,14.95581898,12.98753542,11.68123469,8.628108428,5.087550731,0.777276777,1,1,1,1,0.929186389,0.833919484,0.505939954,43.05511725,-89.528525,2015,WIH1
PHG39/PHN82,NYH1_2019,N,21.2,717.6057679,0,0.5,250.8333334,129.6666667,70.5,70.5,3.742499989,3.13750004,5.753824184,3.193184694,5.054999975,4.679644987,3.141734315,2.115619262,4.095645999,119.7599996,25.10000032,83.05615347,110.7876916,10.59692295,60.83538484,169.67846,49.66846142,126.1984601,19.31204623,22.90652502,19.40556432,20.09548462,19.54416251,18.43271946,14.78687504,11.82668111,8.218362691,18.69937494,22.85875034,22.9010546,27.51683221,28.25012823,26.24284011,22.02988517,19.80082275,11.00573521,7.845625035,10.06374997,12.28813039,16.10263177,16.07333343,14.39934908,10.67406786,8.357505336,1.635690852,7.6395284,9.775213808,10.49055945,14.05854059,14.39300596,12.73828549,9.762895495,8.676471021,3.980466677,0.838560269,0.991875008,1,1,1,0.934962266,0.800347462,0.399612352,42.7288875,-76.65152084,2019,NYH1
B73/PHM49,NYH1_2017,N,17.7,731.1212129,0,2,229,110,65,64,4.758709581,4.139999986,2.953024942,5.715506232,4.320872878,2.701732063,2.616328443,1.022630585,3.614268439,147.519997,37.25999987,45.12618999,219.9223815,11.26857107,35.6957141,128.4247627,13.30476207,110.8900009,18.97444351,17.81005277,22.0763727,19.38397475,18.56141379,19.22534974,16.71382568,13.43506643,9.037548332,17.06967752,20.23333359,22.7745171,25.66488699,26.70396817,25.32691524,23.26007272,23.96840526,17.61119819,5.964193534,10.19,10.93717632,15.20362294,16.36293638,14.60656728,11.31793404,11.56685323,6.669544781,6.641127344,8.727253675,10.15270493,12.79474615,13.71935226,12.37567782,10.45035179,10.9124923,7.239151369,0.685760371,1,1,1,1,0.982493678,0.953634339,0.701363064,42.72880835,-76.6515625,2017,NYH1
PHW52/PHN82,MOH1_2015,N,14.8,731.1212129,0,0.5,190,87.5,77.5,75,3.914838722,3.002727248,2.7038834,5.646226268,2.268750012,1.183333344,4.736744086,1.740401796,3.666491943,121.3600004,33.02999973,34.41999933,178.8712478,5.868750036,10.6500001,140.2618746,11.88312507,113.6612502,18.81846694,18.88703156,16.92919735,21.70591481,15.72154266,19.94530069,18.47422179,20.12873028,17.02653892,18.28451609,18.00181831,23.77805456,28.93028285,29.85593748,31.76118019,30.42140763,28.58050013,28.43143147,5.857096827,7.500000065,15.21487777,17.6487962,21.67281234,21.45979159,20.28182538,17.09899995,17.28669369,7.068544315,7.302193139,11.97142579,15.39796361,17.76437491,18.61048589,17.380694,14.99182695,15.05317439,0.723283405,0.814935086,1,1,1,1,1,1,38.8965375,-92.20800417,2015,MOH1
B73/PHM49,ONH1_2015,Y,40.3,709.2390639,0,0,235,130,88.5,88.5,1.605625002,2.296315821,1.411426091,1.973297954,0.512941169,3.436769168,2.641035405,1.799953816,2.360571209,51.38000005,43.63000059,20.30117703,73.50294104,0.81882352,40.73352947,103.9364728,19.58470627,71.14882509,18.02169462,20.4737019,23.34007091,22.64543997,20.24065375,18.07254412,18.60447299,14.22755231,12.21920895,9.771562532,12.63473691,23.7578119,26.83441686,29.90941261,27.46928249,26.11972075,22.82201755,18.35250846,-0.327500018,2.045263152,11.01347606,13.31919887,17.43313718,16.50329302,14.06775752,11.69572195,7.013714688,2.851211725,4.201400589,10.67713105,12.77399982,15.76589753,14.15032606,12.63577386,10.48249806,7.379159901,0.167098218,0.403345874,0.957007131,0.991950294,1,0.994472794,0.939113043,0.772366561,43.49741975,-80.44806025,2015,ONH1
PHW52/PHM49,INH1_2020,Y,25.2525,723.1406644,0.25,2,214.85,99.05,69.5,66,2.63064515,6.092222161,2.380905542,2.638028789,0.629411796,2.977235278,3.349803369,1.095052516,1.575144189,81.54999965,54.82999945,26.35000017,86.90176377,0.755294155,29.77235278,114.9176474,7.60117643,48.41470517,19.12040675,14.46862051,21.68340347,21.75389977,20.24839053,19.66959435,18.78188958,18.00828299,15.45076636,15.20677414,20.6899999,27.1104927,29.42650107,32.0752936,30.36388222,28.15834081,28.66782236,25.41333794,2.934193564,11.51555562,15.17811918,16.46944194,19.37588254,18.23752946,16.66734055,16.5683672,12.52337519,5.193705795,9.337664252,13.54219901,15.16026165,17.73146127,16.3694037,14.61167179,14.83949529,11.90095499,0.576025338,0.994801587,1,1,1,1,1,0.975702381,40.4787965,-86.9895995,2020,INH1
PHN11_OH43_0001/PHB47,MNH1_2015,Y,15.95,721.4673236,4.5,0,245.5,110,70,68.5,2.676451665,6.10285713,1.587216104,4.707726326,2.093823531,4.685775359,5.935015669,2.223261507,2.198788145,82.97000162,42.71999991,19.59000013,155.007059,3.965294123,52.23235247,227.0947085,20.90117698,67.40117758,19.81693462,15.87546921,21.62818458,20.65236193,17.21434565,21.12123323,17.7408483,14.5374504,12.06297535,17.43387093,22.63000025,27.28921799,28.46423671,28.36529418,28.07899716,26.14089523,24.73259507,17.90095705,4.567419307,13.73428563,14.30007362,16.89716897,18.65411764,16.19745995,14.75643511,13.57280729,6.634647692,6.2838161,10.87437977,13.26905608,14.87023808,15.64114514,14.35392043,12.99006372,12.46836687,7.55733068,0.722983866,1,1,1,1,0.977703003,0.878626049,0.721229646,44.07038575,-93.53519625,2015,MNH1
B37/H95,ARH1_2018,N,20.75,522.2110494,0,1.5,194.5,99.5,63,60.5,6.807499945,4.709999936,2.627776375,4.735912158,3.619166647,6.960178526,4.330437569,0.796285741,3.374677434,217.8399982,32.96999955,35.48928591,145.2942843,5.831428528,62.51428531,109.7978577,4.003571561,104.6150005,17.99706709,21.70226043,20.05949982,19.52680112,21.59397623,17.99264813,18.0574776,19.33215022,18.30424355,21.07062507,24.31857109,24.02168934,29.45279857,31.73095224,30.70692423,32.5717108,33.29521443,31.83741963,10.26718749,12.03571429,12.70205088,18.67412083,19.99154783,20.64677572,22.90335213,23.23585706,21.28834102,9.223277534,11.01036775,11.27832322,16.11267445,17.86206546,17.6775748,19.72770382,20.19469271,18.54368809,0.945725441,1,1,1,1,1,1,1,34.729679,-90.7603455,2018,ARH1
B73/MO17,INH1_2015,N,16.75,706.0211008,0.5,13,218.5,110.5,69.5,69,2.968064535,5.608750075,2.401797478,2.620596579,1.049062505,3.048312443,3.454130844,1.332533481,1.484370975,92.01000059,44.8700006,26.44312483,85.12437463,1.715625018,30.48312443,116.5724995,9.316249996,45.68062523,19.44608656,13.59046638,21.88315593,21.65689439,20.60130358,19.73326552,18.77560381,17.99738388,15.64927463,15.67580632,21.0562501,27.44396829,29.52449332,32.66781175,30.16981242,28.17317586,28.46934151,25.5406298,3.004516139,13.05249977,15.22068343,16.62214482,19.56843758,18.02818774,16.71489706,16.46563638,12.56847521,5.360930658,9.9438759,13.725819,15.26696414,18.11812466,16.1828721,14.63810214,14.67667849,11.95902497,0.609504607,1,1,1,1,1,1,0.986081101,40.477075,-87.000205,2015,INH1
PHW52/PHN82,MOH1_2_2018,N,18.63333333,731.1212129,0,2,210,77.33333333,54.66666667,53.33333333,4.419032262,0.120000001,6.56660792,4.995913726,0,0.865952386,4.867908623,7.318145406,3.629241153,136.9900001,0.840000004,71.60142667,150.6285707,0,7.793571472,145.6157139,39.85928573,112.0157138,18.39395777,18.46565301,20.1607481,20.70593221,19.87326009,21.97749135,18.06982858,17.46468943,16.31914076,19.5254839,22.76714298,27.16554273,29.60936822,31.6271427,32.32420578,29.51628185,29.85375934,27.04843165,7.99741943,14.14714282,16.43732974,18.81172612,21.79964249,20.71007941,19.44316189,19.21155699,15.91814144,7.992986492,11.1555316,14.00535673,16.26359619,18.7133926,18.51714259,16.54699664,16.60044059,13.86670431,0.872361758,1,1,1,1,1,1,0.995607144,38.89555425,-92.20964575,2018,MOH1
CG108/CGR03,WIH2_2016,Y,17,803.203586,0,20.5,240,138.5,56.5,56.5,2.185483832,6.563333432,3.447094458,4.124693788,6.707159024,6.158880111,5.945293137,1.654273513,4.758742445,67.74999878,39.38000059,44.45545418,149.2718189,18.91272705,63.86318129,228.7613642,17.11772738,143.1609097,20.07161814,17.64681498,20.48120554,20.03716075,21.00097141,18.73971629,16.31911952,14.94670844,10.3303759,18.34677419,27.65666644,25.59626749,27.3504729,29.44640147,29.15349181,26.70938079,24.21329019,20.37268081,4.840000014,15.2516667,12.43660419,15.21846351,16.18390156,17.81047537,15.29826924,12.0891497,9.537770322,6.76617685,13.67923016,11.77429452,13.6256578,15.0809804,15.56950508,13.35737665,11.10536848,8.849967039,0.729688939,1,1,1,1,0.998061418,0.979766622,0.886131912,43.32649075,-89.33882925,2016,WIH2
B14A/H95,ARH2_2017,N,18.5,731.1212129,0,2,183.5,72.5,63,65,2.789999995,15.83285686,4.776016413,2.853949028,1.142500003,5.651818152,3.905948255,2.4430325,4.688621725,89.27999985,110.829998,61.6427269,88.95863769,3.003181826,52.42863608,105.2449988,13.33772746,145.3472735,17.14489296,19.09436907,20.93439511,19.65670258,19.84409681,19.1211903,18.81176407,19.65259997,17.546866,23.65656266,24.55142866,25.38541455,28.9612549,32.40098458,30.84565692,31.84241473,32.83627249,30.20087953,12.07343751,12.16142872,12.7110645,18.0477898,21.78734854,20.24410098,21.87781566,22.25639174,20.26112908,10.83878158,11.22094165,11.88579938,15.62584547,19.09416656,17.54487895,18.8103181,19.27693671,17.25265116,0.991674107,1,0.97315368,1,1,1,1,1,35.67418125,-90.0752695,2017,ARH2
PHN11_PHW65_0323/LH195,NCH1_2018,Y,18,731.1212129,0,2,188.25,87.25,55,54.5,4.157741868,0,6.852651043,4.101575565,0.281428576,2.753968325,7.265916583,9.606714405,8.963617552,128.8899979,0,78.76714403,125.545715,0.410714286,22.4842863,196.6735732,49.18571489,277.8721441,19.15814344,24.86455965,15.13897653,19.38558293,23.18458939,19.6068393,18.38664919,15.55735787,15.52161696,22.42709686,23.6650002,25.05504787,28.99162569,32.21999972,32.77589287,33.41271207,32.57228504,30.53730396,9.272903273,8.262500107,16.63082339,19.21430847,20.43714251,21.48106165,22.41052549,22.8214047,21.52269578,9.383610038,9.710722454,13.07063738,16.1524193,18.32857112,19.12847726,19.83450897,19.67052049,18.05632483,0.990449307,1,1,1,1,1,1,1,35.6667825,-78.492372,2018,NCH1
LH74/PHN82,GAH1_2016,N,15.45,703.4467303,0,1.5,175,85,59,56.5,6.466250051,4.395000041,0.566421492,2.549627568,3.17469698,5.859943136,4.096967014,2.330999996,2.476261007,206.9200016,35.16000032,6.21000006,86.0200003,9.52409094,52.42727233,105.6731797,11.65499998,76.76409122,15.95696127,18.25385642,20.33100053,20.74024209,20.01064868,19.54302735,19.38198769,19.26953352,18.21451922,23.62687498,22.98249984,28.56134937,29.4983659,33.37075638,32.62719045,33.25026907,34.51499955,33.94928126,11.29749997,10.47000009,15.64744728,16.2846205,20.78287862,20.61269551,21.56927107,22.51809092,22.40467728,10.53971422,9.962440438,14.36481163,15.11313475,19.02952924,18.56859265,19.26668195,20.34390963,19.99415841,0.993928569,1,1,1,1,1,1,1,31.5079175,-83.55854775,2016,GAH1
B37/MO17,DEH1_2018,N,20.1,702.8031377,0,11,195.25,99.5,67.25,66.5,3.413225795,4.724545566,2.007753279,2.760624154,0.287142856,8.862777665,3.915865231,4.933581623,5.971971652,105.8099996,51.97000122,28.2621423,90.35856978,0.861428567,79.76499898,101.102142,26.37928568,184.7400021,18.24738333,20.30334785,18.96061465,21.19242313,20.3949075,18.85770366,17.73482038,14.47844699,15.08372737,17.38161278,18.28454564,22.01469092,28.14795471,32.28714262,31.68230149,32.09286912,30.42106803,28.79790015,6.703871004,7.41363637,12.85857977,17.97497576,22.0019049,21.31992057,22.76420594,22.26141136,20.21526036,6.825711165,7.366383816,10.38385741,15.21158117,19.10753111,18.47850441,19.35879976,18.34204267,16.58274325,0.781601378,0.839058448,0.989425295,1,1,1,1,1,38.65164475,-75.44913625,2018,DEH1
CG119/CG108,MIH1_2017,Y,17.7,731.1212129,0,2,229,110,65,64,2.651290334,1.642500043,0.365195355,3.685889798,0.022982455,0.462972321,1.745768067,1.924198947,6.215848807,82.19000036,13.14000034,4.417894763,131.6678931,0.068947365,5.871578781,77.40789432,25.15789459,187.919471,20.75480046,19.52619267,24.47429891,19.89055103,21.94334328,22.12060477,17.47908742,14.76431364,9.641321864,18.99677434,22.1187501,26.44652255,27.49693157,27.7329823,27.82492569,25.37386911,24.10071042,20.63989867,5.961290348,11.91874993,11.36318641,16.0503933,16.08877179,14.96255052,12.27657104,9.93890341,8.936309075,7.303217139,10.01258026,11.86785018,14.06113521,14.11607898,13.75096176,11.67659513,10.59348898,9.148775778,0.770126733,1,1,1,1,0.999072621,0.949278334,0.816440377,42.68116575,-84.49434125,2017,MIH1
PHG39/PHN82,IAH4_2019,Y,32.55,655.8208767,15,2,262.75,135,62,60.5,7.44874995,0,6.508814674,5.652572602,2.433809479,0.731547632,2.455795253,7.856419535,5.758725846,238.3599984,0,89.12928634,169.456428,4.779285618,8.60571444,106.5300014,62.81714391,173.1250012,18.61457558,24.25652275,18.80062453,19.64217675,17.01762246,21.29967345,16.82875041,12.82062273,10.73648339,20.72718754,29.98400002,24.57226332,29.58102216,28.11761892,27.58625519,26.21902431,25.70162766,18.66579105,8.655312385,16.39199963,13.30590142,18.52555793,18.42333308,15.4118289,14.78252205,14.57801647,7.354403302,8.719182336,15.28713381,11.55896644,16.12377034,15.4195504,13.79277779,12.9189296,12.78184671,8.051480754,0.866629464,1,1,1,1,0.996735112,0.969646609,0.721601517,42.03193798,-93.79333213,2019,IAH4
B73/DK3IIH6,KSH1_2016,N,17.45,771.0239551,0,2.5,160,65,87,87,0.381562503,5.593749881,9.031136959,3.981909994,0,0.897724769,5.011421387,3.322424253,5.670073263,12.2100001,44.74999905,140.9509078,148.5090918,0,8.374091108,139.438637,19.93454552,175.7722711,18.43315426,14.04582843,18.34613738,20.88446512,22.70328743,20.59441801,18.34986672,18.15379387,17.32510191,19.15124996,21.70124984,22.33901244,27.19377063,36.31272689,35.17540036,32.01078432,33.85633352,30.76895891,2.130625044,11.46499991,9.568238579,14.2621368,21.58727247,22.04353923,20.78061301,22.71134866,19.49139311,6.3158573,9.667291017,9.626890379,13.35418843,19.56599107,19.14397536,18.06824645,19.12054732,17.03744615,0.741573662,1,0.921279778,0.986042268,0.991287871,0.998977631,0.993550002,1,39.14480675,-96.62898225,2016,KSH1
F42/MO17,WIH2_2019,N,26.9,649.0631542,0,0,240.8333333,109.1666667,63.75,63.75,5.084687524,1.186666648,3.682690384,5.868440751,0.695238091,4.73009737,4.315774648,4.395502279,4.547947068,162.7100008,7.119999886,58.08928529,183.8007161,1.222857135,55.05428533,207.5435701,59.53000056,136.8792876,20.51840827,23.10255337,19.84622659,19.54978709,22.13574316,19.04821964,14.90817086,12.98397937,9.337872891,18.93468753,26.85500018,22.80729416,28.92841129,27.86750015,27.53142967,23.33864799,22.30785619,12.19546616,7.173437506,12.79833317,11.75963315,17.3057567,14.67845241,15.42498763,12.56161555,11.34993986,2.687473085,7.568173943,12.44054354,10.32084191,15.24419851,13.63574066,13.78240318,10.8770868,10.55092288,4.713570865,0.808549105,1,0.995612408,1,1,0.966295589,0.875965566,0.450550638,43.320768,-89.33189475,2019,WIH2
TX779/LH195,TXH1_2020,Y,11.96666667,760.9410041,0,2,205.3166667,70.69666667,73.5,73,2.284333333,0,4.613530444,2.949806388,1.362941181,6.741056464,2.844869093,3.829088224,2.301094231,68.53,0,55.97058804,110.7988238,1.362941181,71.52235312,82.32059028,18.97352936,69.29117607,13.91343843,13.3863348,15.08816438,19.79337859,19.48130546,19.24170726,19.77113757,20.7945973,17.91495332,20.02266652,27.17999992,26.60815942,26.52479293,29.39617636,29.12989124,32.2266946,33.03076485,34.59511331,6.794333295,17.20400028,15.2455437,13.65359797,17.29686298,16.61337131,20.73348334,20.06167624,24.24037069,7.901247141,14.27292515,13.38037585,12.76738989,15.58009007,15.11126374,18.39892159,18.53701373,20.50202011,0.821357143,1,0.99243504,0.993791594,1,1,1,0.999042533,30.53781575,-96.4283715,2020,TXH1
CG60/LH162,ONH1_2015,Y,20.65,750.4289914,0,0.5,237.5,112.5,76,76,1.605625002,2.296315821,1.411426091,1.973297954,0.512941169,3.436769168,2.641035405,1.799953816,2.360571209,51.38000005,43.63000059,20.30117703,73.50294104,0.81882352,40.73352947,103.9364728,19.58470627,71.14882509,18.02169462,20.4737019,23.34007091,22.64543997,20.24065375,18.07254412,18.60447299,14.22755231,12.21920895,9.771562532,12.63473691,23.7578119,26.83441686,29.90941261,27.46928249,26.11972075,22.82201755,18.35250846,-0.327500018,2.045263152,11.01347606,13.31919887,17.43313718,16.50329302,14.06775752,11.69572195,7.013714688,2.851211725,4.201400589,10.67713105,12.77399982,15.76589753,14.15032606,12.63577386,10.48249806,7.379159901,0.167098218,0.403345874,0.957007131,0.991950294,1,0.994472794,0.939113043,0.772366561,43.49741975,-80.44806025,2015,ONH1
B73/MO17,ONH2_2017,N,23.85,845.0371061,1.5,13,257,128.5,44.5,40,3.566774253,5.816000056,0.640467161,2.602850346,0.276190468,0.553043346,1.774150425,1.832219351,2.40528059,110.5700018,58.16000056,8.999047586,96.02571482,0.552380936,6.918571438,78.70857161,24.06619065,72.98142847,18.8542372,16.74867072,24.21291039,19.37094181,21.19715784,20.84705237,17.61151759,14.253685,9.927824707,15.7532257,18.68899984,23.40262829,26.34974997,26.59380949,26.86065013,24.57225317,22.91748616,20.00596815,5.764838726,10.96000004,12.03359118,16.18007827,16.63301581,15.91920336,13.14574071,11.27177775,10.10650586,6.141928302,8.38660306,10.68394655,13.52521671,13.7753985,13.64998718,11.58821465,10.41552723,9.107414304,0.598502303,0.966571423,1,1,1,0.999084662,0.956230826,0.8300025,42.45293025,-81.8827315,2017,ONH2
B73/MO17,COH1_2017,N,33.025,561.212762,1.25,20.25,243.75,118.25,77.5,76.5,3.393124943,0,0.001708684,0.360843908,0.891428554,3.560382097,1.42287895,1.565670675,1.770870451,108.5799982,0,0.02904762,12.29476177,1.600476163,43.78523833,56.48285717,21.02523811,53.20285701,22.26802993,25.65694836,25.9931063,24.2875628,21.26982858,19.37652668,19.65631787,15.92591012,11.99136935,20.38624986,26.27857154,29.00990249,30.95750085,32.84396765,29.24597739,27.87075516,24.49812031,17.64004964,4.676250031,9.955714362,11.44166305,13.33492254,15.64190474,14.2894836,11.55992968,8.650869984,2.505724526,7.387813889,11.22152513,12.97827389,14.53136664,16.23032426,14.11586508,12.58015619,10.40568176,6.007000116,0.859799101,1,1,1,1,0.978368119,0.882220332,0.653649732,40.64850025,-104.9997825,2017,COH1
B73/PHZ51,WIH1_2015,Y,28.1,771.0239551,0,0,280,158.5,65,64,4.730000059,9.059999784,2.430610682,6.190059866,3.242812514,1.739310909,2.563222068,2.582604527,2.064862235,151.3600019,54.3599987,32.30062549,198.0887501,6.485625029,21.11437514,113.2525011,35.42937557,62.48000012,19.32367544,22.19104989,23.8972515,19.04105101,21.62804324,20.72553659,16.09255797,13.7227876,9.595561915,19.95718755,28.15000025,26.05326099,28.85932006,29.07385437,26.51056077,24.82739399,20.18089026,14.51549808,8.517187543,15.30499983,11.82802944,17.48783518,16.48010375,14.49615378,12.31509137,8.581945626,2.680440183,8.558350873,13.98301754,11.81015597,15.26183828,14.95581898,12.98753542,11.68123469,8.628108428,5.087550731,0.777276777,1,1,1,1,0.929186389,0.833919484,0.505939954,43.05511725,-89.528525,2015,WIH1
F42/H95,MIH1_2020,N,19.1,695.7236189,0,28,233.5,128.25,60,59.5,4.984838709,2.447142908,2.78018427,2.64718347,5.506875038,1.476884461,2.688717092,6.006552647,2.65185957,154.53,17.13000035,30.43499947,89.07562375,6.053750038,16.17374991,112.2143753,49.72375022,79.8756258,20.40588462,19.28742858,24.32683064,21.06964646,18.47526628,19.40802789,18.05267967,13.18055513,11.8632568,17.75483874,24.12857165,28.18736501,29.25734834,30.47187495,29.12451894,27.19720882,23.65947149,18.53645566,5.91032262,13.18571418,13.36449351,15.87753885,17.57625037,17.40439215,14.2199518,12.09430501,6.603961046,6.886871568,11.64218502,13.33305563,14.86544572,16.04104967,15.33737973,13.2580117,11.17810785,7.349100415,0.70564517,0.993469382,1,1,1,0.990981538,0.929873564,0.775463757,42.7085775,-84.4705825,2020,MIH1
TX714/PHZ51,IAH4_2017,Y,17.7,731.1212129,0,2,229,110,65,64,3.054193612,4.63857133,5.654282844,2.356146022,0.145000003,0.823262634,3.029939984,2.506485397,3.022032747,94.68000197,32.46999931,92.55000019,79.81000018,0.290000005,7.931363713,110.0431818,17.65818187,91.79227275,19.60434628,22.37855189,18.81628808,21.46940114,22.42332305,21.26952374,19.1513695,15.94205759,15.34138578,17.83935482,25.21428544,21.76755785,28.88340452,30.88984893,30.99338411,28.30609907,26.26622464,25.93438806,4.952580655,10.13999993,10.24708413,15.02150207,17.47128796,18.07608078,15.80662465,13.87026602,12.51354651,6.575243948,10.82301274,9.649960621,14.3656457,16.22810104,16.57398155,14.36597852,12.57546566,12.06214068,0.727396317,1,0.910082199,1,1,1,1,0.987168831,41.99455432,-93.69030947,2017,IAH4
CG60/LH162,MOH2_2015,N,13.05,731.1212129,0,0.5,165,65,62,60.5,3.914838722,3.534545422,2.891676029,5.446623968,2.505882375,1.1137255,5.068586465,0.980448186,4.011119538,121.3600004,38.87999964,35.23176398,173.6929392,5.011764751,10.0235295,148.9223525,6.487058864,124.3447057,19.08701148,18.12534948,17.16717858,21.59629129,16.88945411,20.34516158,18.32895435,19.90608894,16.95494386,18.756129,18.24727275,23.87322904,29.02836507,30.59176479,31.93248319,30.27285599,28.73220747,28.34062618,6.152580692,8.059091026,15.30129973,17.80114352,21.94705907,21.39261428,20.17023127,17.40519331,17.20941189,7.288196993,7.58478923,12.05891064,15.51775091,18.26941193,18.66254873,17.2518739,15.21359182,14.97078901,0.75554147,0.814935086,1,1,1,1,1,1,38.89807917,-92.2079,2015,MOH2
B14A/H95,COH1_2017,N,37.225,577.3025774,0,18.75,242.75,122.5,77,76,3.393124943,0,0.001708684,0.360843908,0.891428554,3.560382097,1.42287895,1.565670675,1.770870451,108.5799982,0,0.02904762,12.29476177,1.600476163,43.78523833,56.48285717,21.02523811,53.20285701,22.26802993,25.65694836,25.9931063,24.2875628,21.26982858,19.37652668,19.65631787,15.92591012,11.99136935,20.38624986,26.27857154,29.00990249,30.95750085,32.84396765,29.24597739,27.87075516,24.49812031,17.64004964,4.676250031,9.955714362,11.44166305,13.33492254,15.64190474,14.2894836,11.55992968,8.650869984,2.505724526,7.387813889,11.22152513,12.97827389,14.53136664,16.23032426,14.11586508,12.58015619,10.40568176,6.007000116,0.859799101,1,1,1,1,0.978368119,0.882220332,0.653649732,40.64850025,-104.9997825,2017,COH1
PHG39/PHN82,ONH2_2015,Y,25.1,776.1726961,0,0,274,128.5,81,80,1.876451608,4.282666683,1.928005431,1.58261263,10.80264742,1.923208582,3.114388399,4.294901914,2.356388962,58.16999984,64.24000025,23.61999965,57.22470651,21.60529484,21.1552944,115.5017658,31.56294079,72.1164696,18.95380112,18.76709785,21.17743809,22.45418875,20.04103015,18.4543581,18.45373918,15.80078253,13.34539525,11.17387095,14.38466663,23.91200153,26.61279381,30.15176526,27.65053462,26.77986929,25.87464046,20.7920557,2.006774224,5.636000033,13.64950245,15.64688346,19.32647026,18.51812829,16.74694623,15.4972221,11.03054456,3.742938436,5.617129505,11.53065914,13.52353119,16.78542678,15.13421866,13.95153495,13.1846932,9.37660249,0.276970043,0.589690475,0.985132406,1,1,1,0.993019959,0.931831119,42.45408625,-81.8816065,2015,ONH2
W10001_0022/PHB47,NEH4_2015,N,14.8,790.3317336,0,2,255,130,65,52,2.821875036,0,3.668207424,2.0125769,1.951249957,2.654893884,1.684158262,0.190010425,1.166079967,90.30000114,0,33.89000034,59.04687595,1.951249957,28.04999942,59.1787506,1.401875056,35.09749981,18.84220009,27.31064491,20.41342533,20.52862815,19.03072298,18.81303122,18.33826559,17.15407273,12.68489203,24.01437524,30.79399948,29.66091772,30.90712841,30.81250072,28.65153035,29.50292414,26.73776808,20.93262179,13.35843744,15.59799976,18.4981335,19.26878801,20.26031268,17.34358901,16.24316685,11.04417556,7.09840123,11.80342709,15.44887437,16.14310254,17.09436255,17.53736601,15.18702607,15.25106182,11.88303257,8.618375536,0.931774556,1,1,1,1,0.97284651,0.984144349,0.784438609,41.16732275,-96.41663225,2015,NEH4
F42/OH43,INH1_2018,Y,21.14,839.5022096,0,2,246,108,61.5,59.5,2.767096756,4.68454543,2.7337539,2.608245307,0.180000007,3.094468228,3.412660528,0.546071422,1.653962344,85.77999943,51.52999973,31.28214284,86.61642764,0.256428582,29.52071404,116.6621433,3.926428522,50.80214219,18.97651723,17.84080185,18.4751702,21.91502565,21.1577316,19.53552192,18.82147066,19.16946561,15.73843824,16.02451609,18.1199998,25.33039297,28.95851984,31.36964308,31.15694425,28.16765345,28.4284546,26.00206774,3.260645186,6.861818249,15.08608447,16.0398559,19.18499974,18.88806934,16.73005964,15.8360335,13.18834038,5.572938243,7.259226835,12.75390782,14.76719288,17.27732141,17.05840253,14.63863294,14.40004061,12.39915253,0.613732714,0.707012975,1,1,1,1,1,0.979968538,40.4787825,-86.9898145,2018,INH1
CG44/CGR01,WIH1_2019,Y,19.25,675.7722478,0,0,260,140.835,68.5,67.5,3.104193578,4.990909143,3.989206625,5.063632664,7.174102343,5.657788874,3.979490855,4.117971668,7.043559998,96.23000091,54.90000057,56.46538491,184.9676922,7.656153606,56.9199983,170.6046141,43.34153838,211.8461548,19.32800511,20.47989629,21.14585761,19.94081469,20.4834897,19.00171798,17.70480678,14.70759561,11.13260624,14.4303226,19.6027272,23.71186264,26.54399323,29.1737175,29.51828996,25.99775321,22.10125555,19.22207941,3.044193574,6.375454621,11.90649765,15.02653282,17.46782019,18.4264638,14.78313726,11.24849031,9.42963116,4.974875238,7.497369644,10.75801096,13.26663909,15.42227287,16.03343447,12.80151602,10.12875121,8.730340077,0.520449311,0.882272729,0.994529143,0.999440504,1,0.998245342,0.92932789,0.792629622,43.060857,-89.494068,2019,WIH1
PB80/PHZ51,DEH1_2016,Y,20.05,738.2007317,0,2,276.5,145.5,78.5,79,2.701875035,7.431818214,3.891344367,3.01543569,5.358105985,2.453055546,7.028031294,2.624318106,3.1968602,86.46000111,81.75000036,66.39499953,101.6163622,13.33454524,24.02227264,188.3231781,15.05272682,98.58045408,18.33047433,10.1000462,19.40971708,21.02938559,18.25055452,17.64652011,18.94468483,17.7865103,16.44449792,18.09,16.60090897,19.90208421,27.67646738,27.79681775,28.9030859,31.91379825,31.21812112,30.57169607,5.529687506,9.93090907,10.11289786,16.8589893,18.02106052,19.78800518,21.90881045,21.62957593,20.16127331,6.825577378,7.645605865,8.606637786,14.43603228,14.98401645,16.37610101,18.85541374,18.37748956,17.3477875,0.726328134,0.729318176,0.990929859,1,1,1,1,1,38.6482025,-75.44606,2016,DEH1
B97/PHB47,GAH1_2016,N,13.7,811.57029,11,9,190,95,55.5,55.5,6.466250051,4.395000041,0.566421492,2.549627568,3.17469698,5.859943136,4.096967014,2.330999996,2.476261007,206.9200016,35.16000032,6.21000006,86.0200003,9.52409094,52.42727233,105.6731797,11.65499998,76.76409122,15.95696127,18.25385642,20.33100053,20.74024209,20.01064868,19.54302735,19.38198769,19.26953352,18.21451922,23.62687498,22.98249984,28.56134937,29.4983659,33.37075638,32.62719045,33.25026907,34.51499955,33.94928126,11.29749997,10.47000009,15.64744728,16.2846205,20.78287862,20.61269551,21.56927107,22.51809092,22.40467728,10.53971422,9.962440438,14.36481163,15.11313475,19.02952924,18.56859265,19.26668195,20.34390963,19.99415841,0.993928569,1,1,1,1,1,1,1,31.5079175,-83.55854775,2016,GAH1
B73/PHZ51,INH1_2020,Y,21.51,731.1212129,4.5,1.5,248,125.75,68,65,2.63064515,6.092222161,2.380905542,2.638028789,0.629411796,2.977235278,3.349803369,1.095052516,1.575144189,81.54999965,54.82999945,26.35000017,86.90176377,0.755294155,29.77235278,114.9176474,7.60117643,48.41470517,19.12040675,14.46862051,21.68340347,21.75389977,20.24839053,19.66959435,18.78188958,18.00828299,15.45076636,15.20677414,20.6899999,27.1104927,29.42650107,32.0752936,30.36388222,28.15834081,28.66782236,25.41333794,2.934193564,11.51555562,15.17811918,16.46944194,19.37588254,18.23752946,16.66734055,16.5683672,12.52337519,5.193705795,9.337664252,13.54219901,15.16026165,17.73146127,16.3694037,14.61167179,14.83949529,11.90095499,0.576025338,0.994801587,1,1,1,1,1,0.975702381,40.4787965,-86.9895995,2020,INH1
PHW52/PHM49,ARH1_2016,N,20.925,753.6469545,0,2,195.5,112.5,73,70.25,12.62656226,6.052222146,7.859593922,4.411032368,3.769999921,0.095833332,1.834913509,2.950363528,2.931715563,404.0499923,54.46999931,101.1431819,160.496816,7.539999843,0.824999988,46.86636396,14.75181764,90.88318244,16.40757677,14.40289243,17.41332625,19.31399891,17.48165414,22.15918181,19.7781726,18.25208951,17.22596404,20.37124979,20.08666674,25.25253507,26.30445415,29.50681779,32.27019592,33.22074717,33.17606868,32.75999986,8.53968759,10.04999993,14.84655054,15.67568893,20.10318184,20.90335237,23.01320039,23.46584116,23.35664232,8.376579132,8.623890092,12.4075181,13.38568101,16.80499981,18.57005087,20.09384313,20.24603027,19.89808151,0.932198657,0.999841266,1,1,1,1,1,1,34.72952,-90.7603555,2016,ARH1
PHB47/PHZ51,MOH1_2017,N,16.4125,731.1212129,1.125,5,252.875,117,62.25,61.75,8.937741737,9.40166688,2.512230721,3.318030003,5.035714369,1.794490762,1.996986524,1.220079397,1.67255761,277.0699939,56.41000128,33.26619119,103.9014299,11.93095259,15.87761924,65.30142803,7.334762096,51.25476209,18.72482054,18.08832916,22.62422694,21.00800173,18.77514496,19.93438148,19.70533138,19.36646121,17.34329115,21.92032254,25.32999992,25.47495036,29.30087203,30.46650729,32.25412016,29.92026774,28.22145964,28.04827898,10.06000005,15.27666648,12.99827088,17.39768618,19.78222205,21.21359122,18.70404881,16.33857143,14.9717184,9.612847321,12.76903024,11.94928206,15.49761919,17.12130987,18.67277384,16.20463701,14.48208578,13.92850008,0.915472353,1,1,1,1,1,1,0.999239796,38.89264,-92.2057525,2017,MOH1
PHB47/PHZ51,SDH1_2015,N,16,646.81058,0.5,3,153,76.5,72.5,72.5,1.890000034,2.68444448,2.847212523,0.928406021,1.08916667,1.213193166,1.12388612,3.994558873,0.570569385,58.59000105,24.16000032,33.86000057,31.14874977,1.720000006,12.77624983,39.02562428,27.90249949,17.65812508,21.16446504,23.3864585,24.03054242,23.94878495,21.74335716,21.42490048,20.60212775,16.27746828,15.18579983,19.04290341,22.5888888,27.20826416,30.46229654,29.54760476,31.86073879,31.47770382,29.48664523,24.89733582,4.208709664,8.468888919,11.69082143,14.25969647,14.29062517,16.06534098,14.02269822,14.11578116,6.942900096,6.807516906,9.210660666,12.27390437,14.67606113,14.18888263,15.81431879,15.00552731,14.17539039,9.834808296,0.77025346,0.983690483,1,1,1,0.983472358,0.961069402,0.950039755,44.208745,-102.928745,2015,SDH1
F42/OH43,GAH2_2017,Y,17.7,731.1212129,0,2,229,110,65,64,5.215806507,2.59000005,0.877047008,6.976424555,36.66571527,11.68990473,2.766634194,6.717714339,5.237281131,161.6900017,18.13000035,10.98809533,219.4985743,69.630002,116.6428568,77.55666748,33.5885717,162.3557151,18.59375843,20.97986943,21.98193589,18.54567619,14.33990901,17.7663424,19.78523868,18.86354985,17.57616326,25.93516134,24.17571449,30.47339418,29.31252372,29.52904774,29.72980419,32.72601502,32.10511542,30.76784952,12.17225799,9.938571385,16.15324828,18.06353156,20.43476164,19.51114297,21.20992787,20.86352373,19.95543778,11.90954616,10.38538115,15.45655397,15.75249851,16.98190469,16.63412837,18.90169131,18.47155665,17.41241638,0.999631335,0.985714285,1,1,1,1,1,1,33.727145,-83.29821525,2017,GAH2
LH198/PHZ51,IAH3_2017,Y,18.225,788.7227521,0,2,229,110,65,64,4.153750014,4.476666673,3.404720357,2.207347727,0.783636364,2.628276904,1.892687593,2.328876272,1.794257086,132.9200004,67.1500001,54.03954627,78.33863542,1.567272728,28.02681865,71.85545488,19.05045461,54.69545453,16.14493189,17.75127989,18.89303832,22.07985964,20.54923199,20.99384486,19.81852315,17.22919489,15.64326955,15.84312499,15.5066665,21.42652578,27.714982,28.45522753,29.90074383,27.6545798,25.64720852,25.13760955,4.41906251,4.141333344,9.782295063,13.56526933,16.05901469,16.6123348,14.8096002,12.74600627,11.28191352,5.818880471,5.62230391,9.387130072,13.2881535,14.4256186,15.3843105,13.65871261,11.89796048,11.29223634,0.568604913,0.570380948,0.879734313,1,1,1,1,0.979205627,41.9758706,-92.24318881,2017,IAH3
B73/MO17,WIH2_2019,N,33.25,627.1810052,0,0,274.1666665,130.8333335,71.5,71,5.084687524,1.186666648,3.682690384,5.868440751,0.695238091,4.73009737,4.315774648,4.395502279,4.547947068,162.7100008,7.119999886,58.08928529,183.8007161,1.222857135,55.05428533,207.5435701,59.53000056,136.8792876,20.51840827,23.10255337,19.84622659,19.54978709,22.13574316,19.04821964,14.90817086,12.98397937,9.337872891,18.93468753,26.85500018,22.80729416,28.92841129,27.86750015,27.53142967,23.33864799,22.30785619,12.19546616,7.173437506,12.79833317,11.75963315,17.3057567,14.67845241,15.42498763,12.56161555,11.34993986,2.687473085,7.568173943,12.44054354,10.32084191,15.24419851,13.63574066,13.78240318,10.8770868,10.55092288,4.713570865,0.808549105,1,0.995612408,1,1,0.966295589,0.875965566,0.450550638,43.320768,-89.33189475,2019,WIH2
CG108/CGR03,NCH1_2017,N,14,731.1212129,0,2,173.5,77.5,65,64,5.929354779,4.097142833,0.297958702,3.860588722,6.673809642,5.437090039,2.513672686,1.67758051,4.140460835,183.8099982,28.67999983,4.023333254,115.8195228,10.90952401,51.84571517,65.15761944,9.68857149,128.3542859,16.84796118,19.66078799,22.20077414,19.20396089,15.77249108,20.54839894,18.7994723,19.26606379,16.40835168,26.07000006,23.57857159,28.17011276,29.72614366,31.01404729,30.48814813,32.54721675,31.95695904,30.43138246,13.64064524,11.25142826,15.69757802,18.87536398,22.57674573,19.84793622,22.28039625,21.2748593,20.81350234,12.56442422,10.48784987,14.26665949,16.36044911,18.79940835,17.21144066,19.38557496,18.57336573,17.65269876,0.998329492,1,1,1,1,1,1,1,35.29663725,-77.5668065,2017,NCH1
B14A/OH43,WIH2_2018,N,28.04285714,746.9352029,5.428571429,2,262.4285714,128.7142857,69.85714286,68.14285714,3.144193572,1.768571428,3.785071194,5.164846227,1.715952385,3.402224049,3.044948822,9.615599338,3.371772616,97.47000074,12.38,46.28142902,179.8699983,4.560714279,37.70642883,131.4821453,73.47714479,101.7171416,19.25733411,21.12108299,21.47525877,21.2745393,18.31717262,18.53021556,18.66070884,13.62580315,11.37185475,15.52870961,24.66571426,26.09170284,28.23486864,27.86595249,27.65838755,26.70641136,24.92152362,17.96867439,3.195161297,12.95000008,13.88902894,15.13385395,17.40500012,17.0648215,13.77097062,13.5657747,6.887165117,5.289841082,11.57195132,12.6458491,14.08946858,14.71699087,14.50107081,12.89356629,12.23397282,7.279203781,0.580092163,1,1,1,1,0.981419113,0.932006969,0.73866365,43.38075,-89.38645,2018,WIH2
LH74/PHN82,GAH1_2020,Y,17.73,721.6604014,1.5,2,165,65,63,64,4.279687563,0,6.08243138,3.811420537,2.267976227,2.530000055,3.98378478,1.741833346,2.910207357,136.950002,0,84.37571335,135.9278565,4.833571502,22.77000049,107.9378566,9.115000069,90.21642806,16.61263859,21.5972875,19.10636237,20.72286693,14.54687945,18.15584731,20.08605453,19.68634889,18.27781732,25.37343752,26.77166684,25.94144379,27.77824619,29.55357116,30.6518255,31.78195276,33.48178532,33.56322575,12.43875006,10.55666669,12.19035929,13.80720781,20.58059497,20.26111097,20.57386992,21.96838095,22.25456222,11.80508215,11.69113274,11.88989525,13.35432975,17.06708306,17.45646823,18.17996521,19.67032327,19.80166763,0.988537947,1,1,1,1,1,1,1,31.5079775,-83.558517,2020,GAH1
F42/H95,MOH1_2017,Y,17.7,731.1212129,0,2,229,110,65,64,8.937741737,9.40166688,2.512230721,3.318030003,5.035714369,1.794490762,1.996986524,1.220079397,1.67255761,277.0699939,56.41000128,33.26619119,103.9014299,11.93095259,15.87761924,65.30142803,7.334762096,51.25476209,18.72482054,18.08832916,22.62422694,21.00800173,18.77514496,19.93438148,19.70533138,19.36646121,17.34329115,21.92032254,25.32999992,25.47495036,29.30087203,30.46650729,32.25412016,29.92026774,28.22145964,28.04827898,10.06000005,15.27666648,12.99827088,17.39768618,19.78222205,21.21359122,18.70404881,16.33857143,14.9717184,9.612847321,12.76903024,11.94928206,15.49761919,17.12130987,18.67277384,16.20463701,14.48208578,13.92850008,0.915472353,1,1,1,1,1,1,0.999239796,38.89264,-92.2057525,2017,MOH1
F42/OH43,ARH2_2017,Y,18.75,731.1212129,0,2,191.5,79.5,64.5,62,2.789999995,15.83285686,4.776016413,2.853949028,1.142500003,5.651818152,3.905948255,2.4430325,4.688621725,89.27999985,110.829998,61.6427269,88.95863769,3.003181826,52.42863608,105.2449988,13.33772746,145.3472735,17.14489296,19.09436907,20.93439511,19.65670258,19.84409681,19.1211903,18.81176407,19.65259997,17.546866,23.65656266,24.55142866,25.38541455,28.9612549,32.40098458,30.84565692,31.84241473,32.83627249,30.20087953,12.07343751,12.16142872,12.7110645,18.0477898,21.78734854,20.24410098,21.87781566,22.25639174,20.26112908,10.83878158,11.22094165,11.88579938,15.62584547,19.09416656,17.54487895,18.8103181,19.27693671,17.25265116,0.991674107,1,0.97315368,1,1,1,1,1,35.67418125,-90.0752695,2017,ARH2
PHN11_PHW65_0323/LH195,GAH2_2017,N,17.15,745.9238431,0.5,2,210.5,110.5,56.5,57,5.215806507,2.59000005,0.877047008,6.976424555,36.66571527,11.68990473,2.766634194,6.717714339,5.237281131,161.6900017,18.13000035,10.98809533,219.4985743,69.630002,116.6428568,77.55666748,33.5885717,162.3557151,18.59375843,20.97986943,21.98193589,18.54567619,14.33990901,17.7663424,19.78523868,18.86354985,17.57616326,25.93516134,24.17571449,30.47339418,29.31252372,29.52904774,29.72980419,32.72601502,32.10511542,30.76784952,12.17225799,9.938571385,16.15324828,18.06353156,20.43476164,19.51114297,21.20992787,20.86352373,19.95543778,11.90954616,10.38538115,15.45655397,15.75249851,16.98190469,16.63412837,18.90169131,18.47155665,17.41241638,0.999631335,0.985714285,1,1,1,1,1,1,33.727145,-83.29821525,2017,GAH2
PHW52/PHM49,MOH1_2019,Y,17.7,731.1212129,0,2,229,110,65,64,4.907419428,9.604285649,1.196872498,5.110410132,2.801666578,0.134444442,2.379708247,7.113428694,4.895301043,152.1300023,67.22999954,11.80625023,164.838749,8.404999733,1.209999979,75.06875065,40.48125055,151.407499,17.06584337,18.93672998,19.67293901,19.7601386,19.15913832,21.9354776,19.8853634,16.02367873,15.25367059,21.02129029,24.39000021,28.1749685,28.34324165,30.6675001,31.10263872,30.50513849,30.12964257,28.72433606,9.960645122,13.42857129,17.39529908,18.05620523,21.36166632,20.47986097,19.32223721,20.23911926,18.26780907,9.14854411,11.68484074,14.86417974,15.32069344,18.01458321,17.78759074,16.90970541,17.17973687,15.57482707,0.941624426,1,1,1,1,1,1,1,38.8956125,-92.20883,2019,MOH1
B73/MO17,IAH3_2019,Y,24.2,681.5645814,0,0,236.5,132.5,65,64,2.879677419,8.325833271,8.514982687,3.930253796,0.537380945,2.3054841,2.306432914,9.350841805,5.38576807,89.26999998,99.90999925,122.1842849,140.4857139,1.612142835,22.50785688,97.56999955,77.30999979,164.0414292,18.1142604,18.14433392,18.34133211,20.20102762,20.30083813,21.10542726,19.14151731,15.03963484,12.83068274,16.60032246,18.1858333,22.24543073,27.09611601,28.60416662,30.1634999,27.59661349,25.62734982,23.13272506,3.497096781,6.015833348,10.94521806,15.70806976,18.18130992,18.44873807,15.55405048,14.14793364,12.04513443,5.803122395,7.048807354,9.977529243,13.7421048,15.43701566,16.36698878,13.8976006,12.43400485,10.94701098,0.634539169,0.718095232,0.926337681,1,1,1,0.9932483,0.897879883,41.97593131,-92.24310603,2019,IAH3
PHN11_PHW65_0323/LH195,NEH2_2018,Y,15.8,760.7264732,0,2,275,111.25,65,64,1.223548393,0.707272736,4.763911635,2.422660693,9.359230876,1.187769238,2.22139935,1.060615372,2.655643509,37.93000019,7.780000091,61.58923048,72.52538565,18.71846175,11.03461544,72.02230704,6.795384554,82.07230774,19.8632896,17.86074517,17.24350838,22.63499015,18.62862352,21.21286184,19.62237806,18.45252819,16.56870138,17.6919355,17.47909086,23.04657186,30.81178887,30.82346183,31.15499996,29.41523597,30.138927,26.57117624,3.026129,6.979090886,13.86801705,18.31582591,19.94076905,19.05673485,17.52505525,17.69200753,12.69636803,6.275299993,6.965919572,11.10889174,16.66188215,17.38211544,17.1119836,15.61857368,16.09025205,12.68735507,0.68033411,0.762240243,1,1,1,0.996687975,0.997695055,0.910447978,41.38042275,-96.55988375,2018,NEH2
B73/PHN82,WIH1_2016,Y,22,753.0033618,0,4.5,257.5,144.5,73.5,73,2.076129018,1.94750002,4.430291291,4.068377178,0.606590927,8.204471101,6.520888551,7.285801826,4.413191112,64.35999957,23.37000024,50.66818307,153.9786358,1.017727305,87.41727302,222.4604529,58.95590957,134.9268184,19.92805462,20.9108026,19.53546339,20.65690042,18.97296773,19.76360502,17.50876714,15.21370917,12.23883056,16.70258062,17.57583312,27.08182728,26.49130857,27.22159082,28.35833875,27.6700069,25.1458901,22.98674642,3.327419363,4.990833327,14.04723809,14.47423798,17.58636334,16.7186736,17.17399145,14.32051147,12.5735533,5.875866612,6.419508974,12.98865398,12.92924289,14.50224274,14.72651534,14.55658067,12.23924581,10.7486024,0.621198161,0.7653869,1,1,1,0.999967803,0.998306277,0.970976554,43.05632525,-89.53194975,2016,WIH1
W10004_0216/PHZ51,MIH1_2017,Y,17.7,731.1212129,0,2,229,110,65,64,2.651290334,1.642500043,0.365195355,3.685889798,0.022982455,0.462972321,1.745768067,1.924198947,6.215848807,82.19000036,13.14000034,4.417894763,131.6678931,0.068947365,5.871578781,77.40789432,25.15789459,187.919471,20.75480046,19.52619267,24.47429891,19.89055103,21.94334328,22.12060477,17.47908742,14.76431364,9.641321864,18.99677434,22.1187501,26.44652255,27.49693157,27.7329823,27.82492569,25.37386911,24.10071042,20.63989867,5.961290348,11.91874993,11.36318641,16.0503933,16.08877179,14.96255052,12.27657104,9.93890341,8.936309075,7.303217139,10.01258026,11.86785018,14.06113521,14.11607898,13.75096176,11.67659513,10.59348898,9.148775778,0.770126733,1,1,1,1,0.999072621,0.949278334,0.816440377,42.68116575,-84.49434125,2017,MIH1
W10001_0022/PHB47,KSH1_2015,N,14.4,787.7573632,0,2,229,110,85,82,0.688124985,3.518749885,2.537239536,4.634326915,6.340784251,4.013516285,5.753010874,3.95559662,1.81791271,22.01999953,28.14999908,47.40176476,147.1705882,9.165882307,38.18235242,161.646473,23.74705871,56.35529401,19.48910828,20.34062409,19.21958791,21.30664108,18.00351726,18.80818483,18.60066932,17.86718078,18.78253622,17.69406253,22.96750021,19.85221485,29.31892792,29.11705877,31.41670577,31.16760655,30.50505886,29.96204923,3.297187492,8.938749969,8.792561365,16.998743,18.09705929,19.84989561,20.1377744,20.03282345,17.06836811,6.184738542,9.476230158,8.381520189,15.38816616,15.61697663,17.65547515,17.65556265,17.32458654,15.75670183,0.6778125,1,0.850138809,1,1,1,1,0.98304554,39.21641775,-96.60482225,2015,KSH1
B37/H95,NCH1_2020,N,18.775,707.308286,19.25,0.5,205.9375,98.75,65,64,3.811250031,6.583749771,1.870150701,7.593384547,0.8842857,2.636686467,3.330713381,6.121142871,7.323433169,121.960001,52.66999817,29.28357046,255.9407139,2.652857099,23.48571392,94.03142862,30.32857149,227.0264283,17.79310012,18.2030313,21.90311614,16.62410426,22.73441878,20.97653859,20.54309533,18.15988809,15.65141399,21.6678125,23.21999979,23.34870433,27.04964214,28.2173808,30.95634976,33.07043217,33.2972859,31.24656685,8.082812505,11.53125006,9.51933213,18.09668861,18.19142909,20.58560522,22.1124513,22.85800005,21.91055295,8.88590596,10.34544598,9.896418393,14.69404398,15.249625,17.76881847,19.50312724,19.99035698,18.5620876,0.935200903,1,0.995619773,1,1,1,1,1,35.30009892,-77.57131746,2020,NCH1
PHN11_PHG47_0251/PHB47,MNH1_2016,N,19.65,731.1212129,0,2,229,110,67.5,66,2.893225764,0.170000008,5.030425272,6.121705224,6.438583227,6.210954471,8.179238718,7.617170889,9.394742846,89.68999869,1.190000057,67.79499967,212.8530004,13.67999972,65.11499918,295.599999,62.20750045,287.315495,17.89673604,26.28611401,18.122652,20.29948324,15.80941307,17.87578139,16.93568638,15.29315111,12.15008877,17.5148386,25.45428576,24.53269911,27.63337014,28.14450006,28.70269129,27.15887183,24.8505404,22.53032632,6.338387108,9.824285678,13.68155402,15.81410535,17.82425013,18.42635015,16.92976579,13.57123889,11.50456607,6.871134867,10.90204251,11.6566452,13.98369248,15.05511886,15.68076391,14.22086787,11.86153057,10.26982602,0.734527645,1,1,1,1,0.999952477,0.98729881,0.936092645,44.06646925,-93.533648,2016,MNH1
LH74/PHN82,INH1_2016,N,15.8,706.0211008,1.5,18,241,118,59.5,59.5,3.034516148,1.382857186,3.106568823,3.966270256,3.500454469,6.752636371,3.451172643,3.198528118,3.024422797,94.07000059,9.680000305,31.26000059,138.8759105,3.500454469,67.52636371,113.8927274,21.6654544,92.62590972,17.63328649,23.97511796,20.66441577,20.1236558,19.9706746,19.39149484,18.14527656,15.98533716,14.62820237,18.74516109,26.31142807,27.84898846,28.12893417,28.20272714,29.14504538,29.16779001,27.95564941,27.07739093,7.950322636,11.69428553,16.31817922,16.10606538,16.8522731,18.34872752,18.58889605,17.50284626,15.03841012,7.677100472,11.91689015,14.24288378,14.4184555,14.68521604,15.7994256,15.9329094,14.92238151,13.51734692,0.852649763,1,1,1,1,1,1,0.996102814,40.4787595,-86.98982,2016,INH1
PHN11_PHW65_0323/LH195,ONH2_2015,Y,28.2,733.6955833,0,0,271,114,83,81,1.876451608,4.282666683,1.928005431,1.58261263,10.80264742,1.923208582,3.114388399,4.294901914,2.356388962,58.16999984,64.24000025,23.61999965,57.22470651,21.60529484,21.1552944,115.5017658,31.56294079,72.1164696,18.95380112,18.76709785,21.17743809,22.45418875,20.04103015,18.4543581,18.45373918,15.80078253,13.34539525,11.17387095,14.38466663,23.91200153,26.61279381,30.15176526,27.65053462,26.77986929,25.87464046,20.7920557,2.006774224,5.636000033,13.64950245,15.64688346,19.32647026,18.51812829,16.74694623,15.4972221,11.03054456,3.742938436,5.617129505,11.53065914,13.52353119,16.78542678,15.13421866,13.95153495,13.1846932,9.37660249,0.276970043,0.589690475,0.985132406,1,1,1,0.993019959,0.931831119,42.45408625,-81.8816065,2015,ONH2
B14A/MO17,INH1_2018,Y,17.7,731.1212129,0,2,229,110,65,64,2.767096756,4.68454543,2.7337539,2.608245307,0.180000007,3.094468228,3.412660528,0.546071422,1.653962344,85.77999943,51.52999973,31.28214284,86.61642764,0.256428582,29.52071404,116.6621433,3.926428522,50.80214219,18.97651723,17.84080185,18.4751702,21.91502565,21.1577316,19.53552192,18.82147066,19.16946561,15.73843824,16.02451609,18.1199998,25.33039297,28.95851984,31.36964308,31.15694425,28.16765345,28.4284546,26.00206774,3.260645186,6.861818249,15.08608447,16.0398559,19.18499974,18.88806934,16.73005964,15.8360335,13.18834038,5.572938243,7.259226835,12.75390782,14.76719288,17.27732141,17.05840253,14.63863294,14.40004061,12.39915253,0.613732714,0.707012975,1,1,1,1,1,0.979968538,40.4787825,-86.9898145,2018,INH1
B14A/H95,WIH2_2015,Y,29.9,822.5113645,0,13,232,110,65,64,3.126774188,2.655000041,4.103605878,5.336067251,1.868823528,3.142847566,3.066358713,6.463272165,3.426278957,96.92999983,15.93000025,53.58117651,186.0694135,5.435882344,36.03705852,132.4747064,52.80117733,103.4994124,19.63646212,20.57311455,21.5892617,21.07111177,18.36300238,19.20517036,18.54583572,13.68038168,11.37476292,15.6409678,24.97666677,26.11823115,28.09529077,27.51588227,27.91298604,26.4469062,23.95331443,17.63645543,3.355806466,13.62666686,13.88922494,15.17788174,17.2276475,16.92946091,13.73434519,12.63733902,6.343913375,5.370860554,11.93138906,12.65256426,14.04290221,14.43586033,14.57588984,12.76646014,11.49482956,7.023163717,0.588214292,1,1,1,1,0.979783322,0.914260835,0.715230077,43.3264485,-89.33359975,2015,WIH2
F42/OH43,MIH1_2018,Y,25.65,666.7619512,0.5,2,230,114,66.5,63,5.012258064,1.858571376,2.303311915,3.259516918,0,1.604151199,2.926198314,4.215530212,2.830074039,155.38,13.00999963,29.79071396,101.4421425,0,18.16214306,122.3414291,36.1057143,85.34142821,19.78619528,22.4124418,25.08845985,20.26124585,21.4032747,19.63779009,17.59687557,14.64655727,11.33533343,19.08258061,24.4042857,26.50594484,29.85917276,29.20761908,28.94024759,27.00181445,23.87253837,17.74080494,7.633548365,11.57000004,11.5577044,16.90410614,16.77238059,17.0588351,14.06431329,11.77329027,6.160183734,7.985580948,11.08545818,11.96011996,15.51317333,15.06763476,15.11768347,13.15911947,11.00371024,6.94989994,0.750656678,0.993928569,1,1,1,0.982067155,0.951173414,0.716707841,42.689234,-84.49755575,2018,MIH1
TX714/PHZ51,NEH4_2015,N,14.2,796.7676598,0,2,270,150,65,59,2.821875036,0,3.668207424,2.0125769,1.951249957,2.654893884,1.684158262,0.190010425,1.166079967,90.30000114,0,33.89000034,59.04687595,1.951249957,28.04999942,59.1787506,1.401875056,35.09749981,18.84220009,27.31064491,20.41342533,20.52862815,19.03072298,18.81303122,18.33826559,17.15407273,12.68489203,24.01437524,30.79399948,29.66091772,30.90712841,30.81250072,28.65153035,29.50292414,26.73776808,20.93262179,13.35843744,15.59799976,18.4981335,19.26878801,20.26031268,17.34358901,16.24316685,11.04417556,7.09840123,11.80342709,15.44887437,16.14310254,17.09436255,17.53736601,15.18702607,15.25106182,11.88303257,8.618375536,0.931774556,1,1,1,1,0.97284651,0.984144349,0.784438609,41.16732275,-96.41663225,2015,NEH4
LH195/LH82,GAH1_2015,N,14,749.7853988,0,0,160,75,58,58,4.231249915,0,5.95843649,3.852603143,2.594000032,2.429925956,4.217759372,2.225466652,2.667397826,135.3999973,0,82.56599903,137.5619979,4.851333332,21.8693336,117.5779999,11.12733326,82.68933261,16.59936112,21.58269278,19.11661296,20.61616366,14.5260024,17.86473659,19.792993,19.1551459,18.46432438,25.43281227,26.81500022,26.00854227,27.82657943,29.9603331,30.57562955,31.8228303,33.58693334,33.75221527,12.50374998,10.5999999,12.24448314,13.90452364,20.76811106,20.25348139,20.64254904,22.17719986,22.29090342,11.85447967,11.72664631,11.94062668,13.41492991,17.36422208,17.41455547,18.23714923,19.83066815,19.89653894,0.988973219,1,1,1,1,1,1,1,31.505771,-83.555095,2015,GAH1
F42/OH43,ARH2_2018,N,15.03,731.1212129,0,2,177,87.5,66.5,60,4.523124937,5.877777735,3.202210455,3.225384198,0.461428574,5.0703967,1.707251537,1.546976178,1.915506911,144.739998,52.89999962,46.32285666,103.4992844,0.461428574,45.6335703,42.68714207,7.346428526,59.38071425,17.7541087,19.6455271,19.52097147,20.05684428,23.80737271,19.97823453,19.1297214,18.25489796,18.05597286,19.61875001,21.92000008,22.77345622,28.90718296,31.9800005,30.98396799,32.84130907,33.56595603,31.90391706,8.73406262,10.34777779,11.28771296,17.85430307,18.706429,19.75547635,22.48266054,23.2605133,21.25223495,8.305601359,9.423215554,10.22107903,15.52009327,17.35232514,17.37984482,19.61861005,20.2782542,18.53689778,0.857433028,1,0.994106717,0.995975764,1,1,1,1,35.674241,-90.0749725,2018,ARH2
LH74/PHN82,NEH4_2017,N,14.55,807.0651417,0,3,184.5,62,65,64,4.590322548,9.024000108,0.479867887,3.811963874,0.538484848,1.684924238,2.267850047,4.65714279,3.86350146,142.299999,90.24000108,5.110000134,117.465454,1.615454544,15.13454541,79.63181698,32.59999953,117.4254543,19.43913734,17.21531701,24.1724839,20.95919975,19.50871722,19.21508163,18.90739129,17.69743939,15.39985704,20.62225799,19.52599983,28.59420128,30.06742287,31.22545445,32.42712118,28.61649727,28.47933405,26.83248677,7.519354824,9.509000063,13.57084537,16.75424147,19.44181835,20.40977276,17.16375472,15.74751643,13.71007622,8.50655754,8.450389052,13.62685976,15.58817353,17.34314748,18.36849178,14.97842881,14.34457974,12.87682879,0.797626729,0.881249991,1,1,1,1,1,0.994264069,41.162,-96.409,2017,NEH4
F42/OH43,WIH2_2016,Y,20.35,767.1623994,0,18,276.5,139,60.5,60,2.185483832,6.563333432,3.447094458,4.124693788,6.707159024,6.158880111,5.945293137,1.654273513,4.758742445,67.74999878,39.38000059,44.45545418,149.2718189,18.91272705,63.86318129,228.7613642,17.11772738,143.1609097,20.07161814,17.64681498,20.48120554,20.03716075,21.00097141,18.73971629,16.31911952,14.94670844,10.3303759,18.34677419,27.65666644,25.59626749,27.3504729,29.44640147,29.15349181,26.70938079,24.21329019,20.37268081,4.840000014,15.2516667,12.43660419,15.21846351,16.18390156,17.81047537,15.29826924,12.0891497,9.537770322,6.76617685,13.67923016,11.77429452,13.6256578,15.0809804,15.56950508,13.35737665,11.10536848,8.849967039,0.729688939,1,1,1,1,0.998061418,0.979766622,0.886131912,43.32649075,-89.33882925,2016,WIH2
LH195/PHZ51,NEH1_2015,N,15.2,785.504789,0,2,250,115,65,59.5,2.959062506,0.753999996,4.745632833,2.187040691,0.179999996,3.601448917,1.548000793,0.057812502,1.589214364,94.69000018,3.769999981,46.84999943,63.50812512,0.239999995,39.12187557,55.49499987,0.586250016,47.85812447,19.07194562,25.84699936,20.00593662,19.96245842,20.96463704,17.86296284,18.31175333,17.30405645,12.3794141,23.74906254,30.51399994,29.13009987,30.74148671,30.73750019,28.43858622,29.13031746,26.88374984,20.12342532,13.19218739,15.46999989,18.04036499,19.18092822,19.11281252,17.33248289,15.92131484,11.1533021,6.525200269,11.64481375,15.25955733,15.68336601,16.96891106,16.93845514,15.07345461,14.95183393,12.01070089,8.15887847,0.924598212,1,1,1,1,0.96969665,0.982957588,0.758540943,41.290979,-96.41664325,2015,NEH1
W10005_0107/PHB47,WIH1_2016,Y,17.85,792.9061041,0,4,246.5,126.5,70.5,70.5,2.076129018,1.94750002,4.430291291,4.068377178,0.606590927,8.204471101,6.520888551,7.285801826,4.413191112,64.35999957,23.37000024,50.66818307,153.9786358,1.017727305,87.41727302,222.4604529,58.95590957,134.9268184,19.92805462,20.9108026,19.53546339,20.65690042,18.97296773,19.76360502,17.50876714,15.21370917,12.23883056,16.70258062,17.57583312,27.08182728,26.49130857,27.22159082,28.35833875,27.6700069,25.1458901,22.98674642,3.327419363,4.990833327,14.04723809,14.47423798,17.58636334,16.7186736,17.17399145,14.32051147,12.5735533,5.875866612,6.419508974,12.98865398,12.92924289,14.50224274,14.72651534,14.55658067,12.23924581,10.7486024,0.621198161,0.7653869,1,1,1,0.999967803,0.998306277,0.970976554,43.05632525,-89.53194975,2016,WIH1
LH74/PHN82,WIH2_2015,N,31.8,782.6086222,0,0,221.5,122.5,65,64,3.126774188,2.655000041,4.103605878,5.336067251,1.868823528,3.142847566,3.066358713,6.463272165,3.426278957,96.92999983,15.93000025,53.58117651,186.0694135,5.435882344,36.03705852,132.4747064,52.80117733,103.4994124,19.63646212,20.57311455,21.5892617,21.07111177,18.36300238,19.20517036,18.54583572,13.68038168,11.37476292,15.6409678,24.97666677,26.11823115,28.09529077,27.51588227,27.91298604,26.4469062,23.95331443,17.63645543,3.355806466,13.62666686,13.88922494,15.17788174,17.2276475,16.92946091,13.73434519,12.63733902,6.343913375,5.370860554,11.93138906,12.65256426,14.04290221,14.43586033,14.57588984,12.76646014,11.49482956,7.023163717,0.588214292,1,1,1,1,0.979783322,0.914260835,0.715230077,43.3264485,-89.33359975,2015,WIH2
LH195/PHZ51,NEH3_2017,N,24.25,747.2110283,18.5,2,218.5,107,65,64,6.03471326,3.955444498,0.18882913,3.842009577,1.316296295,1.435570981,2.764433094,3.912023778,4.15136979,187.076111,38.21611161,1.987222274,117.8244439,3.948888885,12.8655555,93.99333183,27.38611089,126.3194449,18.53150537,21.70326166,24.15860034,20.80931081,18.66603313,19.02487726,18.75887595,17.51813417,15.15718003,20.20137986,23.21257118,30.13389904,30.13339279,32.06462927,32.76776237,28.39622898,27.87449379,27.0242909,7.908297486,10.26215086,15.17879712,16.87891665,20.62425956,20.98993062,16.95054818,15.08081369,13.75654417,8.47748899,10.0955543,14.95078719,15.67969265,18.3413362,18.75248222,14.77642402,13.79312874,13.00111339,0.783510626,0.953819441,1,1,1,1,1,0.993105158,41.162,-96.409,2017,NEH3
LH195/PHZ51,ILH1_2016,Y,16.1,879.7911074,0,2,246,123,73.5,71.5,2.976905237,4.388409027,2.266536067,5.61207631,2.384848472,3.596551307,3.312350719,4.357499975,4.793790319,93.71999985,46.35499933,33.46068128,180.4177266,4.628863606,41.73386359,104.1413657,28.32431801,148.2020453,18.82488241,16.77241452,21.32061235,20.18653607,20.74234538,18.07981042,18.8666989,17.85818253,16.07680721,18.05081144,19.20204525,23.0422997,29.42292662,27.90308728,26.97317812,29.60218573,29.15938829,28.17592877,4.960040295,8.531272602,10.4507586,17.10049505,15.99717794,16.84881478,19.41054858,18.84383108,17.09740687,6.781235125,7.969267807,10.17119166,15.41614171,14.29579798,14.15384892,16.51995977,16.04951253,14.84458937,0.666766271,0.897956159,0.946860721,1,1,1,1,0.999883117,40.0607245,-88.2338815,2016,ILH1
B73/PHN82,DEH1_2015,Y,19.6,721.4673236,0,0,242.5,134.5,64.5,62,2.877187484,6.848000002,1.658122271,2.899811139,0.533124998,6.398055441,4.542065261,4.666333417,5.694818618,92.06999949,68.48000002,26.86312445,94.40374921,0.778750002,57.58249897,115.8581242,26.73625046,176.5393772,18.09789148,17.20138936,20.11151884,21.0089777,21.53492481,19.24730516,17.70191113,15.05628078,15.14846735,16.82656264,19.24400005,20.72376954,27.68890342,31.56656283,31.86354174,32.09465687,30.43364003,29.09395151,6.265937505,9.858999991,10.7453803,17.67876376,20.38750017,21.35659703,22.77220607,22.28250884,20.56647162,6.521960329,8.412914767,9.229957748,14.85993723,17.9770315,18.58170739,19.36170697,18.35807444,16.86736745,0.750435273,0.870857151,0.962682184,1,1,1,1,1,38.62935675,-75.4656925,2015,DEH1
PB80/PHZ51,INH1_2015,N,14.66666667,738.4152625,0,8,226,107.3333333,70.66666667,69.33333333,2.968064535,5.608750075,2.401797478,2.620596579,1.049062505,3.048312443,3.454130844,1.332533481,1.484370975,92.01000059,44.8700006,26.44312483,85.12437463,1.715625018,30.48312443,116.5724995,9.316249996,45.68062523,19.44608656,13.59046638,21.88315593,21.65689439,20.60130358,19.73326552,18.77560381,17.99738388,15.64927463,15.67580632,21.0562501,27.44396829,29.52449332,32.66781175,30.16981242,28.17317586,28.46934151,25.5406298,3.004516139,13.05249977,15.22068343,16.62214482,19.56843758,18.02818774,16.71489706,16.46563638,12.56847521,5.360930658,9.9438759,13.725819,15.26696414,18.11812466,16.1828721,14.63810214,14.67667849,11.95902497,0.609504607,1,1,1,1,1,1,0.986081101,40.477075,-87.000205,2015,INH1
CG119/CG108,MIH1_2016,N,11.05,647.4541727,0,10,188,108,51.5,50.5,3.213870927,0.372000003,1.277668238,2.072144594,0.204761899,2.382636341,6.277866916,3.129595251,4.115734243,99.62999874,1.860000014,16.77857134,74.4033328,0.614285696,24.34142835,217.3680916,23.88571438,123.5814282,20.04481233,22.69628944,22.57460654,21.19066928,19.62511718,19.41470496,17.43536011,14.16523572,12.41239439,17.74322581,29.20999985,25.57947765,28.1508514,27.23547651,30.32783564,28.27294529,26.6388532,22.50219404,5.299677434,16.33600006,11.90361174,14.70447611,15.74579377,17.52671,16.25511672,15.58650841,10.86825081,6.615827776,14.89908974,11.62365975,13.82943527,13.70908531,16.01583991,14.48649579,13.48265,10.09129455,0.734400922,1,1,1,1,0.999987733,0.99326559,0.936590208,42.41206675,-84.2952625,2016,MIH1
B14A/H95,NYH3_2019,Y,23.45,814.7882531,0.5,3.5,242,122.5,77,77,3.722580618,3.873333404,3.769554008,3.757958966,6.56821411,3.88506864,3.604603585,1.929858492,3.709694332,115.3999992,34.86000064,61.04857108,135.2235714,13.13642822,47.6607138,172.5314276,35.27499978,112.0914282,17.9818517,20.79040337,20.53458356,20.20586531,15.56107187,20.47665645,15.7702462,13.42945136,8.802352299,16.21290321,21.91111098,21.5613082,26.8770008,26.27928579,27.19863099,23.33754175,19.77308355,13.39834902,5.322258069,10.30000003,10.31609792,15.50927174,17.62488075,14.92700095,12.00041282,8.027538821,3.378330702,6.134411308,9.414033746,9.318517767,13.52970479,14.11503311,13.40897889,10.69134109,8.327220554,5.109082433,0.665391704,1,0.983452189,1,1,0.970435943,0.837841689,0.510564168,42.7321756,-76.65345463,2019,NYH3
TX714/PHZ51,MOH2_2015,N,14.3,731.1212129,0,0.5,252.5,127.5,74,73,3.914838722,3.534545422,2.891676029,5.446623968,2.505882375,1.1137255,5.068586465,0.980448186,4.011119538,121.3600004,38.87999964,35.23176398,173.6929392,5.011764751,10.0235295,148.9223525,6.487058864,124.3447057,19.08701148,18.12534948,17.16717858,21.59629129,16.88945411,20.34516158,18.32895435,19.90608894,16.95494386,18.756129,18.24727275,23.87322904,29.02836507,30.59176479,31.93248319,30.27285599,28.73220747,28.34062618,6.152580692,8.059091026,15.30129973,17.80114352,21.94705907,21.39261428,20.17023127,17.40519331,17.20941189,7.288196993,7.58478923,12.05891064,15.51775091,18.26941193,18.66254873,17.2518739,15.21359182,14.97078901,0.75554147,0.814935086,1,1,1,1,1,1,38.89807917,-92.2079,2015,MOH2
PHW52/PHN82,MNH1_2015,Y,20.9,731.1212129,0,0,224,106,75,74,2.676451665,6.10285713,1.587216104,4.707726326,2.093823531,4.685775359,5.935015669,2.223261507,2.198788145,82.97000162,42.71999991,19.59000013,155.007059,3.965294123,52.23235247,227.0947085,20.90117698,67.40117758,19.81693462,15.87546921,21.62818458,20.65236193,17.21434565,21.12123323,17.7408483,14.5374504,12.06297535,17.43387093,22.63000025,27.28921799,28.46423671,28.36529418,28.07899716,26.14089523,24.73259507,17.90095705,4.567419307,13.73428563,14.30007362,16.89716897,18.65411764,16.19745995,14.75643511,13.57280729,6.634647692,6.2838161,10.87437977,13.26905608,14.87023808,15.64114514,14.35392043,12.99006372,12.46836687,7.55733068,0.722983866,1,1,1,1,0.977703003,0.878626049,0.721229646,44.07038575,-93.53519625,2015,MNH1
W10005_0107/PHB47,INH1_2016,N,16.05,711.8134344,13,19,246.5,117.5,62.5,62,3.034516148,1.382857186,3.106568823,3.966270256,3.500454469,6.752636371,3.451172643,3.198528118,3.024422797,94.07000059,9.680000305,31.26000059,138.8759105,3.500454469,67.52636371,113.8927274,21.6654544,92.62590972,17.63328649,23.97511796,20.66441577,20.1236558,19.9706746,19.39149484,18.14527656,15.98533716,14.62820237,18.74516109,26.31142807,27.84898846,28.12893417,28.20272714,29.14504538,29.16779001,27.95564941,27.07739093,7.950322636,11.69428553,16.31817922,16.10606538,16.8522731,18.34872752,18.58889605,17.50284626,15.03841012,7.677100472,11.91689015,14.24288378,14.4184555,14.68521604,15.7994256,15.9329094,14.92238151,13.51734692,0.852649763,1,1,1,1,1,1,0.996102814,40.4787595,-86.98982,2016,INH1
PHN11_PHW65_0323/LH195,TXH1-Dry_2018,N,9.8,716.5331135,0,2,230.3333333,88,70.33333333,74,2.442333295,0.87833333,4.91741256,2.91095925,1.112321411,5.987347663,3.094033648,2.445309502,2.573656677,73.26999886,5.269999981,55.2178573,113.3721426,4.449285643,64.36357035,86.72785865,13.67714274,77.357857,13.4988633,14.49154552,13.92485348,19.6618496,19.390827,19.64184359,19.38410293,21.21373351,18.01258323,19.68933331,26.95833333,25.66614373,26.56996845,30.24238085,29.14372996,31.91805433,33.2644762,34.51160554,6.357666679,15.03999996,15.13755815,13.69055459,18.24071415,16.44843436,20.63070323,20.50154739,23.97494014,7.613570572,13.40715604,12.87528071,12.79536137,16.34410207,15.0664779,18.21233438,18.75919739,20.40606275,0.821476194,1,0.991620595,0.99408643,1,1,1,0.999013392,30.546318,-96.4329965,2018,TXH1-Dry
LH74/PHN82,NCH1_2019,Y,17.7,731.1212129,0,2,229,110,65,64,2.191129027,0,0.107342031,4.775073233,0.466011907,4.533660718,6.24100048,2.370892844,2.941295675,67.92499983,0,1.347142833,143.4146411,0.94178571,36.26928575,165.0100003,13.54249993,91.02821354,18.69452832,25.30126673,21.77382428,19.07893176,22.56876209,20.7892765,19.22903807,18.96679552,16.71087377,25.69580629,28.76666609,32.29891346,30.08294473,33.3002377,33.83080339,32.75741781,32.04927549,30.79691829,13.34274195,12.19133326,19.06280588,18.61089734,20.56851188,21.23558053,21.08131414,19.9046464,19.77832645,12.18436683,13.33597385,17.64216348,16.39126772,18.88342746,19.44075481,18.8247811,17.98080212,17.31161093,1,1,1,1,1,1,1,1,35.67010175,-78.510504,2019,NCH1
F42/MO17,MOH1_1_2020,N,15.58,731.1212129,0,0.2,253.6,110.2,57.4,54.4,2.765624954,8.119999743,10.49656654,1.909885915,5.802857127,7.415295831,3.691475556,2.293301892,3.400930865,88.49999854,40.59999871,96.7978566,57.0957143,7.737142835,67.39857156,118.848571,17.52928566,104.715714,18.75466287,21.25211372,22.49923535,20.31658939,20.84622072,17.68630925,18.12476098,17.46293798,14.64158327,22.18656257,30.76999931,28.86546125,30.72469998,30.62226157,31.26253243,28.67352632,29.54480095,24.35225034,12.23093753,19.21800041,17.35636515,20.03188031,19.40511944,21.45309498,18.10676495,17.58972003,12.9136675,10.41798935,16.99399986,15.213465,17.3995364,17.01369051,18.36589209,15.51205264,15.80164337,11.56818364,0.936383936,1,1,1,1,1,0.995985623,0.962870504,38.8978375,-92.2070925,2020,MOH1
CG60/LH162,WIH2_2016,N,16.325,826.0511239,0,13.75,234,125.5,55.5,55.75,2.185483832,6.563333432,3.447094458,4.124693788,6.707159024,6.158880111,5.945293137,1.654273513,4.758742445,67.74999878,39.38000059,44.45545418,149.2718189,18.91272705,63.86318129,228.7613642,17.11772738,143.1609097,20.07161814,17.64681498,20.48120554,20.03716075,21.00097141,18.73971629,16.31911952,14.94670844,10.3303759,18.34677419,27.65666644,25.59626749,27.3504729,29.44640147,29.15349181,26.70938079,24.21329019,20.37268081,4.840000014,15.2516667,12.43660419,15.21846351,16.18390156,17.81047537,15.29826924,12.0891497,9.537770322,6.76617685,13.67923016,11.77429452,13.6256578,15.0809804,15.56950508,13.35737665,11.10536848,8.849967039,0.729688939,1,1,1,1,0.998061418,0.979766622,0.886131912,43.32649075,-89.33882925,2016,WIH2
CG119/CG108,WIH1_2020,N,16.45,731.7648055,0,2.5,222.5,107.5,67.5,64.5,1.598387111,6.507143004,4.413520471,5.455426438,9.576153682,6.848251811,1.847198819,1.302442385,3.233674973,49.55000043,91.10000205,54.05307698,191.9769218,14.76999958,75.33076992,75.52923148,17.19923096,99.29769339,20.3303612,17.70938441,19.63774696,21.71928057,19.47191414,18.08778093,19.52506722,17.02277317,12.74244368,13.80935484,15.78214281,24.71870171,28.0331271,31.3961547,28.17125902,26.95535567,26.2427393,20.06715065,1.332903252,5.150000061,13.25869882,14.90724568,18.80923077,17.63741262,14.66820073,13.00544381,8.429758508,4.404075426,5.920121855,11.73838603,13.88054584,17.12955683,14.95247276,13.30208011,12.63591888,8.588509069,0.46481566,0.623010193,1,1,1,0.987099279,0.934776512,0.808464704,43.05505505,-89.52853825,2020,WIH1
B73/TX779,SCH1_2018,N,18.075,731.1212129,0,2,181,105,61.5,64,5.509375073,3.372500002,5.775327928,7.728127661,4.71095229,3.130603142,3.123485158,2.01328566,5.79306447,176.3000023,26.98000002,97.60999952,245.6735731,5.415714213,31.8442854,83.93428482,10.53785687,179.5849986,18.64772365,19.28692877,21.1730546,18.16318131,18.84742333,19.2548603,19.994513,19.31783344,16.30139442,22.53906247,22.53374982,23.09020479,27.61870045,28.0654766,28.90856809,32.58479132,33.48333298,31.1168664,9.301562469,9.311250091,8.762400081,17.50665347,16.7615475,18.38295894,21.20797915,21.67128537,20.80767273,9.591191253,9.400074843,9.574505228,14.76793775,14.51962258,15.72381397,18.86169653,19.45105318,17.96288574,0.951841518,1,0.982626499,0.991514695,1,1,1,1,34.6223015,-82.7364835,2018,SCH1
LH195/PHN37,WIH2_2016,Y,19.25,817.3626235,0,4,270,134,63,62.5,2.185483832,6.563333432,3.447094458,4.124693788,6.707159024,6.158880111,5.945293137,1.654273513,4.758742445,67.74999878,39.38000059,44.45545418,149.2718189,18.91272705,63.86318129,228.7613642,17.11772738,143.1609097,20.07161814,17.64681498,20.48120554,20.03716075,21.00097141,18.73971629,16.31911952,14.94670844,10.3303759,18.34677419,27.65666644,25.59626749,27.3504729,29.44640147,29.15349181,26.70938079,24.21329019,20.37268081,4.840000014,15.2516667,12.43660419,15.21846351,16.18390156,17.81047537,15.29826924,12.0891497,9.537770322,6.76617685,13.67923016,11.77429452,13.6256578,15.0809804,15.56950508,13.35737665,11.10536848,8.849967039,0.729688939,1,1,1,1,0.998061418,0.979766622,0.886131912,43.32649075,-89.33882925,2016,WIH2
B14A/MO17,TXH1_2019,Y,9.515,813.1792715,0,0,179,68.5,69,69,1.71448275,0.072857141,3.656594302,9.095434564,0.409285716,1.207678571,5.355850783,1.246142852,1.574419343,49.71999974,0.50999999,52.00785631,328.2121388,0.592857139,9.661428571,146.4478573,6.531428533,47.51499965,15.42805705,20.52131135,18.76898834,18.57032559,21.42349659,18.85281525,20.14881361,21.03072751,19.84089234,18.45000007,25.76428577,24.43254944,27.27586732,31.09000002,32.37866099,32.72435205,34.04471448,34.98200776,6.826206914,10.35000004,10.67963154,14.78766739,18.65857179,21.85071427,21.02442735,21.79614282,22.6049739,7.457816468,11.1589152,10.85119479,13.46630403,16.91193677,19.11412105,18.84765314,19.77807102,20.01419559,0.749667494,1,0.945308164,1,1,1,1,0.999698925,30.546318,-96.4329965,2019,TXH1
B73/PHN82,ARH1_2017,N,13.8,560.5691694,0,2,196.85,96.5,68.5,65.5,3.058125025,3.532857077,9.871688678,6.405160528,0.516363615,5.988171668,5.119232493,3.102318153,5.34158356,97.86000079,24.72999954,132.0327285,211.6218184,0.569545432,54.36818138,136.8913653,16.08272713,165.5890903,17.13974981,16.55343887,20.38424011,18.76225527,22.81364793,19.06964508,19.53553475,19.77193111,17.12972935,24.60906261,23.96000045,24.77057006,28.06605652,30.35469691,31.5146664,31.30577636,32.78459133,30.91587993,11.9175,14.17857156,11.8445801,17.60850246,18.97249995,21.30615642,21.39979275,22.50533316,21.62237538,11.1639709,11.77578055,11.22655186,14.97537354,16.74359516,18.41041141,18.33049426,19.54768126,18.22457608,1,1,1,1,1,1,1,1,34.7272515,-90.76032575,2017,ARH1
B73/PHM49,MOH1_2017,Y,16.95,731.1212129,0,2,249.5,131.5,64.5,63.5,8.937741737,9.40166688,2.512230721,3.318030003,5.035714369,1.794490762,1.996986524,1.220079397,1.67255761,277.0699939,56.41000128,33.26619119,103.9014299,11.93095259,15.87761924,65.30142803,7.334762096,51.25476209,18.72482054,18.08832916,22.62422694,21.00800173,18.77514496,19.93438148,19.70533138,19.36646121,17.34329115,21.92032254,25.32999992,25.47495036,29.30087203,30.46650729,32.25412016,29.92026774,28.22145964,28.04827898,10.06000005,15.27666648,12.99827088,17.39768618,19.78222205,21.21359122,18.70404881,16.33857143,14.9717184,9.612847321,12.76903024,11.94928206,15.49761919,17.12130987,18.67277384,16.20463701,14.48208578,13.92850008,0.915472353,1,1,1,1,1,1,0.999239796,38.89264,-92.2057525,2017,MOH1
PHN11_PHW65_0323/LH195,MOH1_2015,N,14.6,731.1212129,0,3,205,90,77,76,3.914838722,3.002727248,2.7038834,5.646226268,2.268750012,1.183333344,4.736744086,1.740401796,3.666491943,121.3600004,33.02999973,34.41999933,178.8712478,5.868750036,10.6500001,140.2618746,11.88312507,113.6612502,18.81846694,18.88703156,16.92919735,21.70591481,15.72154266,19.94530069,18.47422179,20.12873028,17.02653892,18.28451609,18.00181831,23.77805456,28.93028285,29.85593748,31.76118019,30.42140763,28.58050013,28.43143147,5.857096827,7.500000065,15.21487777,17.6487962,21.67281234,21.45979159,20.28182538,17.09899995,17.28669369,7.068544315,7.302193139,11.97142579,15.39796361,17.76437491,18.61048589,17.380694,14.99182695,15.05317439,0.723283405,0.814935086,1,1,1,1,1,1,38.8965375,-92.20800417,2015,MOH1
B73/PHM49,GAH1_2020,N,21.845,695.0156671,0,0.5,192.5,92.5,68,66.5,4.279687563,0,6.08243138,3.811420537,2.267976227,2.530000055,3.98378478,1.741833346,2.910207357,136.950002,0,84.37571335,135.9278565,4.833571502,22.77000049,107.9378566,9.115000069,90.21642806,16.61263859,21.5972875,19.10636237,20.72286693,14.54687945,18.15584731,20.08605453,19.68634889,18.27781732,25.37343752,26.77166684,25.94144379,27.77824619,29.55357116,30.6518255,31.78195276,33.48178532,33.56322575,12.43875006,10.55666669,12.19035929,13.80720781,20.58059497,20.26111097,20.57386992,21.96838095,22.25456222,11.80508215,11.69113274,11.88989525,13.35432975,17.06708306,17.45646823,18.17996521,19.67032327,19.80166763,0.988537947,1,1,1,1,1,1,1,31.5079775,-83.558517,2020,GAH1
B37/H95,TXH1-Dry_2018,N,10.5,753.0033618,0,2,241,90,73,73,2.442333295,0.87833333,4.91741256,2.91095925,1.112321411,5.987347663,3.094033648,2.445309502,2.573656677,73.26999886,5.269999981,55.2178573,113.3721426,4.449285643,64.36357035,86.72785865,13.67714274,77.357857,13.4988633,14.49154552,13.92485348,19.6618496,19.390827,19.64184359,19.38410293,21.21373351,18.01258323,19.68933331,26.95833333,25.66614373,26.56996845,30.24238085,29.14372996,31.91805433,33.2644762,34.51160554,6.357666679,15.03999996,15.13755815,13.69055459,18.24071415,16.44843436,20.63070323,20.50154739,23.97494014,7.613570572,13.40715604,12.87528071,12.79536137,16.34410207,15.0664779,18.21233438,18.75919739,20.40606275,0.821476194,1,0.991620595,0.99408643,1,1,1,0.999013392,30.546318,-96.4329965,2018,TXH1-Dry
TX779/LH195,GAH1_2019,N,15.475,742.3840837,11,3,207.5,92.5,59.5,59.5,4.224827643,1.980000006,1.908236784,2.106472486,0,0.090714284,5.691865924,1.473428559,3.045620547,122.5200016,17.82000005,22.37999977,72.04999958,0,0.725714275,156.5528547,7.367142797,92.8692846,16.4500471,17.48633936,17.40259385,20.9384506,22.51147406,21.84430948,17.66714436,19.76491442,19.71139218,21.20655165,22.58666695,26.81574745,29.5228407,35.04273814,35.70196446,32.62270198,33.62814315,33.36893722,7.214827602,8.595555623,14.04498416,14.47543411,19.21654783,20.58464301,20.89661115,21.78014287,21.253149,8.370628681,9.274220075,12.91642218,14.40044999,18.67726543,19.28313207,18.63395398,19.63555568,19.18049021,0.90216748,0.984365085,1,1,1,1,1,1,31.50582525,-83.55515025,2019,GAH1
B14A/OH43,GAH1_2019,N,15.035,689.0302557,0,11,190,102.5,62,61,4.224827643,1.980000006,1.908236784,2.106472486,0,0.090714284,5.691865924,1.473428559,3.045620547,122.5200016,17.82000005,22.37999977,72.04999958,0,0.725714275,156.5528547,7.367142797,92.8692846,16.4500471,17.48633936,17.40259385,20.9384506,22.51147406,21.84430948,17.66714436,19.76491442,19.71139218,21.20655165,22.58666695,26.81574745,29.5228407,35.04273814,35.70196446,32.62270198,33.62814315,33.36893722,7.214827602,8.595555623,14.04498416,14.47543411,19.21654783,20.58464301,20.89661115,21.78014287,21.253149,8.370628681,9.274220075,12.91642218,14.40044999,18.67726543,19.28313207,18.63395398,19.63555568,19.18049021,0.90216748,0.984365085,1,1,1,1,1,1,31.50582525,-83.55515025,2019,GAH1
2369/LH123HT,MOH1_2_2018,N,18.62,731.1212129,0,1.8,252.4,129,55.2,54.6,4.419032262,0.120000001,6.56660792,4.995913726,0,0.865952386,4.867908623,7.318145406,3.629241153,136.9900001,0.840000004,71.60142667,150.6285707,0,7.793571472,145.6157139,39.85928573,112.0157138,18.39395777,18.46565301,20.1607481,20.70593221,19.87326009,21.97749135,18.06982858,17.46468943,16.31914076,19.5254839,22.76714298,27.16554273,29.60936822,31.6271427,32.32420578,29.51628185,29.85375934,27.04843165,7.99741943,14.14714282,16.43732974,18.81172612,21.79964249,20.71007941,19.44316189,19.21155699,15.91814144,7.992986492,11.1555316,14.00535673,16.26359619,18.7133926,18.51714259,16.54699664,16.60044059,13.86670431,0.872361758,1,1,1,1,1,1,0.995607144,38.89555425,-92.20964575,2018,MOH1
PHN11_PHW65_0323/LH195,IAH2_2019,Y,24.7,701.5159525,6,0,225,105,65,64,1.624999978,4.994666719,7.633826981,4.023414549,10.53523836,1.22350002,2.763567443,7.261517829,4.773321835,51.99999928,74.92000079,126.7292866,144.3807149,31.60571507,12.2350002,103.2057142,58.23357121,145.3535721,19.40078695,15.59915857,17.73377221,20.37141966,18.69170743,21.11460887,19.04896103,16.46108124,13.94542613,15.78031255,14.78666655,21.30773964,26.90560141,30.4667857,29.3667858,27.70213024,26.0789087,24.69893011,1.823749996,4.276000045,9.222208134,15.06467224,19.71440506,18.17542877,16.74212177,15.32632928,13.45358666,5.188982368,5.371381143,9.150668224,13.41851256,17.10626668,15.79657396,14.44283917,13.04517908,11.92357614,0.546495539,0.532857125,0.866155154,0.998157434,1,1,1,0.956872449,42.06583499,-94.72067796,2019,IAH2
PHB47/PHN82,IAH1_2015,Y,19.3,723.3981015,1,8,267,131,65,64,1.566451638,2.213076954,8.402418557,1.323463692,0.084411761,2.297359398,2.93999255,2.37101191,2.732793763,48.56000078,28.7700004,122.1399999,43.52999979,0.168823523,22.82352863,100.1182349,16.67000003,83.81294001,20.43214903,18.85811498,14.63317728,22.31276759,19.14227258,22.20806523,19.83862588,18.33763158,15.0581957,16.08774191,16.64538457,21.84697853,28.7334183,30.26852911,31.30747052,29.05105531,29.39636272,24.66946357,1.839032284,4.865384661,13.12892854,16.86768962,20.05941139,18.05705196,16.3929614,15.43749916,11.17229855,5.447129731,6.098188577,10.48240964,14.99632473,17.16639266,16.72884186,14.96924927,14.77137221,11.30644361,0.593087559,0.682994502,0.988452545,1,1,0.997626801,1,0.896934674,41.9980952,-93.69336973,2015,IAH1
2369/LH123HT,GAH2_2017,N,15.85,771.6675477,0,2,246.5,122,58.5,55.5,5.215806507,2.59000005,0.877047008,6.976424555,36.66571527,11.68990473,2.766634194,6.717714339,5.237281131,161.6900017,18.13000035,10.98809533,219.4985743,69.630002,116.6428568,77.55666748,33.5885717,162.3557151,18.59375843,20.97986943,21.98193589,18.54567619,14.33990901,17.7663424,19.78523868,18.86354985,17.57616326,25.93516134,24.17571449,30.47339418,29.31252372,29.52904774,29.72980419,32.72601502,32.10511542,30.76784952,12.17225799,9.938571385,16.15324828,18.06353156,20.43476164,19.51114297,21.20992787,20.86352373,19.95543778,11.90954616,10.38538115,15.45655397,15.75249851,16.98190469,16.63412837,18.90169131,18.47155665,17.41241638,0.999631335,0.985714285,1,1,1,1,1,1,33.727145,-83.29821525,2017,GAH2
PHG80/PHZ51,ILH1_2016,N,16.95,730.4776202,0.5,2,255,127.5,73.5,72,2.976905237,4.388409027,2.266536067,5.61207631,2.384848472,3.596551307,3.312350719,4.357499975,4.793790319,93.71999985,46.35499933,33.46068128,180.4177266,4.628863606,41.73386359,104.1413657,28.32431801,148.2020453,18.82488241,16.77241452,21.32061235,20.18653607,20.74234538,18.07981042,18.8666989,17.85818253,16.07680721,18.05081144,19.20204525,23.0422997,29.42292662,27.90308728,26.97317812,29.60218573,29.15938829,28.17592877,4.960040295,8.531272602,10.4507586,17.10049505,15.99717794,16.84881478,19.41054858,18.84383108,17.09740687,6.781235125,7.969267807,10.17119166,15.41614171,14.29579798,14.15384892,16.51995977,16.04951253,14.84458937,0.666766271,0.897956159,0.946860721,1,1,1,1,0.999883117,40.0607245,-88.2338815,2016,ILH1
PHN11_OH43_0001/PHB47,GAH2_2017,N,18.6,698.941582,34.5,3,205.5,96,52.5,53.5,5.215806507,2.59000005,0.877047008,6.976424555,36.66571527,11.68990473,2.766634194,6.717714339,5.237281131,161.6900017,18.13000035,10.98809533,219.4985743,69.630002,116.6428568,77.55666748,33.5885717,162.3557151,18.59375843,20.97986943,21.98193589,18.54567619,14.33990901,17.7663424,19.78523868,18.86354985,17.57616326,25.93516134,24.17571449,30.47339418,29.31252372,29.52904774,29.72980419,32.72601502,32.10511542,30.76784952,12.17225799,9.938571385,16.15324828,18.06353156,20.43476164,19.51114297,21.20992787,20.86352373,19.95543778,11.90954616,10.38538115,15.45655397,15.75249851,16.98190469,16.63412837,18.90169131,18.47155665,17.41241638,0.999631335,0.985714285,1,1,1,1,1,1,33.727145,-83.29821525,2017,GAH2
B14A/OH43,IAH3_2019,Y,27.1,635.2259129,0,1,230,121,65,64,2.879677419,8.325833271,8.514982687,3.930253796,0.537380945,2.3054841,2.306432914,9.350841805,5.38576807,89.26999998,99.90999925,122.1842849,140.4857139,1.612142835,22.50785688,97.56999955,77.30999979,164.0414292,18.1142604,18.14433392,18.34133211,20.20102762,20.30083813,21.10542726,19.14151731,15.03963484,12.83068274,16.60032246,18.1858333,22.24543073,27.09611601,28.60416662,30.1634999,27.59661349,25.62734982,23.13272506,3.497096781,6.015833348,10.94521806,15.70806976,18.18130992,18.44873807,15.55405048,14.14793364,12.04513443,5.803122395,7.048807354,9.977529243,13.7421048,15.43701566,16.36698878,13.8976006,12.43400485,10.94701098,0.634539169,0.718095232,0.926337681,1,1,1,0.9932483,0.897879883,41.97593131,-92.24310603,2019,IAH3
LH212HT/LH195,WIH1_2015,Y,36.6,749.1418061,0,0,277,151.5,65,64,4.730000059,9.059999784,2.430610682,6.190059866,3.242812514,1.739310909,2.563222068,2.582604527,2.064862235,151.3600019,54.3599987,32.30062549,198.0887501,6.485625029,21.11437514,113.2525011,35.42937557,62.48000012,19.32367544,22.19104989,23.8972515,19.04105101,21.62804324,20.72553659,16.09255797,13.7227876,9.595561915,19.95718755,28.15000025,26.05326099,28.85932006,29.07385437,26.51056077,24.82739399,20.18089026,14.51549808,8.517187543,15.30499983,11.82802944,17.48783518,16.48010375,14.49615378,12.31509137,8.581945626,2.680440183,8.558350873,13.98301754,11.81015597,15.26183828,14.95581898,12.98753542,11.68123469,8.628108428,5.087550731,0.777276777,1,1,1,1,0.929186389,0.833919484,0.505939954,43.05511725,-89.528525,2015,WIH1
TX779/LH195,WIH1_2020,N,17.7,731.1212129,0,0,269.5,153.5,87.5,84.5,1.598387111,6.507143004,4.413520471,5.455426438,9.576153682,6.848251811,1.847198819,1.302442385,3.233674973,49.55000043,91.10000205,54.05307698,191.9769218,14.76999958,75.33076992,75.52923148,17.19923096,99.29769339,20.3303612,17.70938441,19.63774696,21.71928057,19.47191414,18.08778093,19.52506722,17.02277317,12.74244368,13.80935484,15.78214281,24.71870171,28.0331271,31.3961547,28.17125902,26.95535567,26.2427393,20.06715065,1.332903252,5.150000061,13.25869882,14.90724568,18.80923077,17.63741262,14.66820073,13.00544381,8.429758508,4.404075426,5.920121855,11.73838603,13.88054584,17.12955683,14.95247276,13.30208011,12.63591888,8.588509069,0.46481566,0.623010193,1,1,1,0.987099279,0.934776512,0.808464704,43.05505505,-89.52853825,2020,WIH1
CG44/CGR01,MNH1_2018,Y,21.695,715.9967864,0,2,272.5,133.75,65.5,63.25,2.793871032,5.664285694,1.881383508,4.66962568,0.280777779,5.314848416,5.503097756,4.902593174,1.744490341,86.61000198,39.64999986,19.66333312,156.0266671,0.653333338,61.18466587,207.3246693,42.5680015,52.61600056,18.68617175,18.6483766,23.22190313,20.23498137,21.88409551,21.20453879,17.43849101,14.02805899,11.47763682,18.24580648,23.51142883,30.49568208,28.40295697,27.67288871,27.88288382,26.24424925,23.489937,17.2954947,6.62290317,13.35285704,16.1020056,17.07111629,16.25377796,15.7901465,14.83515609,12.42970144,6.347470975,7.12789267,11.15082684,15.42136783,14.91719499,14.1582049,14.10491894,13.08066536,11.20324133,7.126560519,0.79756912,1,1,1,1,0.978734696,0.910102722,0.699884152,44.07044721,-93.53494127,2018,MNH1
F42/OH43,NEH2_2015,N,15.2,754.2905471,0,0.5,229,110,92,92,1.358750008,3.755999994,3.031264216,1.286090902,0.286666671,1.657187527,3.751759362,0.157499999,0.616713691,43.48000026,37.55999994,66.29000026,43.49999976,0.860000014,16.57187527,117.6431233,0.944999993,18.99062441,19.53783247,19.98656282,18.8528682,23.65152674,23.21232343,22.7312118,19.62767813,21.61948185,18.20728239,15.03874992,23.15200024,18.66927583,30.14561768,32.37510385,32.60862507,30.36489819,32.31320816,28.31448706,-2.426562488,5.230999994,5.264051067,13.5723423,16.5714581,16.13087479,15.9646131,15.56819047,11.19634675,4.192485347,8.478296732,6.894904354,14.37610508,16.560328,16.47008009,15.3434088,16.05261291,12.83173005,0.519497764,0.97653572,0.809891265,1,1,1,1,0.922021698,41.0514495,-100.7471915,2015,NEH2
TX777/LH195,TXH1_2015,Y,15.15,743.3494726,0,2,180.5,85,74.5,73.5,2.435333351,0.886666695,4.529386736,2.992210444,0,5.407499953,3.236240411,4.528416659,2.205666663,73.06000052,5.320000172,54.16999972,113.7899998,0,59.48249948,89.11249819,24.54499996,66.1699999,13.38128519,15.80308406,13.73749678,19.48289484,22.46598899,19.96463979,19.54848583,19.57031498,18.03135075,19.61999995,26.26833312,25.8489028,26.4780255,30.37177098,28.79539756,31.9014052,33.48070828,34.35516661,6.122333375,12.74499997,15.39155332,13.69439061,15.83385423,15.9580683,20.41172374,21.45270844,23.93220836,7.516768444,12.28221354,13.06030889,12.7550996,15.35592881,14.67426974,18.11040569,19.30603111,20.37775841,0.822428569,1,0.992325397,0.994092815,1,1,1,0.999431249,30.54708625,-96.43393475,2015,TXH1
LH195/PHZ51,IAH2_2017,Y,15.525,754.2905471,0.25,11.5,227,106.5,65,64,2.991935476,4.003749907,5.594154361,1.824159742,2.965909053,1.138616173,3.544395797,5.525860929,3.224964342,92.74999976,32.02999926,86.83999968,64.74363607,5.880909015,11.03545466,133.6850016,39.36636487,98.02272796,18.91811151,22.03083944,18.39067038,21.91300981,21.59707026,21.00058551,18.76246256,16.50136756,14.56336975,16.70258062,25.25375009,21.16444029,28.78792803,31.34295403,31.03890899,27.79230679,26.54138994,25.01808603,3.836129038,9.060000002,9.836484062,14.72352594,17.1804546,18.00485339,15.61890002,13.9478747,12.25710857,5.884356407,10.52058178,9.325556586,14.19611432,16.29393371,16.57150033,14.05801276,12.73803514,11.57992501,0.659274195,1,0.882113053,1,1,1,1,0.976890029,42.06582876,-94.72050129,2017,IAH2
CG44/CGR01,GAH2_2017,N,15.05,749.1418061,9.5,2,202,107.5,48,49.5,5.215806507,2.59000005,0.877047008,6.976424555,36.66571527,11.68990473,2.766634194,6.717714339,5.237281131,161.6900017,18.13000035,10.98809533,219.4985743,69.630002,116.6428568,77.55666748,33.5885717,162.3557151,18.59375843,20.97986943,21.98193589,18.54567619,14.33990901,17.7663424,19.78523868,18.86354985,17.57616326,25.93516134,24.17571449,30.47339418,29.31252372,29.52904774,29.72980419,32.72601502,32.10511542,30.76784952,12.17225799,9.938571385,16.15324828,18.06353156,20.43476164,19.51114297,21.20992787,20.86352373,19.95543778,11.90954616,10.38538115,15.45655397,15.75249851,16.98190469,16.63412837,18.90169131,18.47155665,17.41241638,0.999631335,0.985714285,1,1,1,1,1,1,33.727145,-83.29821525,2017,GAH2
2369/LH123HT,NYH2_2018,Y,20.77333333,726.2728152,1.666666667,2,242.3333333,123,72.66666667,71.66666667,4.152903213,0.855714253,1.31693108,2.056877316,18.60714291,4.17142208,1.796460541,3.71345921,2.001911684,128.7399996,5.989999771,17.50499944,73.5107149,37.6500001,45.13714288,70.0178584,34.82000022,60.53000028,20.64383799,23.73438372,20.97980276,21.28373647,15.72294375,18.26843876,18.50915054,13.77481919,12.83457813,12.82806446,24.72714315,24.76775456,27.60101009,28.96428537,28.5122727,26.91050025,24.01606741,19.66558606,1.452258048,10.48999977,13.07559666,14.8719081,19.08642861,17.4819286,14.95013511,12.80738491,7.865124395,4.113027627,10.74522894,11.82847182,13.74928068,16.05096628,15.06575239,13.37181447,11.42873851,8.144119245,0.351670502,1,0.973410204,0.99504728,1,0.991140913,0.940533101,0.821942422,42.72611075,-76.65530175,2018,NYH2
TX714/PHZ51,NYH3_2015,N,23.3,731.1212129,0,1,236,130,82,81,4.268387075,0,1.234803629,3.315485905,3.744705864,3.708743319,2.034738589,2.091907533,2.160160663,132.3199993,0,17.66999944,111.4647067,9.843529393,38.42352946,75.35117763,21.49235322,65.37235311,20.95885717,21.76160183,22.01003167,20.47654391,19.37507164,18.84800849,18.09954582,14.25866518,12.17165493,15.21516129,28.41399994,23.9726608,27.94852153,28.22411762,29.00645443,26.88612691,22.65429039,19.02039094,3.206451565,16.00799999,11.62235867,15.61032629,16.7502941,17.72633694,14.88804443,11.60832066,7.356588233,5.349626667,14.38734971,10.95773449,14.17183136,14.61937489,15.41213998,13.31670354,10.34569698,7.707711279,0.504331792,1,0.97267375,0.996219796,1,0.995345527,0.95775528,0.812032548,42.7233625,-76.6555945,2015,NYH3
PHG80/PHZ51,IAH3_2015,Y,19.2,727.2596572,0.5,13.5,298.5,155,65,64,1.888124991,2.913571392,3.784813995,6.971928843,0,3.257500064,1.487385228,2.541446469,4.507444947,60.41999972,40.78999949,55.43999982,241.6600003,0,32.57500064,50.31437471,24.68500039,138.7756267,19.80172794,20.03998334,15.9141292,20.68283491,21.69136486,21.24428636,20.63784564,18.68301758,14.92198489,14.64187506,16.6814285,21.6371088,27.61372247,30.87885427,30.3035625,28.596254,28.51656267,24.33389908,0.83250004,3.600714236,12.24542872,16.05178152,19.47364565,18.11006255,15.99319583,14.30373217,10.64901215,4.605131548,5.787499831,10.11465775,14.1164012,17.17624996,16.25391669,14.57670766,13.97583386,10.87542788,0.501462055,0.634540813,0.981270753,1,1,1,0.968879463,0.933929792,41.97585629,-92.24291804,2015,IAH3
LH198/PHZ51,ARH1_2016,N,15.75,800.6292155,0,1.5,199.5,106.5,70,68.5,12.62656226,6.052222146,7.859593922,4.411032368,3.769999921,0.095833332,1.834913509,2.950363528,2.931715563,404.0499923,54.46999931,101.1431819,160.496816,7.539999843,0.824999988,46.86636396,14.75181764,90.88318244,16.40757677,14.40289243,17.41332625,19.31399891,17.48165414,22.15918181,19.7781726,18.25208951,17.22596404,20.37124979,20.08666674,25.25253507,26.30445415,29.50681779,32.27019592,33.22074717,33.17606868,32.75999986,8.53968759,10.04999993,14.84655054,15.67568893,20.10318184,20.90335237,23.01320039,23.46584116,23.35664232,8.376579132,8.623890092,12.4075181,13.38568101,16.80499981,18.57005087,20.09384313,20.24603027,19.89808151,0.932198657,0.999841266,1,1,1,1,1,1,34.72952,-90.7603555,2016,ARH1
B14A/OH43,NEH1_2015,N,14.2,792.9061041,0,2,245,115,65,53,2.959062506,0.753999996,4.745632833,2.187040691,0.179999996,3.601448917,1.548000793,0.057812502,1.589214364,94.69000018,3.769999981,46.84999943,63.50812512,0.239999995,39.12187557,55.49499987,0.586250016,47.85812447,19.07194562,25.84699936,20.00593662,19.96245842,20.96463704,17.86296284,18.31175333,17.30405645,12.3794141,23.74906254,30.51399994,29.13009987,30.74148671,30.73750019,28.43858622,29.13031746,26.88374984,20.12342532,13.19218739,15.46999989,18.04036499,19.18092822,19.11281252,17.33248289,15.92131484,11.1533021,6.525200269,11.64481375,15.25955733,15.68336601,16.96891106,16.93845514,15.07345461,14.95183393,12.01070089,8.15887847,0.924598212,1,1,1,1,0.96969665,0.982957588,0.758540943,41.290979,-96.41664325,2015,NEH1
B14A/OH43,WIH3_2020,N,29.425,610.1258009,0,1.5,260,128.5,67.75,65,2.733870995,5.446666638,6.112394342,4.74655674,3.655208389,1.04360979,2.527373572,3.69928986,2.61452892,84.75000083,32.67999983,82.9068754,167.6149986,8.003125131,12.58312517,113.8450009,40.74312496,78.93437568,20.41919384,18.2775027,21.33639865,20.40337995,19.49413761,18.99324058,17.80850823,14.15156863,10.1168501,15.48354838,26.52499994,25.39100386,27.30541678,28.00124967,27.24401428,25.77617537,21.78088819,14.67245705,3.106129019,15.18500026,12.31273591,15.12317531,16.14624966,16.31340126,13.17330579,9.92591724,4.431311843,5.287102842,13.2823578,11.70416503,13.61992535,14.28505882,13.97808988,12.29059579,9.657643491,5.630137727,0.571854837,1,1,1,1,0.965668942,0.879609054,0.560799012,44.115703,-89.54491325,2020,WIH3
PHW52/PHM49,NYH2_2016,N,21,731.1212129,0.5,2,164.5,73,78.5,75.5,2.034516133,1.030000001,1.88805842,0.867300396,1.140952366,2.326450204,3.376451109,4.287746575,3.208572451,63.07000011,12.36000001,22.4085716,34.4438095,2.622857094,25.59095225,116.65619,31.75809508,97.82571426,19.21240982,23.35584625,23.40556822,22.17883586,23.94456446,21.25361649,17.18897092,16.17245816,13.35906413,14.04935483,18.68749992,27.50851283,26.23633728,28.78071431,29.31692664,28.41638555,26.44500865,23.15297547,1.686774175,4.439999988,12.92699036,12.85534504,13.89476193,15.65588736,16.863818,13.58818034,10.55762265,4.511298309,6.607155497,12.88765676,12.33330427,13.7996272,14.74166699,14.82295673,12.66050813,10.26842414,0.447315667,0.804761906,0.999400038,0.994542932,1,0.999880088,0.994843294,0.949842165,42.726117,-76.655339,2016,NYH2
CG108/CGR03,GAH1_2017,N,13.1,696.3672116,0,2,165,80,54.5,54.5,1.929687474,5.730000019,0.343252103,3.449286585,2.107618968,4.586772466,5.884115127,3.462793619,5.790337869,61.74999917,45.84000015,4.185237975,115.4628578,3.161428452,44.24761888,164.3961923,18.00285697,179.500474,16.80249013,20.13732326,20.17342047,19.27076224,21.20480144,16.6798163,18.15858085,19.37517402,17.73704587,23.5584375,24.76124978,28.73884546,29.02932191,29.79031757,30.11825943,30.88468736,33.04158726,32.39466959,8.654999979,9.073749959,13.81601286,15.94569083,16.85142871,20.07059283,21.0580027,22.24365102,22.03411694,9.935165979,10.3201674,13.6844889,14.81363998,15.5596332,17.10789698,17.95959829,19.61349988,19.1980032,0.8834375,1,1,1,1,1,1,1,31.50794425,-83.55854475,2017,GAH1
PHG39/PHN82,ARH1_2016,N,17.15,789.0445484,0,2,180.5,111,73,70,12.62656226,6.052222146,7.859593922,4.411032368,3.769999921,0.095833332,1.834913509,2.950363528,2.931715563,404.0499923,54.46999931,101.1431819,160.496816,7.539999843,0.824999988,46.86636396,14.75181764,90.88318244,16.40757677,14.40289243,17.41332625,19.31399891,17.48165414,22.15918181,19.7781726,18.25208951,17.22596404,20.37124979,20.08666674,25.25253507,26.30445415,29.50681779,32.27019592,33.22074717,33.17606868,32.75999986,8.53968759,10.04999993,14.84655054,15.67568893,20.10318184,20.90335237,23.01320039,23.46584116,23.35664232,8.376579132,8.623890092,12.4075181,13.38568101,16.80499981,18.57005087,20.09384313,20.24603027,19.89808151,0.932198657,0.999841266,1,1,1,1,1,1,34.72952,-90.7603555,2016,ARH1
CG108/CGR03,NYH2_2016,N,16.85,731.1212129,14.25,1.75,155.25,92.5,65.25,64.5,2.034516133,1.030000001,1.88805842,0.867300396,1.140952366,2.326450204,3.376451109,4.287746575,3.208572451,63.07000011,12.36000001,22.4085716,34.4438095,2.622857094,25.59095225,116.65619,31.75809508,97.82571426,19.21240982,23.35584625,23.40556822,22.17883586,23.94456446,21.25361649,17.18897092,16.17245816,13.35906413,14.04935483,18.68749992,27.50851283,26.23633728,28.78071431,29.31692664,28.41638555,26.44500865,23.15297547,1.686774175,4.439999988,12.92699036,12.85534504,13.89476193,15.65588736,16.863818,13.58818034,10.55762265,4.511298309,6.607155497,12.88765676,12.33330427,13.7996272,14.74166699,14.82295673,12.66050813,10.26842414,0.447315667,0.804761906,0.999400038,0.994542932,1,0.999880088,0.994843294,0.949842165,42.726117,-76.655339,2016,NYH2
LH74/PHN82,TXH1_2016,N,10.1,695.7236189,0,2,178,67.5,69.5,69,1.633666698,16.13999993,0.99702422,4.719865603,0.129393939,3.277272727,13.06232457,0.703636358,1.017125621,49.01000094,112.9799995,14.5313639,177.3549991,0.33090909,36.05,378.0672674,3.179999969,30.53454577,13.9726292,10.72874144,17.88940951,17.80076093,20.55685321,19.77792414,17.90480363,20.8338604,20.14326093,22.32500016,23.95000022,24.48309256,26.40498513,28.5388636,28.63545455,30.12870319,34.35404525,35.58838723,6.034666632,13.33571414,9.675379644,13.12758779,15.78530267,16.33764454,20.13902853,23.08186362,24.00118421,8.473379033,11.29783551,10.5045992,12.46111665,14.43681279,14.72204148,17.12368238,20.53225114,20.87599038,0.915869048,1,0.972225207,1,1,1,1,1,30.54708625,-96.43393475,2016,TXH1
CG119/CG108,WIH1_2017,Y,17.7,731.1212129,0,2,229,110,65,64,3.894838602,1.694000003,3.49156578,6.251914317,26.29780264,12.3515148,1.782621048,1.031219451,2.019413967,120.7399967,16.94000003,60.77000046,238.2086357,55.48409002,148.2181776,77.27181808,11.13545426,60.74545419,17.96009764,21.56986256,18.71582301,20.73316127,19.69440102,19.58726141,19.1692292,15.69151392,12.21998586,16.03451621,20.2119998,20.22998088,26.71060266,27.00553033,27.16428033,24.80808837,24.03641879,21.845045,3.37838715,6.260000002,9.268565708,14.6662765,15.35575767,16.21109857,13.17589581,11.52521119,9.509429623,5.507434962,7.720411242,8.664602637,13.14891279,13.46068042,13.9043846,11.67856357,10.90146065,9.608265423,0.606900932,0.8735357,0.867893568,1,1,0.998220242,0.971647403,0.89569217,43.05668125,-89.5308135,2017,WIH1
PHG39/TX205,WIH1_2017,Y,23,702.8031377,0,2,270,133.5,81.5,82,3.894838602,1.694000003,3.49156578,6.251914317,26.29780264,12.3515148,1.782621048,1.031219451,2.019413967,120.7399967,16.94000003,60.77000046,238.2086357,55.48409002,148.2181776,77.27181808,11.13545426,60.74545419,17.96009764,21.56986256,18.71582301,20.73316127,19.69440102,19.58726141,19.1692292,15.69151392,12.21998586,16.03451621,20.2119998,20.22998088,26.71060266,27.00553033,27.16428033,24.80808837,24.03641879,21.845045,3.37838715,6.260000002,9.268565708,14.6662765,15.35575767,16.21109857,13.17589581,11.52521119,9.509429623,5.507434962,7.720411242,8.664602637,13.14891279,13.46068042,13.9043846,11.67856357,10.90146065,9.608265423,0.606900932,0.8735357,0.867893568,1,1,0.998220242,0.971647403,0.89569217,43.05668125,-89.5308135,2017,WIH1
B73/MO17,NYH3_2015,N,24.25,731.1212129,2,1.5,231,125,82,82,4.268387075,0,1.234803629,3.315485905,3.744705864,3.708743319,2.034738589,2.091907533,2.160160663,132.3199993,0,17.66999944,111.4647067,9.843529393,38.42352946,75.35117763,21.49235322,65.37235311,20.95885717,21.76160183,22.01003167,20.47654391,19.37507164,18.84800849,18.09954582,14.25866518,12.17165493,15.21516129,28.41399994,23.9726608,27.94852153,28.22411762,29.00645443,26.88612691,22.65429039,19.02039094,3.206451565,16.00799999,11.62235867,15.61032629,16.7502941,17.72633694,14.88804443,11.60832066,7.356588233,5.349626667,14.38734971,10.95773449,14.17183136,14.61937489,15.41213998,13.31670354,10.34569698,7.707711279,0.504331792,1,0.97267375,0.996219796,1,0.995345527,0.95775528,0.812032548,42.7233625,-76.6555945,2015,NYH3
B73/PHN82,DEH1_2017,Y,20.75,734.9827686,0,3.5,243,127.5,70.5,69.5,2.917187458,6.201428686,3.00780289,3.517983876,1.211428521,1.632751291,5.214259368,11.31934688,4.882730708,93.34999865,43.4100008,45.34571489,126.7790489,1.268571377,15.48333303,157.8533328,69.24809492,151.3147631,17.05647962,17.73228645,20.71096481,19.57386043,19.15556694,20.88592809,18.21237176,18.15756056,16.58607394,20.26624998,24.66142872,21.72245043,26.82298965,30.35071437,30.31148162,30.69555299,28.43090921,27.29702356,9.32593758,14.19571427,10.68752201,16.75855213,19.906349,19.88150788,21.21690322,18.72144455,17.91444491,8.690479953,12.08402314,9.787934269,14.12431868,17.15482568,17.14050735,17.94790556,15.63546309,14.74613823,0.907287956,1,0.959736116,1,1,1,1,1,38.67025825,-75.4333645,2017,DEH1
B73/DK3IIH6,OHH1_2016,Y,14.25,717.6057679,0,65.5,289.5,134.5,65,64,4.328064465,1.776000023,3.915145208,2.580740659,3.890757626,4.17049496,5.079069289,3.957741935,3.614594814,134.1699984,8.880000114,44.70363614,85.9177286,9.330454675,39.94818193,160.1854537,27.69772666,110.1186362,18.3437644,22.24283047,20.73146956,20.35982518,19.15233416,18.82824642,16.72048491,17.98730955,14.71797893,19.63580645,29.63200035,26.56953589,28.59263588,29.59106055,30.69283836,29.21689182,28.27188687,26.30588322,8.120967747,16.89599972,14.9739129,16.70528562,18.30318191,19.74443426,18.9160149,15.44500838,13.40262461,8.117657052,15.32722009,13.17028057,14.81678154,15.96857054,17.23303236,16.11713161,14.21502474,12.5845871,0.859331788,1,1,1,1,1,0.999172078,0.989049277,39.860924,-83.6755995,2016,OHH1
B37/OH43,ILH1_2015,Y,11.3,710.5262491,0,1,255,130,70,69,4.343437491,1.296153843,7.654899739,5.34311295,3.674999952,2.467291633,4.647268051,0.712819956,1.951907909,138.9899997,16.84999996,99.86750055,177.342501,7.349999905,22.2056247,144.0256246,5.039375113,60.06187434,19.4076893,20.21820178,17.58012378,22.59231729,17.35775694,20.12242863,18.79551315,20.37165926,16.80998738,15.69375022,16.27615364,23.81483975,28.77428317,30.28249967,31.91701372,28.65899596,28.4854072,27.09877011,2.916875011,4.602307732,13.93389792,16.26044709,20.47749984,20.41381959,17.79543547,15.77196732,14.62672175,5.339800043,5.921635642,11.53105666,14.7484369,17.37999976,18.17178164,15.31569586,14.44648847,13.36421336,0.599162964,0.636840646,1,1,1,1,1,0.99828125,40.05982425,-88.23397575,2015,ILH1
TX777/LH195,IAH3_2015,Y,18.9,734.9827686,0,1.5,275.5,127,65,64,1.888124991,2.913571392,3.784813995,6.971928843,0,3.257500064,1.487385228,2.541446469,4.507444947,60.41999972,40.78999949,55.43999982,241.6600003,0,32.57500064,50.31437471,24.68500039,138.7756267,19.80172794,20.03998334,15.9141292,20.68283491,21.69136486,21.24428636,20.63784564,18.68301758,14.92198489,14.64187506,16.6814285,21.6371088,27.61372247,30.87885427,30.3035625,28.596254,28.51656267,24.33389908,0.83250004,3.600714236,12.24542872,16.05178152,19.47364565,18.11006255,15.99319583,14.30373217,10.64901215,4.605131548,5.787499831,10.11465775,14.1164012,17.17624996,16.25391669,14.57670766,13.97583386,10.87542788,0.501462055,0.634540813,0.981270753,1,1,1,0.968879463,0.933929792,41.97585629,-92.24291804,2015,IAH3
PHW52/PHM49,IAH4_2015,Y,19.45,722.7545088,0,2.5,232,105,65,64,1.42451612,4.854615514,2.513668144,6.351127419,5.46999979,2.154687441,1.85099418,0.335758934,4.064770202,44.15999973,63.11000168,35.58999979,218.2399999,10.93999958,20.30812445,58.48687407,2.377500039,125.1143763,19.83997888,19.28772805,16.02270398,20.69822917,17.27718186,21.35831173,20.17303565,19.59360772,15.6142427,15.83032262,16.78769229,22.26164163,27.88725423,29.37999988,31.52784708,28.69895342,30.18404469,25.46833276,2.473548389,5.024615425,13.48280789,16.59868734,20.37374985,19.78628468,17.37298211,16.89515858,12.68514048,5.318693913,6.228847238,10.78291245,14.47529064,16.87687486,17.66054739,15.18141656,15.71210426,12.05907357,0.585391697,0.659230777,0.98994413,1,1,1,1,0.952600636,41.19970961,-91.49362406,2015,IAH4
LH195/PHN37,ILH1_2016,N,19.1,746.5674357,0.5,2,285,179,65,68.5,2.976905237,4.388409027,2.266536067,5.61207631,2.384848472,3.596551307,3.312350719,4.357499975,4.793790319,93.71999985,46.35499933,33.46068128,180.4177266,4.628863606,41.73386359,104.1413657,28.32431801,148.2020453,18.82488241,16.77241452,21.32061235,20.18653607,20.74234538,18.07981042,18.8666989,17.85818253,16.07680721,18.05081144,19.20204525,23.0422997,29.42292662,27.90308728,26.97317812,29.60218573,29.15938829,28.17592877,4.960040295,8.531272602,10.4507586,17.10049505,15.99717794,16.84881478,19.41054858,18.84383108,17.09740687,6.781235125,7.969267807,10.17119166,15.41614171,14.29579798,14.15384892,16.51995977,16.04951253,14.84458937,0.666766271,0.897956159,0.946860721,1,1,1,1,0.999883117,40.0607245,-88.2338815,2016,ILH1
PHW52/PHM49,ARH2_2017,Y,17.7,731.1212129,0,2,229,110,65,64,2.789999995,15.83285686,4.776016413,2.853949028,1.142500003,5.651818152,3.905948255,2.4430325,4.688621725,89.27999985,110.829998,61.6427269,88.95863769,3.003181826,52.42863608,105.2449988,13.33772746,145.3472735,17.14489296,19.09436907,20.93439511,19.65670258,19.84409681,19.1211903,18.81176407,19.65259997,17.546866,23.65656266,24.55142866,25.38541455,28.9612549,32.40098458,30.84565692,31.84241473,32.83627249,30.20087953,12.07343751,12.16142872,12.7110645,18.0477898,21.78734854,20.24410098,21.87781566,22.25639174,20.26112908,10.83878158,11.22094165,11.88579938,15.62584547,19.09416656,17.54487895,18.8103181,19.27693671,17.25265116,0.991674107,1,0.97315368,1,1,1,1,1,35.67418125,-90.0752695,2017,ARH2
PHB47/PHZ51,GAH2_2017,Y,14.15,784.5394001,2,2,235,116.5,53.5,54,5.215806507,2.59000005,0.877047008,6.976424555,36.66571527,11.68990473,2.766634194,6.717714339,5.237281131,161.6900017,18.13000035,10.98809533,219.4985743,69.630002,116.6428568,77.55666748,33.5885717,162.3557151,18.59375843,20.97986943,21.98193589,18.54567619,14.33990901,17.7663424,19.78523868,18.86354985,17.57616326,25.93516134,24.17571449,30.47339418,29.31252372,29.52904774,29.72980419,32.72601502,32.10511542,30.76784952,12.17225799,9.938571385,16.15324828,18.06353156,20.43476164,19.51114297,21.20992787,20.86352373,19.95543778,11.90954616,10.38538115,15.45655397,15.75249851,16.98190469,16.63412837,18.90169131,18.47155665,17.41241638,0.999631335,0.985714285,1,1,1,1,1,1,33.727145,-83.29821525,2017,GAH2
LH195/LH82,TXH1_2015,N,11.4,765.8752142,0,2,156,62,68,66,2.435333351,0.886666695,4.529386736,2.992210444,0,5.407499953,3.236240411,4.528416659,2.205666663,73.06000052,5.320000172,54.16999972,113.7899998,0,59.48249948,89.11249819,24.54499996,66.1699999,13.38128519,15.80308406,13.73749678,19.48289484,22.46598899,19.96463979,19.54848583,19.57031498,18.03135075,19.61999995,26.26833312,25.8489028,26.4780255,30.37177098,28.79539756,31.9014052,33.48070828,34.35516661,6.122333375,12.74499997,15.39155332,13.69439061,15.83385423,15.9580683,20.41172374,21.45270844,23.93220836,7.516768444,12.28221354,13.06030889,12.7550996,15.35592881,14.67426974,18.11040569,19.30603111,20.37775841,0.822428569,1,0.992325397,0.994092815,1,1,1,0.999431249,30.54708625,-96.43393475,2015,TXH1
PHN11_PHW65_0323/LH195,ARH2_2016,N,15.75,731.1212129,0,1.5,200,117.5,65,64,5.780937422,12.26500018,3.712120208,7.0222886,1.105000019,0.295568184,1.931287914,1.454696927,6.280835692,184.9899975,73.59000111,50.67409075,233.2059098,2.210000038,2.364545475,51.29727264,7.656817956,194.7059064,17.76457119,17.22719622,20.14058537,19.80644481,18.88262117,19.79738723,18.69440654,19.88854878,15.60714355,21.02781257,25.69833342,24.88224707,27.55747889,33.1628785,33.38017045,32.40728063,33.71248445,31.37684753,8.517187547,14.13833332,13.26693003,16.75834882,22.79151535,23.21522755,22.56353312,22.95024234,22.3752492,8.626308124,12.37618007,11.75818796,14.46644855,19.89189903,20.24263088,19.43024202,20.23735303,18.81126952,0.958649555,1,1,1,1,1,1,1,35.838614,-90.66530155,2016,ARH2
LH212HT/LH195,ONH2_2016,N,20.25,728.5468424,0,8,250.5,126.5,76.5,74,1.435483875,1.740833327,1.463802716,3.022687524,0.150999999,1.134659085,3.046446673,1.693503778,2.765116665,44.50000012,20.88999993,18.84600039,117.1590009,0.150999999,12.25349994,101.0444998,13.16149993,84.26899996,19.72563927,22.19747464,21.68954048,21.77365896,18.98664827,19.92678304,16.69906166,15.68152671,12.9072029,14.10741935,17.58083336,26.00758685,26.04894451,27.78099985,28.79287246,28.2480382,25.9224786,23.75348014,4.257419363,7.13166666,15.03828811,14.1477789,17.72699971,17.33924119,18.24672102,15.95494667,14.17526013,5.131346137,6.986841243,12.85116395,12.65171997,14.84296497,15.26027205,15.31782021,13.26534606,11.67621189,0.511244241,0.799851209,1,1,1,1,1,0.975829282,42.4530035,-81.88279875,2016,ONH2
B14A/OH43,GAH1_2015,N,13.85,775.5291034,0.5,2.5,180,75,60.5,58,4.231249915,0,5.95843649,3.852603143,2.594000032,2.429925956,4.217759372,2.225466652,2.667397826,135.3999973,0,82.56599903,137.5619979,4.851333332,21.8693336,117.5779999,11.12733326,82.68933261,16.59936112,21.58269278,19.11661296,20.61616366,14.5260024,17.86473659,19.792993,19.1551459,18.46432438,25.43281227,26.81500022,26.00854227,27.82657943,29.9603331,30.57562955,31.8228303,33.58693334,33.75221527,12.50374998,10.5999999,12.24448314,13.90452364,20.76811106,20.25348139,20.64254904,22.17719986,22.29090342,11.85447967,11.72664631,11.94062668,13.41492991,17.36422208,17.41455547,18.23714923,19.83066815,19.89653894,0.988973219,1,1,1,1,1,1,1,31.505771,-83.555095,2015,GAH1
TX777/LH195,ILH1_2015,Y,11.15,757.5085102,0,3.5,265,130,72.5,71,4.343437491,1.296153843,7.654899739,5.34311295,3.674999952,2.467291633,4.647268051,0.712819956,1.951907909,138.9899997,16.84999996,99.86750055,177.342501,7.349999905,22.2056247,144.0256246,5.039375113,60.06187434,19.4076893,20.21820178,17.58012378,22.59231729,17.35775694,20.12242863,18.79551315,20.37165926,16.80998738,15.69375022,16.27615364,23.81483975,28.77428317,30.28249967,31.91701372,28.65899596,28.4854072,27.09877011,2.916875011,4.602307732,13.93389792,16.26044709,20.47749984,20.41381959,17.79543547,15.77196732,14.62672175,5.339800043,5.921635642,11.53105666,14.7484369,17.37999976,18.17178164,15.31569586,14.44648847,13.36421336,0.599162964,0.636840646,1,1,1,1,1,0.99828125,40.05982425,-88.23397575,2015,ILH1
B73/PHM49,IAH4_2015,Y,18.5,726.6160645,28,5.5,259,133.5,65,64,1.42451612,4.854615514,2.513668144,6.351127419,5.46999979,2.154687441,1.85099418,0.335758934,4.064770202,44.15999973,63.11000168,35.58999979,218.2399999,10.93999958,20.30812445,58.48687407,2.377500039,125.1143763,19.83997888,19.28772805,16.02270398,20.69822917,17.27718186,21.35831173,20.17303565,19.59360772,15.6142427,15.83032262,16.78769229,22.26164163,27.88725423,29.37999988,31.52784708,28.69895342,30.18404469,25.46833276,2.473548389,5.024615425,13.48280789,16.59868734,20.37374985,19.78628468,17.37298211,16.89515858,12.68514048,5.318693913,6.228847238,10.78291245,14.47529064,16.87687486,17.66054739,15.18141656,15.71210426,12.05907357,0.585391697,0.659230777,0.98994413,1,1,1,1,0.952600636,41.19970961,-91.49362406,2015,IAH4
CG44/CGR01,DEH1_2019,Y,19.675,712.1352307,0,9.25,232.5,107.5,57.5,56.25,4.885483834,0.129999995,2.22754366,2.838879743,7.092619056,13.09007943,2.376059147,7.246095167,5.291338731,151.4499989,1.169999957,29.41999924,87.75142762,13.32785715,117.8107149,70.17642808,38.82285679,163.7607149,18.09422633,22.52754413,19.09832956,21.10549391,16.87992425,18.38683534,17.43790908,14.47643482,15.18822094,17.49129031,20.55777783,23.08374535,28.61102885,30.70333358,31.53571423,31.96636291,30.10673826,28.44137569,7.04516129,9.184444467,14.30050877,18.34149326,20.74333359,21.70119062,22.68293302,22.03347627,19.57253904,6.992168387,8.735510177,11.41430501,15.6056687,17.71122979,18.59296506,19.259015,18.07354239,16.13042035,0.769815656,0.948412699,0.988507504,1,1,1,1,1,38.670675,-75.433225,2019,DEH1
F42/MO17,NYH3_2019,N,24.6,718.2493605,0,1.5,255.5,135.5,75,74,3.722580618,3.873333404,3.769554008,3.757958966,6.56821411,3.88506864,3.604603585,1.929858492,3.709694332,115.3999992,34.86000064,61.04857108,135.2235714,13.13642822,47.6607138,172.5314276,35.27499978,112.0914282,17.9818517,20.79040337,20.53458356,20.20586531,15.56107187,20.47665645,15.7702462,13.42945136,8.802352299,16.21290321,21.91111098,21.5613082,26.8770008,26.27928579,27.19863099,23.33754175,19.77308355,13.39834902,5.322258069,10.30000003,10.31609792,15.50927174,17.62488075,14.92700095,12.00041282,8.027538821,3.378330702,6.134411308,9.414033746,9.318517767,13.52970479,14.11503311,13.40897889,10.69134109,8.327220554,5.109082433,0.665391704,1,0.983452189,1,1,0.970435943,0.837841689,0.510564168,42.7321756,-76.65345463,2019,NYH3
PHW52/PHM49,WIH2_2020,N,26.925,686.391526,5.625,0.625,263.125,130.25,75,73,1.142258063,7.375000167,3.772605813,4.528143625,15.91411821,3.015240613,2.848395651,6.559665308,3.073983535,35.40999997,73.75000167,42.96999988,163.850588,31.01764819,33.16764674,117.7699986,59.84176376,94.45823468,20.73953056,16.04352899,21.23354675,21.58093245,19.01370295,17.88573252,19.32013515,13.57540027,12.27254504,13.56999995,18.91099977,26.0938683,28.2322475,29.46647072,27.75422455,27.09322103,24.80509675,19.00189054,0.762580661,9.396999884,13.99892158,14.99589118,17.7452939,17.49807463,14.22893102,13.29211059,7.459399134,4.176897214,8.107987139,12.68677404,14.02444379,15.66411489,14.70790633,13.20588953,12.26960615,7.833960257,0.443168195,0.881928567,1,1,1,0.990384734,0.880973437,0.780679991,43.294786,-89.383968,2020,WIH2
TX714/PHZ51,NYH2_2015,Y,18.3,731.1212129,0,2,244,114,83,82,3.814193487,2.822857129,1.806874641,1.427310218,14.28882354,6.323155046,2.553769654,1.263651931,1.70374005,118.2399981,39.5199998,23.5252947,50.99705838,17.86235295,65.18176435,90.43176518,10.71352917,51.74117684,19.21827184,21.58410556,20.44972798,21.8367517,17.34067749,18.34945618,18.49425604,17.55625849,13.84215422,11.26903224,15.86071418,24.70888252,27.12764594,29.5805878,28.55383422,27.75922879,25.11594081,20.73318661,0.676451599,3.065714287,12.68317757,14.19692254,19.48862723,17.66257776,16.12899413,12.03346763,8.797239788,3.458861152,5.522653893,11.65565145,13.2498794,16.56577659,15.18766176,14.16580901,11.53845799,8.731216192,0.261509218,0.568112238,0.971160735,0.994106254,1,0.999864887,0.980226591,0.898542131,42.7324825,-76.65277775,2015,NYH2
PHN11_PHG47_0251/PHB47,WIH1_2015,N,23.55,758.1521028,0,0,256.5,139,65,64,4.730000059,9.059999784,2.430610682,6.190059866,3.242812514,1.739310909,2.563222068,2.582604527,2.064862235,151.3600019,54.3599987,32.30062549,198.0887501,6.485625029,21.11437514,113.2525011,35.42937557,62.48000012,19.32367544,22.19104989,23.8972515,19.04105101,21.62804324,20.72553659,16.09255797,13.7227876,9.595561915,19.95718755,28.15000025,26.05326099,28.85932006,29.07385437,26.51056077,24.82739399,20.18089026,14.51549808,8.517187543,15.30499983,11.82802944,17.48783518,16.48010375,14.49615378,12.31509137,8.581945626,2.680440183,8.558350873,13.98301754,11.81015597,15.26183828,14.95581898,12.98753542,11.68123469,8.628108428,5.087550731,0.777276777,1,1,1,1,0.929186389,0.833919484,0.505939954,43.05511725,-89.528525,2015,WIH1
PHW52/PHM49,NYH3_2020,N,15.5,697.0108042,0,6,216,89.5,69.5,69.5,4.422257993,0,1.373865683,3.203515064,6.161458224,3.578657229,2.247619776,1.339995863,2.270768823,137.0899978,0,18.69000064,113.6731244,12.19749978,37.86125033,87.74812532,17.041875,68.54562519,20.94560956,21.78233427,21.55267425,20.63825651,19.18147684,18.87690393,17.75633085,13.93943947,11.5316014,14.59225801,27.97729172,23.60945411,27.89842024,28.17958339,28.76829368,26.51617347,21.47489044,18.12990527,2.644717742,15.68266662,11.3508871,15.53912014,16.43281273,17.50013456,14.53010818,10.52921434,6.891416056,5.000434995,14.04753459,10.70035646,14.11697706,14.42792892,15.19886376,13.03509367,9.604727821,7.356101809,0.471947005,1,0.969562211,0.99553941,1,0.989555914,0.903066166,0.764418635,42.73227475,-76.6513705,2020,NYH3
PHB47/PHZ51,IAH4_2015,N,15.53333333,724.256225,30,2,255.3333333,136.6666667,65,64,1.42451612,4.854615514,2.513668144,6.351127419,5.46999979,2.154687441,1.85099418,0.335758934,4.064770202,44.15999973,63.11000168,35.58999979,218.2399999,10.93999958,20.30812445,58.48687407,2.377500039,125.1143763,19.83997888,19.28772805,16.02270398,20.69822917,17.27718186,21.35831173,20.17303565,19.59360772,15.6142427,15.83032262,16.78769229,22.26164163,27.88725423,29.37999988,31.52784708,28.69895342,30.18404469,25.46833276,2.473548389,5.024615425,13.48280789,16.59868734,20.37374985,19.78628468,17.37298211,16.89515858,12.68514048,5.318693913,6.228847238,10.78291245,14.47529064,16.87687486,17.66054739,15.18141656,15.71210426,12.05907357,0.585391697,0.659230777,0.98994413,1,1,1,1,0.952600636,41.19970961,-91.49362406,2015,IAH4
PHB47/PHZ51,ARH1_2017,Y,13.85,802.5599933,0,2,216.5,95.25,65,65,3.058125025,3.532857077,9.871688678,6.405160528,0.516363615,5.988171668,5.119232493,3.102318153,5.34158356,97.86000079,24.72999954,132.0327285,211.6218184,0.569545432,54.36818138,136.8913653,16.08272713,165.5890903,17.13974981,16.55343887,20.38424011,18.76225527,22.81364793,19.06964508,19.53553475,19.77193111,17.12972935,24.60906261,23.96000045,24.77057006,28.06605652,30.35469691,31.5146664,31.30577636,32.78459133,30.91587993,11.9175,14.17857156,11.8445801,17.60850246,18.97249995,21.30615642,21.39979275,22.50533316,21.62237538,11.1639709,11.77578055,11.22655186,14.97537354,16.74359516,18.41041141,18.33049426,19.54768126,18.22457608,1,1,1,1,1,1,1,1,34.7272515,-90.76032575,2017,ARH1
LH198/PHZ51,MOH1_2015,N,14.5,731.1212129,0,1,242.5,122.5,74,73,3.914838722,3.002727248,2.7038834,5.646226268,2.268750012,1.183333344,4.736744086,1.740401796,3.666491943,121.3600004,33.02999973,34.41999933,178.8712478,5.868750036,10.6500001,140.2618746,11.88312507,113.6612502,18.81846694,18.88703156,16.92919735,21.70591481,15.72154266,19.94530069,18.47422179,20.12873028,17.02653892,18.28451609,18.00181831,23.77805456,28.93028285,29.85593748,31.76118019,30.42140763,28.58050013,28.43143147,5.857096827,7.500000065,15.21487777,17.6487962,21.67281234,21.45979159,20.28182538,17.09899995,17.28669369,7.068544315,7.302193139,11.97142579,15.39796361,17.76437491,18.61048589,17.380694,14.99182695,15.05317439,0.723283405,0.814935086,1,1,1,1,1,1,38.8965375,-92.20800417,2015,MOH1
B14A/H95,ARH1_2017,N,13.15,537.3998352,0,2,198.1,110.5,68,65.5,3.058125025,3.532857077,9.871688678,6.405160528,0.516363615,5.988171668,5.119232493,3.102318153,5.34158356,97.86000079,24.72999954,132.0327285,211.6218184,0.569545432,54.36818138,136.8913653,16.08272713,165.5890903,17.13974981,16.55343887,20.38424011,18.76225527,22.81364793,19.06964508,19.53553475,19.77193111,17.12972935,24.60906261,23.96000045,24.77057006,28.06605652,30.35469691,31.5146664,31.30577636,32.78459133,30.91587993,11.9175,14.17857156,11.8445801,17.60850246,18.97249995,21.30615642,21.39979275,22.50533316,21.62237538,11.1639709,11.77578055,11.22655186,14.97537354,16.74359516,18.41041141,18.33049426,19.54768126,18.22457608,1,1,1,1,1,1,1,1,34.7272515,-90.76032575,2017,ARH1
B37/H95,WIH2_2016,N,20.7,808.3523269,0,24.5,291,146,65.5,65,2.185483832,6.563333432,3.447094458,4.124693788,6.707159024,6.158880111,5.945293137,1.654273513,4.758742445,67.74999878,39.38000059,44.45545418,149.2718189,18.91272705,63.86318129,228.7613642,17.11772738,143.1609097,20.07161814,17.64681498,20.48120554,20.03716075,21.00097141,18.73971629,16.31911952,14.94670844,10.3303759,18.34677419,27.65666644,25.59626749,27.3504729,29.44640147,29.15349181,26.70938079,24.21329019,20.37268081,4.840000014,15.2516667,12.43660419,15.21846351,16.18390156,17.81047537,15.29826924,12.0891497,9.537770322,6.76617685,13.67923016,11.77429452,13.6256578,15.0809804,15.56950508,13.35737665,11.10536848,8.849967039,0.729688939,1,1,1,1,0.998061418,0.979766622,0.886131912,43.32649075,-89.33882925,2016,WIH2
B73/PHM49,TXH1_2016,N,10.3,705.3775082,0,2,222.5,86.5,73,72.5,1.633666698,16.13999993,0.99702422,4.719865603,0.129393939,3.277272727,13.06232457,0.703636358,1.017125621,49.01000094,112.9799995,14.5313639,177.3549991,0.33090909,36.05,378.0672674,3.179999969,30.53454577,13.9726292,10.72874144,17.88940951,17.80076093,20.55685321,19.77792414,17.90480363,20.8338604,20.14326093,22.32500016,23.95000022,24.48309256,26.40498513,28.5388636,28.63545455,30.12870319,34.35404525,35.58838723,6.034666632,13.33571414,9.675379644,13.12758779,15.78530267,16.33764454,20.13902853,23.08186362,24.00118421,8.473379033,11.29783551,10.5045992,12.46111665,14.43681279,14.72204148,17.12368238,20.53225114,20.87599038,0.915869048,1,0.972225207,1,1,1,1,1,30.54708625,-96.43393475,2016,TXH1
PHG39/PHN82,GAH2_2016,N,11.55,731.1212129,0,2,245,195,54,52.5,1.486129045,0,7.316392826,2.079782856,1.718421064,1.264671045,2.43256314,4.61773679,3.235456168,46.07000041,0,60.50999928,55.97210474,3.436842128,10.11736836,67.31736801,23.15894711,100.2847377,20.21189387,22.87583466,19.10112302,21.34036575,17.85876091,19.83818451,18.50479945,15.9975398,17.29687983,27.80677426,30.50400009,32.06010812,34.2138269,34.93842035,34.86282896,34.62455114,33.33373696,32.80003392,13.8351613,16.55600014,19.35906305,20.32019684,22.9621054,21.76434208,22.04984942,22.29670187,20.14649938,13.32566871,15.60302283,17.72531793,18.78372546,20.36638125,19.89190838,19.9091667,19.70080105,18.42340329,1,1,1,1,1,1,1,1,33.717295,-83.3110275,2016,GAH2
PHP02/PHB47,ARH2_2016,N,12.7,731.1212129,0,2,192.5,98,61.5,59.5,5.780937422,12.26500018,3.712120208,7.0222886,1.105000019,0.295568184,1.931287914,1.454696927,6.280835692,184.9899975,73.59000111,50.67409075,233.2059098,2.210000038,2.364545475,51.29727264,7.656817956,194.7059064,17.76457119,17.22719622,20.14058537,19.80644481,18.88262117,19.79738723,18.69440654,19.88854878,15.60714355,21.02781257,25.69833342,24.88224707,27.55747889,33.1628785,33.38017045,32.40728063,33.71248445,31.37684753,8.517187547,14.13833332,13.26693003,16.75834882,22.79151535,23.21522755,22.56353312,22.95024234,22.3752492,8.626308124,12.37618007,11.75818796,14.46644855,19.89189903,20.24263088,19.43024202,20.23735303,18.81126952,0.958649555,1,1,1,1,1,1,1,35.838614,-90.66530155,2016,ARH2
LH195/PHZ51,NYH3_2017,Y,16.85,731.1212129,0.5,10,257,126.5,77.5,76,4.985806354,2.593333337,3.440292244,5.924553407,1.051666657,3.381140065,2.23243854,2.798625029,4.018371008,154.559997,23.34000003,54.13749945,222.2425004,2.049999952,44.44499943,102.8575006,24.55750025,123.6625012,18.91896409,18.22902181,21.60070221,19.42377057,18.75741065,18.65984774,17.28846846,13.47436078,9.528870152,16.54903238,19.80111122,22.34799835,25.7161787,25.88750029,25.25326924,23.49877068,24.29574993,19.15391932,5.239677404,10.2422222,10.56618324,15.20414844,15.99166679,14.88818678,11.70967484,11.14050002,8.077069991,6.267898103,8.570747831,9.800943694,12.82521906,13.14722321,12.44715548,10.67530521,10.86002668,8.093424028,0.638917053,1,1,1,1,0.987943118,0.977741071,0.791930495,42.73339625,-76.652747,2017,NYH3
B37/OH43,GAH2_2019,Y,13.23333333,808.7813886,0,2,229,99.66666667,61,62,1.545000002,4.557500124,0.250380961,1.26115813,2.257142884,9.485350662,1.336144097,0.813952387,3.350460841,49.44000006,36.46000099,3.755714417,38.36428595,2.257142884,98.62571442,36.52428579,4.78428575,103.8642861,18.18435833,18.19265985,22.8847832,21.24247432,23.3434718,16.19739035,20.40643492,19.78647718,19.94823177,21.36937484,23.13125002,27.34691779,30.77499698,32.53285762,28.60028574,32.70957317,33.58714258,33.18838734,7.029687526,9.771250069,11.28150206,17.20030934,17.5714283,19.08651926,20.35438482,22.40104739,20.7990781,8.377064876,9.945548605,12.20340126,16.01551644,17.09277291,15.89283108,18.47046504,19.81563867,18.90725155,0.94271205,0.94334821,1,1,1,1,1,1,33.7204165,-83.308125,2019,GAH2
B14A/MO17,NEH2_2018,N,14.4,771.0239551,0,2,244.5,94,65,64,1.223548393,0.707272736,4.763911635,2.422660693,9.359230876,1.187769238,2.22139935,1.060615372,2.655643509,37.93000019,7.780000091,61.58923048,72.52538565,18.71846175,11.03461544,72.02230704,6.795384554,82.07230774,19.8632896,17.86074517,17.24350838,22.63499015,18.62862352,21.21286184,19.62237806,18.45252819,16.56870138,17.6919355,17.47909086,23.04657186,30.81178887,30.82346183,31.15499996,29.41523597,30.138927,26.57117624,3.026129,6.979090886,13.86801705,18.31582591,19.94076905,19.05673485,17.52505525,17.69200753,12.69636803,6.275299993,6.965919572,11.10889174,16.66188215,17.38211544,17.1119836,15.61857368,16.09025205,12.68735507,0.68033411,0.762240243,1,1,1,0.996687975,0.997695055,0.910447978,41.38042275,-96.55988375,2018,NEH2
F42/MO17,KSH1_2015,N,15.75,727.2596572,0,2,229,110,85,82,0.688124985,3.518749885,2.537239536,4.634326915,6.340784251,4.013516285,5.753010874,3.95559662,1.81791271,22.01999953,28.14999908,47.40176476,147.1705882,9.165882307,38.18235242,161.646473,23.74705871,56.35529401,19.48910828,20.34062409,19.21958791,21.30664108,18.00351726,18.80818483,18.60066932,17.86718078,18.78253622,17.69406253,22.96750021,19.85221485,29.31892792,29.11705877,31.41670577,31.16760655,30.50505886,29.96204923,3.297187492,8.938749969,8.792561365,16.998743,18.09705929,19.84989561,20.1377744,20.03282345,17.06836811,6.184738542,9.476230158,8.381520189,15.38816616,15.61697663,17.65547515,17.65556265,17.32458654,15.75670183,0.6778125,1,0.850138809,1,1,1,1,0.98304554,39.21641775,-96.60482225,2015,KSH1
F42/H95,NYH2_2020,Y,17.45,739.4879169,0.5,4,261,133,68.5,68.5,4.422257993,0,1.391731236,3.182357247,6.170888774,3.507901041,2.283490724,1.426918664,2.172175634,137.0899978,0,18.68266731,113.2706661,12.6093331,36.98266699,88.46933366,18.14666667,65.61600019,20.94267544,21.78244971,21.55666085,20.64321436,19.27786447,18.92984529,17.76882093,13.77968924,11.70490539,14.55447306,27.94977782,23.62933928,27.86541297,27.88688897,28.78672537,26.53302948,21.56675493,18.20507674,2.61195699,15.66431106,11.35573055,15.51025755,16.31100023,17.48208292,14.53826355,10.86377734,6.879177126,4.979415324,14.02697238,10.70801105,14.09392345,14.22879085,15.20067311,13.04971037,9.749522427,7.387680802,0.470065285,1,0.969822941,0.995242037,1,0.988859641,0.904446401,0.765938608,42.73230075,-76.65036275,2020,NYH2
LH195/LH82,ILH1_2016,Y,15.125,799.3420303,0,2,236.75,117,71.5,69.75,2.976905237,4.388409027,2.266536067,5.61207631,2.384848472,3.596551307,3.312350719,4.357499975,4.793790319,93.71999985,46.35499933,33.46068128,180.4177266,4.628863606,41.73386359,104.1413657,28.32431801,148.2020453,18.82488241,16.77241452,21.32061235,20.18653607,20.74234538,18.07981042,18.8666989,17.85818253,16.07680721,18.05081144,19.20204525,23.0422997,29.42292662,27.90308728,26.97317812,29.60218573,29.15938829,28.17592877,4.960040295,8.531272602,10.4507586,17.10049505,15.99717794,16.84881478,19.41054858,18.84383108,17.09740687,6.781235125,7.969267807,10.17119166,15.41614171,14.29579798,14.15384892,16.51995977,16.04951253,14.84458937,0.666766271,0.897956159,0.946860721,1,1,1,1,0.999883117,40.0607245,-88.2338815,2016,ILH1
PHB47/PHZ51,WIH2_2016,Y,18.1,805.5634256,0,10.83333333,281,138,60.5,61.16666667,2.185483832,6.563333432,3.447094458,4.124693788,6.707159024,6.158880111,5.945293137,1.654273513,4.758742445,67.74999878,39.38000059,44.45545418,149.2718189,18.91272705,63.86318129,228.7613642,17.11772738,143.1609097,20.07161814,17.64681498,20.48120554,20.03716075,21.00097141,18.73971629,16.31911952,14.94670844,10.3303759,18.34677419,27.65666644,25.59626749,27.3504729,29.44640147,29.15349181,26.70938079,24.21329019,20.37268081,4.840000014,15.2516667,12.43660419,15.21846351,16.18390156,17.81047537,15.29826924,12.0891497,9.537770322,6.76617685,13.67923016,11.77429452,13.6256578,15.0809804,15.56950508,13.35737665,11.10536848,8.849967039,0.729688939,1,1,1,1,0.998061418,0.979766622,0.886131912,43.32649075,-89.33882925,2016,WIH2
B14A/MO17,MOH1_2016,N,17.6,731.1212129,0.5,2,257.5,130,57,56.5,2.465483877,8.058000231,0.264259377,6.282521268,1.94553035,9.25680559,4.358907121,3.354664451,5.453130527,76.43000019,40.29000115,2.879999995,172.8372758,4.262727369,83.20363667,125.2090916,21.13363606,168.2240918,20.2309363,16.93509369,22.49829557,20.20959989,18.68177986,19.21408964,18.0090922,17.17714413,15.87534947,21.83193548,27.56600037,27.88644765,31.21215235,30.25795442,31.2505745,30.57423065,29.80077912,28.25339236,10.073871,16.74400005,16.26474463,19.86215984,19.98371223,20.49117413,20.76153791,19.91431794,17.56318368,9.497798547,14.24343349,14.21296425,17.47336946,17.12232598,17.8699151,17.65104862,16.90998551,15.09561117,0.937315665,1,1,1,1,1,1,0.999442641,38.8955475,-92.2072025,2016,MOH1
B73/PHM49,ILH1_2019,Y,18.65,784.5394001,0,0,248,131,63.5,62.5,3.922903261,5.481666605,1.00366755,4.244691953,0.864761892,1.289377346,1.227411081,2.864647074,2.116070648,121.6100011,32.88999963,10.01785682,147.0385723,1.34571428,11.77428573,45.42428628,20.70571404,64.49999962,18.80145381,19.65322081,22.67392072,19.84274881,20.61125065,20.0231267,19.28032854,15.59344345,14.97056188,19.78774188,27.49499989,27.66771062,28.39175175,31.90428638,30.86753304,28.53869606,27.75133519,26.64299619,8.822580737,16.11666648,15.73801632,17.44140675,20.6435711,19.81749468,16.71837596,16.74759351,14.38373492,8.392897398,14.01107102,13.933587,15.08804109,18.28423173,17.40393302,14.78980986,14.45116262,13.1086535,0.871382484,1,1,1,1,1,1,0.979387755,40.0587105,-88.2298385,2019,ILH1
TX777/LH195,MIH1_2020,N,14.35,672.5542847,0.5,1,277.75,162.25,82,74.5,4.984838709,2.447142908,2.78018427,2.64718347,5.506875038,1.476884461,2.688717092,6.006552647,2.65185957,154.53,17.13000035,30.43499947,89.07562375,6.053750038,16.17374991,112.2143753,49.72375022,79.8756258,20.40588462,19.28742858,24.32683064,21.06964646,18.47526628,19.40802789,18.05267967,13.18055513,11.8632568,17.75483874,24.12857165,28.18736501,29.25734834,30.47187495,29.12451894,27.19720882,23.65947149,18.53645566,5.91032262,13.18571418,13.36449351,15.87753885,17.57625037,17.40439215,14.2199518,12.09430501,6.603961046,6.886871568,11.64218502,13.33305563,14.86544572,16.04104967,15.33737973,13.2580117,11.17810785,7.349100415,0.70564517,0.993469382,1,1,1,0.990981538,0.929873564,0.775463757,42.7085775,-84.4705825,2020,MIH1
B37/MO17,ARH2_2018,N,16.53,731.1212129,0,2,203,89.5,65.5,63,4.523124937,5.877777735,3.202210455,3.225384198,0.461428574,5.0703967,1.707251537,1.546976178,1.915506911,144.739998,52.89999962,46.32285666,103.4992844,0.461428574,45.6335703,42.68714207,7.346428526,59.38071425,17.7541087,19.6455271,19.52097147,20.05684428,23.80737271,19.97823453,19.1297214,18.25489796,18.05597286,19.61875001,21.92000008,22.77345622,28.90718296,31.9800005,30.98396799,32.84130907,33.56595603,31.90391706,8.73406262,10.34777779,11.28771296,17.85430307,18.706429,19.75547635,22.48266054,23.2605133,21.25223495,8.305601359,9.423215554,10.22107903,15.52009327,17.35232514,17.37984482,19.61861005,20.2782542,18.53689778,0.857433028,1,0.994106717,0.995975764,1,1,1,1,35.674241,-90.0749725,2018,ARH2
PB80/PHZ51,KSH1_2015,N,15.26666667,769.3077081,0,2,229,110,85,83,0.688124985,3.518749885,2.537239536,4.634326915,6.340784251,4.013516285,5.753010874,3.95559662,1.81791271,22.01999953,28.14999908,47.40176476,147.1705882,9.165882307,38.18235242,161.646473,23.74705871,56.35529401,19.48910828,20.34062409,19.21958791,21.30664108,18.00351726,18.80818483,18.60066932,17.86718078,18.78253622,17.69406253,22.96750021,19.85221485,29.31892792,29.11705877,31.41670577,31.16760655,30.50505886,29.96204923,3.297187492,8.938749969,8.792561365,16.998743,18.09705929,19.84989561,20.1377744,20.03282345,17.06836811,6.184738542,9.476230158,8.381520189,15.38816616,15.61697663,17.65547515,17.65556265,17.32458654,15.75670183,0.6778125,1,0.850138809,1,1,1,1,0.98304554,39.21641775,-96.60482225,2015,KSH1
2369/LH123HT,ONH2_2017,N,23.1,868.2064403,0,10.5,265,123.5,48.5,43.5,3.566774253,5.816000056,0.640467161,2.602850346,0.276190468,0.553043346,1.774150425,1.832219351,2.40528059,110.5700018,58.16000056,8.999047586,96.02571482,0.552380936,6.918571438,78.70857161,24.06619065,72.98142847,18.8542372,16.74867072,24.21291039,19.37094181,21.19715784,20.84705237,17.61151759,14.253685,9.927824707,15.7532257,18.68899984,23.40262829,26.34974997,26.59380949,26.86065013,24.57225317,22.91748616,20.00596815,5.764838726,10.96000004,12.03359118,16.18007827,16.63301581,15.91920336,13.14574071,11.27177775,10.10650586,6.141928302,8.38660306,10.68394655,13.52521671,13.7753985,13.64998718,11.58821465,10.41552723,9.107414304,0.598502303,0.966571423,1,1,1,0.999084662,0.956230826,0.8300025,42.45293025,-81.8827315,2017,ONH2
W10005_0107/PHB47,NEH2_2015,N,13.1,769.7367699,0,3.5,229,110,92,92,1.358750008,3.755999994,3.031264216,1.286090902,0.286666671,1.657187527,3.751759362,0.157499999,0.616713691,43.48000026,37.55999994,66.29000026,43.49999976,0.860000014,16.57187527,117.6431233,0.944999993,18.99062441,19.53783247,19.98656282,18.8528682,23.65152674,23.21232343,22.7312118,19.62767813,21.61948185,18.20728239,15.03874992,23.15200024,18.66927583,30.14561768,32.37510385,32.60862507,30.36489819,32.31320816,28.31448706,-2.426562488,5.230999994,5.264051067,13.5723423,16.5714581,16.13087479,15.9646131,15.56819047,11.19634675,4.192485347,8.478296732,6.894904354,14.37610508,16.560328,16.47008009,15.3434088,16.05261291,12.83173005,0.519497764,0.97653572,0.809891265,1,1,1,1,0.922021698,41.0514495,-100.7471915,2015,NEH2
LH74/PHN82,MNH1_2015,Y,16,740.7751021,0.5,0.5,223,111,70,68.5,2.676451665,6.10285713,1.587216104,4.707726326,2.093823531,4.685775359,5.935015669,2.223261507,2.198788145,82.97000162,42.71999991,19.59000013,155.007059,3.965294123,52.23235247,227.0947085,20.90117698,67.40117758,19.81693462,15.87546921,21.62818458,20.65236193,17.21434565,21.12123323,17.7408483,14.5374504,12.06297535,17.43387093,22.63000025,27.28921799,28.46423671,28.36529418,28.07899716,26.14089523,24.73259507,17.90095705,4.567419307,13.73428563,14.30007362,16.89716897,18.65411764,16.19745995,14.75643511,13.57280729,6.634647692,6.2838161,10.87437977,13.26905608,14.87023808,15.64114514,14.35392043,12.99006372,12.46836687,7.55733068,0.722983866,1,1,1,1,0.977703003,0.878626049,0.721229646,44.07038575,-93.53519625,2015,MNH1
B73/DK3IIH6,ONH1_2017,Y,17.7,731.1212129,0,2,229,110,65,64,4.42290319,4.904999876,1.545173221,3.420435244,1.695375006,2.594700004,1.855534774,1.54565171,2.383111348,137.1099989,49.04999876,23.52600009,140.8034994,5.378000009,36.46150006,95.23350107,29.85300009,72.44250006,18.65662235,17.08545341,23.10813164,20.12586768,18.11232318,19.44819915,16.33652997,11.62209215,7.957733996,13.94322577,18.20700026,22.35689536,24.80045755,25.17183321,25.2296929,22.79396283,22.13957367,13.29532023,3.578387066,9.706999969,10.10387851,14.12185296,14.82349991,13.63261195,10.3904862,9.847475595,3.166289439,4.958212412,8.025894563,9.659097931,11.97096233,12.35740613,11.98311106,9.953455995,10.0654016,5.273375752,0.439723498,0.877642858,1,1,1,0.972410901,0.840292505,0.515578473,43.49546,-80.42596875,2017,ONH1
PHN11_PHG47_0251/PHB47,ARH1_2017,Y,17.7,731.1212129,0,2,229,110,65,64,3.058125025,3.532857077,9.871688678,6.405160528,0.516363615,5.988171668,5.119232493,3.102318153,5.34158356,97.86000079,24.72999954,132.0327285,211.6218184,0.569545432,54.36818138,136.8913653,16.08272713,165.5890903,17.13974981,16.55343887,20.38424011,18.76225527,22.81364793,19.06964508,19.53553475,19.77193111,17.12972935,24.60906261,23.96000045,24.77057006,28.06605652,30.35469691,31.5146664,31.30577636,32.78459133,30.91587993,11.9175,14.17857156,11.8445801,17.60850246,18.97249995,21.30615642,21.39979275,22.50533316,21.62237538,11.1639709,11.77578055,11.22655186,14.97537354,16.74359516,18.41041141,18.33049426,19.54768126,18.22457608,1,1,1,1,1,1,1,1,34.7272515,-90.76032575,2017,ARH1
LH212HT/LH195,ONH1_2016,Y,32.25,650.6721357,0,2,235,134,89,86,1.979032247,2.105714291,0.92181366,1.439738287,4.720833318,2.435439396,4.62931563,1.31185227,2.043303741,61.34999967,29.48000008,13.31600007,60.28400005,10.99249999,28.54150001,172.0475013,11.37649985,61.38049932,20.24883872,21.56727634,23.77365349,22.41142308,19.3081847,20.61473607,17.12813691,15.31534219,11.6349499,10.49290321,16.47999988,25.01561457,25.51466922,28.22516696,27.99415914,27.31356147,24.49017951,20.3886015,-0.735806467,3.753571405,10.93050922,11.61184699,15.55325019,14.71775745,15.07244109,12.71620509,9.185787659,3.269306411,5.688768484,11.09209761,11.56175859,14.2216101,13.76399544,13.57642435,11.5133866,8.776899495,0.291105988,0.684668367,0.99891379,0.988093962,1,0.998165816,0.971212584,0.877977401,43.4997965,-80.451125,2016,ONH1
B37/MO17,MOH1_1_2018,N,17.13333333,731.1212129,0.333333333,1.666666667,235,114.6666667,58,54.66666667,4.419032262,0.120000001,6.56660792,4.995913726,0,0.865952386,4.867908623,7.318145406,3.629241153,136.9900001,0.840000004,71.60142667,150.6285707,0,7.793571472,145.6157139,39.85928573,112.0157138,18.39395777,18.46565301,20.1607481,20.70593221,19.87326009,21.97749135,18.06982858,17.46468943,16.31914076,19.5254839,22.76714298,27.16554273,29.60936822,31.6271427,32.32420578,29.51628185,29.85375934,27.04843165,7.99741943,14.14714282,16.43732974,18.81172612,21.79964249,20.71007941,19.44316189,19.21155699,15.91814144,7.992986492,11.1555316,14.00535673,16.26359619,18.7133926,18.51714259,16.54699664,16.60044059,13.86670431,0.872361758,1,1,1,1,1,1,0.995607144,38.89791675,-92.20952075,2018,MOH1
PHG39/PHN82,SDH1_2015,N,22.25,624.2848385,0,0.5,171.5,86,73,73,1.890000034,2.68444448,2.847212523,0.928406021,1.08916667,1.213193166,1.12388612,3.994558873,0.570569385,58.59000105,24.16000032,33.86000057,31.14874977,1.720000006,12.77624983,39.02562428,27.90249949,17.65812508,21.16446504,23.3864585,24.03054242,23.94878495,21.74335716,21.42490048,20.60212775,16.27746828,15.18579983,19.04290341,22.5888888,27.20826416,30.46229654,29.54760476,31.86073879,31.47770382,29.48664523,24.89733582,4.208709664,8.468888919,11.69082143,14.25969647,14.29062517,16.06534098,14.02269822,14.11578116,6.942900096,6.807516906,9.210660666,12.27390437,14.67606113,14.18888263,15.81431879,15.00552731,14.17539039,9.834808296,0.77025346,0.983690483,1,1,1,0.983472358,0.961069402,0.950039755,44.208745,-102.928745,2015,SDH1
2369/LH123HT,INH1_2016,N,18.95,693.1492485,17.5,23,294,149,66,65,3.034516148,1.382857186,3.106568823,3.966270256,3.500454469,6.752636371,3.451172643,3.198528118,3.024422797,94.07000059,9.680000305,31.26000059,138.8759105,3.500454469,67.52636371,113.8927274,21.6654544,92.62590972,17.63328649,23.97511796,20.66441577,20.1236558,19.9706746,19.39149484,18.14527656,15.98533716,14.62820237,18.74516109,26.31142807,27.84898846,28.12893417,28.20272714,29.14504538,29.16779001,27.95564941,27.07739093,7.950322636,11.69428553,16.31817922,16.10606538,16.8522731,18.34872752,18.58889605,17.50284626,15.03841012,7.677100472,11.91689015,14.24288378,14.4184555,14.68521604,15.7994256,15.9329094,14.92238151,13.51734692,0.852649763,1,1,1,1,1,1,0.996102814,40.4787595,-86.98982,2016,INH1
B73/PHZ51,NCH1_2015,Y,16.7,731.1212129,0,0,244.5,126.5,65,64,3.0140625,9.692856925,3.043308324,7.00027835,0,3.411347986,2.886716411,10.31533332,6.56176467,96.44999999,67.84999847,47.46470581,233.8535261,0,30.12176424,80.44058821,53.94764695,203.4147048,18.56641886,18.5514961,20.38733283,17.18369043,24.39251002,21.03629604,20.30189304,17.27178406,15.58503138,22.38312501,24.94999995,23.18034629,27.40244989,31.82117664,31.76743482,33.30845927,33.22968591,31.16039845,8.592187501,12.50999982,10.48535005,18.40286831,19.92058833,21.46261411,22.34001137,22.61282364,21.92468694,9.285127697,11.46773529,10.15801447,14.99239002,17.87088248,18.60652477,19.71826945,19.84422869,18.53531879,0.955334819,1,0.995809598,1,1,1,1,1,35.29657708,-77.5664625,2015,NCH1
F42/OH43,WIH1_2015,N,39.65,734.9827686,0,0,261,131,65,64,4.730000059,9.059999784,2.430610682,6.190059866,3.242812514,1.739310909,2.563222068,2.582604527,2.064862235,151.3600019,54.3599987,32.30062549,198.0887501,6.485625029,21.11437514,113.2525011,35.42937557,62.48000012,19.32367544,22.19104989,23.8972515,19.04105101,21.62804324,20.72553659,16.09255797,13.7227876,9.595561915,19.95718755,28.15000025,26.05326099,28.85932006,29.07385437,26.51056077,24.82739399,20.18089026,14.51549808,8.517187543,15.30499983,11.82802944,17.48783518,16.48010375,14.49615378,12.31509137,8.581945626,2.680440183,8.558350873,13.98301754,11.81015597,15.26183828,14.95581898,12.98753542,11.68123469,8.628108428,5.087550731,0.777276777,1,1,1,1,0.929186389,0.833919484,0.505939954,43.05511725,-89.528525,2015,WIH1
PHG29/PHG47,WIH2_2020,Y,20.45,731.1212129,1,3.5,257,133,66,65,1.142258063,7.375000167,3.772605813,4.528143625,15.91411821,3.015240613,2.848395651,6.559665308,3.073983535,35.40999997,73.75000167,42.96999988,163.850588,31.01764819,33.16764674,117.7699986,59.84176376,94.45823468,20.73953056,16.04352899,21.23354675,21.58093245,19.01370295,17.88573252,19.32013515,13.57540027,12.27254504,13.56999995,18.91099977,26.0938683,28.2322475,29.46647072,27.75422455,27.09322103,24.80509675,19.00189054,0.762580661,9.396999884,13.99892158,14.99589118,17.7452939,17.49807463,14.22893102,13.29211059,7.459399134,4.176897214,8.107987139,12.68677404,14.02444379,15.66411489,14.70790633,13.20588953,12.26960615,7.833960257,0.443168195,0.881928567,1,1,1,0.990384734,0.880973437,0.780679991,43.294786,-89.383968,2020,WIH2
B73/PHM49,GAH1_2019,N,16.01,730.5419795,0.5,0,205,92.5,61,60.5,4.224827643,1.980000006,1.908236784,2.106472486,0,0.090714284,5.691865924,1.473428559,3.045620547,122.5200016,17.82000005,22.37999977,72.04999958,0,0.725714275,156.5528547,7.367142797,92.8692846,16.4500471,17.48633936,17.40259385,20.9384506,22.51147406,21.84430948,17.66714436,19.76491442,19.71139218,21.20655165,22.58666695,26.81574745,29.5228407,35.04273814,35.70196446,32.62270198,33.62814315,33.36893722,7.214827602,8.595555623,14.04498416,14.47543411,19.21654783,20.58464301,20.89661115,21.78014287,21.253149,8.370628681,9.274220075,12.91642218,14.40044999,18.67726543,19.28313207,18.63395398,19.63555568,19.18049021,0.90216748,0.984365085,1,1,1,1,1,1,31.50582525,-83.55515025,2019,GAH1
LH198/PHZ51,IAH4_2017,Y,19.95,734.1246451,0,1.666666667,238.5,112.5,68.66666667,66.5,3.054193612,4.63857133,5.654282844,2.356146022,0.145000003,0.823262634,3.029939984,2.506485397,3.022032747,94.68000197,32.46999931,92.55000019,79.81000018,0.290000005,7.931363713,110.0431818,17.65818187,91.79227275,19.60434628,22.37855189,18.81628808,21.46940114,22.42332305,21.26952374,19.1513695,15.94205759,15.34138578,17.83935482,25.21428544,21.76755785,28.88340452,30.88984893,30.99338411,28.30609907,26.26622464,25.93438806,4.952580655,10.13999993,10.24708413,15.02150207,17.47128796,18.07608078,15.80662465,13.87026602,12.51354651,6.575243948,10.82301274,9.649960621,14.3656457,16.22810104,16.57398155,14.36597852,12.57546566,12.06214068,0.727396317,1,0.910082199,1,1,1,1,0.987168831,41.99455432,-93.69030947,2017,IAH4
PHB47/PHN82,OHH1_2016,N,17.3,749.7853988,0,3,246,120.5,65,64,4.328064465,1.776000023,3.915145208,2.580740659,3.890757626,4.17049496,5.079069289,3.957741935,3.614594814,134.1699984,8.880000114,44.70363614,85.9177286,9.330454675,39.94818193,160.1854537,27.69772666,110.1186362,18.3437644,22.24283047,20.73146956,20.35982518,19.15233416,18.82824642,16.72048491,17.98730955,14.71797893,19.63580645,29.63200035,26.56953589,28.59263588,29.59106055,30.69283836,29.21689182,28.27188687,26.30588322,8.120967747,16.89599972,14.9739129,16.70528562,18.30318191,19.74443426,18.9160149,15.44500838,13.40262461,8.117657052,15.32722009,13.17028057,14.81678154,15.96857054,17.23303236,16.11713161,14.21502474,12.5845871,0.859331788,1,1,1,1,1,0.999172078,0.989049277,39.860924,-83.6755995,2016,OHH1
2369/LH123HT,NYH2_2019,Y,19.55,730.4776202,0.5,6,238,124,70.5,70.5,3.722580618,3.873333404,3.775457026,3.802397661,4.637142726,4.204990808,3.398979968,2.823191607,3.703221173,115.3999992,34.86000064,60.3757139,137.1514286,9.274285453,51.14714244,162.2557133,52.58999984,112.9585706,17.9818517,20.79040337,20.47381334,20.12131004,17.75572211,20.43491569,15.89805393,11.9646884,8.550151526,16.21290321,21.91111098,21.50181499,26.85703989,26.63857151,27.37846155,23.54873757,18.10625893,13.03721199,5.322258069,10.30000003,10.29481231,15.55148496,16.86547597,15.01097073,12.10049902,6.865122249,3.164741908,6.134411308,9.414033746,9.284856483,13.53502553,13.97316997,13.53140509,10.78045964,7.367712917,4.9030616,0.665391704,1,0.983534167,1,1,0.983842121,0.777563161,0.485846779,42.73221403,-76.65248675,2019,NYH2
CG119/CG108,OHH1_2018,Y,14.85,749.1418061,0,1.5,210.5,96.5,51,48.5,3.056774178,9.537500136,1.922452157,2.385565957,3.342142727,1.8544286,3.625787622,3.100846839,2.007798001,94.75999951,76.30000108,21.73714328,80.43785755,3.342142727,18.544286,121.7649994,22.15357072,61.29071423,19.31095449,14.64635724,20.72885596,20.94366931,19.27592959,20.95649317,17.99811894,17.37176276,15.4204415,15.33419351,20.99500024,26.65036435,28.81994394,32.41071347,30.66092864,28.53085842,26.94730604,24.73435724,3.376129027,12.14624989,14.55931522,16.57316253,19.49428545,18.47499986,17.24720124,15.03980618,12.05347394,5.35712311,9.832246518,13.13485159,14.9051591,17.95401161,16.59941793,15.03822312,13.39555861,11.48513665,0.534285712,0.926785712,1,1,1,1,0.999125,0.970735544,39.85688825,-83.671225,2018,OHH1
PHN11_PHW65_0323/LH195,TXH1_2019,N,11.4,810.9266974,0,0,178,48,70,69,1.71448275,0.072857141,3.656594302,9.095434564,0.409285716,1.207678571,5.355850783,1.246142852,1.574419343,49.71999974,0.50999999,52.00785631,328.2121388,0.592857139,9.661428571,146.4478573,6.531428533,47.51499965,15.42805705,20.52131135,18.76898834,18.57032559,21.42349659,18.85281525,20.14881361,21.03072751,19.84089234,18.45000007,25.76428577,24.43254944,27.27586732,31.09000002,32.37866099,32.72435205,34.04471448,34.98200776,6.826206914,10.35000004,10.67963154,14.78766739,18.65857179,21.85071427,21.02442735,21.79614282,22.6049739,7.457816468,11.1589152,10.85119479,13.46630403,16.91193677,19.11412105,18.84765314,19.77807102,20.01419559,0.749667494,1,0.945308164,1,1,1,1,0.999698925,30.546318,-96.4329965,2019,TXH1
B73/TX779,TXH2_2020,Y,17.15,773.2765293,0,2,203.835,85.09,68.5,71,2.284333333,0,4.621906019,2.982124861,1.655000005,6.689114015,2.894056698,2.615892851,2.528400138,68.53,0,55.88714266,111.3664289,1.655000005,70.91857161,82.98143064,12.87071426,76.16571382,13.91343843,13.3863348,15.08661116,19.80328892,19.03358821,19.2160028,19.61198116,21.5690046,17.9190584,20.02266652,27.17999992,26.59088772,26.49063582,29.80749984,29.13094588,32.17534358,33.00407163,34.57616138,6.794333295,17.20400028,15.22554111,13.60666406,17.96904786,16.63267817,20.78659354,19.79317827,24.13923583,7.901247141,14.27292515,13.36557264,12.73068931,16.08957262,15.12192719,18.39831967,18.39239984,20.46927813,0.821357143,1,0.992404768,0.99375244,1,1,1,0.999043315,30.53825625,-96.42790225,2020,TXH2
B14A/H95,WIH2_2016,N,20.7,745.2802504,0,30.5,273.5,151,64.5,64.5,2.185483832,6.563333432,3.447094458,4.124693788,6.707159024,6.158880111,5.945293137,1.654273513,4.758742445,67.74999878,39.38000059,44.45545418,149.2718189,18.91272705,63.86318129,228.7613642,17.11772738,143.1609097,20.07161814,17.64681498,20.48120554,20.03716075,21.00097141,18.73971629,16.31911952,14.94670844,10.3303759,18.34677419,27.65666644,25.59626749,27.3504729,29.44640147,29.15349181,26.70938079,24.21329019,20.37268081,4.840000014,15.2516667,12.43660419,15.21846351,16.18390156,17.81047537,15.29826924,12.0891497,9.537770322,6.76617685,13.67923016,11.77429452,13.6256578,15.0809804,15.56950508,13.35737665,11.10536848,8.849967039,0.729688939,1,1,1,1,0.998061418,0.979766622,0.886131912,43.32649075,-89.33882925,2016,WIH2
TX714/TX779,DEH1_2020,N,24.325,680.2773961,0.375,0.375,260.625,150.875,70.125,68.625,3.884838689,2.918749928,0.484801506,3.712682555,3.963928495,10.54878945,3.680508849,4.08975176,5.319973187,120.4299994,23.34999943,5.74999997,113.1935704,6.565714155,94.92928366,102.5935729,23.16642891,164.6128593,19.34389959,17.33862388,21.23126246,20.37262205,20.84469896,18.13380163,16.82964191,15.50064315,15.14081803,17.43483888,21.1624999,25.02143811,29.01024665,32.25440507,31.30417669,31.95048154,29.3682824,28.21514964,6.792903194,12.85250008,15.40184434,18.86790491,21.28607132,21.93053571,22.84339264,21.06525136,19.30786859,6.86665098,10.04482466,12.64072343,16.02028347,18.72161765,18.60397455,19.32804006,17.22313801,15.91003144,0.79362904,0.982098209,1,1,1,1,1,1,38.628981,-75.46566025,2020,DEH1
B14A/H95,ILH1_2019,Y,18.7,818.0062162,0,0,232.5,138,63.5,62,3.922903261,5.481666605,1.00366755,4.244691953,0.864761892,1.289377346,1.227411081,2.864647074,2.116070648,121.6100011,32.88999963,10.01785682,147.0385723,1.34571428,11.77428573,45.42428628,20.70571404,64.49999962,18.80145381,19.65322081,22.67392072,19.84274881,20.61125065,20.0231267,19.28032854,15.59344345,14.97056188,19.78774188,27.49499989,27.66771062,28.39175175,31.90428638,30.86753304,28.53869606,27.75133519,26.64299619,8.822580737,16.11666648,15.73801632,17.44140675,20.6435711,19.81749468,16.71837596,16.74759351,14.38373492,8.392897398,14.01107102,13.933587,15.08804109,18.28423173,17.40393302,14.78980986,14.45116262,13.1086535,0.871382484,1,1,1,1,1,1,0.979387755,40.0587105,-88.2298385,2019,ILH1
B37/H95,WIH2_2015,Y,39.8,833.452439,0,0,261,150.5,65,64,3.126774188,2.655000041,4.103605878,5.336067251,1.868823528,3.142847566,3.066358713,6.463272165,3.426278957,96.92999983,15.93000025,53.58117651,186.0694135,5.435882344,36.03705852,132.4747064,52.80117733,103.4994124,19.63646212,20.57311455,21.5892617,21.07111177,18.36300238,19.20517036,18.54583572,13.68038168,11.37476292,15.6409678,24.97666677,26.11823115,28.09529077,27.51588227,27.91298604,26.4469062,23.95331443,17.63645543,3.355806466,13.62666686,13.88922494,15.17788174,17.2276475,16.92946091,13.73434519,12.63733902,6.343913375,5.370860554,11.93138906,12.65256426,14.04290221,14.43586033,14.57588984,12.76646014,11.49482956,7.023163717,0.588214292,1,1,1,1,0.979783322,0.914260835,0.715230077,43.3264485,-89.33359975,2015,WIH2
PB80/PHZ51,MIH1_2017,Y,24.45,681.5645814,0,6,109,53,67.5,68.5,2.651290334,1.642500043,0.365195355,3.685889798,0.022982455,0.462972321,1.745768067,1.924198947,6.215848807,82.19000036,13.14000034,4.417894763,131.6678931,0.068947365,5.871578781,77.40789432,25.15789459,187.919471,20.75480046,19.52619267,24.47429891,19.89055103,21.94334328,22.12060477,17.47908742,14.76431364,9.641321864,18.99677434,22.1187501,26.44652255,27.49693157,27.7329823,27.82492569,25.37386911,24.10071042,20.63989867,5.961290348,11.91874993,11.36318641,16.0503933,16.08877179,14.96255052,12.27657104,9.93890341,8.936309075,7.303217139,10.01258026,11.86785018,14.06113521,14.11607898,13.75096176,11.67659513,10.59348898,9.148775778,0.770126733,1,1,1,1,0.999072621,0.949278334,0.816440377,42.68116575,-84.49434125,2017,MIH1
CG108/CGR03,ONH1_2015,Y,23.95,706.6646934,0,0,217.5,117.5,77.5,77.5,1.605625002,2.296315821,1.411426091,1.973297954,0.512941169,3.436769168,2.641035405,1.799953816,2.360571209,51.38000005,43.63000059,20.30117703,73.50294104,0.81882352,40.73352947,103.9364728,19.58470627,71.14882509,18.02169462,20.4737019,23.34007091,22.64543997,20.24065375,18.07254412,18.60447299,14.22755231,12.21920895,9.771562532,12.63473691,23.7578119,26.83441686,29.90941261,27.46928249,26.11972075,22.82201755,18.35250846,-0.327500018,2.045263152,11.01347606,13.31919887,17.43313718,16.50329302,14.06775752,11.69572195,7.013714688,2.851211725,4.201400589,10.67713105,12.77399982,15.76589753,14.15032606,12.63577386,10.48249806,7.379159901,0.167098218,0.403345874,0.957007131,0.991950294,1,0.994472794,0.939113043,0.772366561,43.49741975,-80.44806025,2015,ONH1
B73/MO17,DEH1_2015,Y,19.9,727.9032498,0,0.5,261.5,138,65,63,2.877187484,6.848000002,1.658122271,2.899811139,0.533124998,6.398055441,4.542065261,4.666333417,5.694818618,92.06999949,68.48000002,26.86312445,94.40374921,0.778750002,57.58249897,115.8581242,26.73625046,176.5393772,18.09789148,17.20138936,20.11151884,21.0089777,21.53492481,19.24730516,17.70191113,15.05628078,15.14846735,16.82656264,19.24400005,20.72376954,27.68890342,31.56656283,31.86354174,32.09465687,30.43364003,29.09395151,6.265937505,9.858999991,10.7453803,17.67876376,20.38750017,21.35659703,22.77220607,22.28250884,20.56647162,6.521960329,8.412914767,9.229957748,14.85993723,17.9770315,18.58170739,19.36170697,18.35807444,16.86736745,0.750435273,0.870857151,0.962682184,1,1,1,1,1,38.62935675,-75.4656925,2015,DEH1
PHG39/PHN82,ARH1_2017,N,17.7,731.1212129,0,2,229,110,65,64,3.058125025,3.532857077,9.871688678,6.405160528,0.516363615,5.988171668,5.119232493,3.102318153,5.34158356,97.86000079,24.72999954,132.0327285,211.6218184,0.569545432,54.36818138,136.8913653,16.08272713,165.5890903,17.13974981,16.55343887,20.38424011,18.76225527,22.81364793,19.06964508,19.53553475,19.77193111,17.12972935,24.60906261,23.96000045,24.77057006,28.06605652,30.35469691,31.5146664,31.30577636,32.78459133,30.91587993,11.9175,14.17857156,11.8445801,17.60850246,18.97249995,21.30615642,21.39979275,22.50533316,21.62237538,11.1639709,11.77578055,11.22655186,14.97537354,16.74359516,18.41041141,18.33049426,19.54768126,18.22457608,1,1,1,1,1,1,1,1,34.7272515,-90.76032575,2017,ARH1
F42/MO17,NCH1_2017,N,15.15,731.1212129,0.5,7,222,104,65,64,5.929354779,4.097142833,0.297958702,3.860588722,6.673809642,5.437090039,2.513672686,1.67758051,4.140460835,183.8099982,28.67999983,4.023333254,115.8195228,10.90952401,51.84571517,65.15761944,9.68857149,128.3542859,16.84796118,19.66078799,22.20077414,19.20396089,15.77249108,20.54839894,18.7994723,19.26606379,16.40835168,26.07000006,23.57857159,28.17011276,29.72614366,31.01404729,30.48814813,32.54721675,31.95695904,30.43138246,13.64064524,11.25142826,15.69757802,18.87536398,22.57674573,19.84793622,22.28039625,21.2748593,20.81350234,12.56442422,10.48784987,14.26665949,16.36044911,18.79940835,17.21144066,19.38557496,18.57336573,17.65269876,0.998329492,1,1,1,1,1,1,1,35.29663725,-77.5668065,2017,NCH1
B14A/OH43,WIH2_2017,N,24.4,688.0005075,0,2,270,138,77.5,78.5,5.048709616,4.636666616,1.142383575,5.763857885,8.001590729,6.160048604,1.607776433,1.167726513,2.257555268,156.5099981,41.72999954,17.5799998,219.3963643,12.14409065,74.04090792,72.28863683,15.04409093,68.0204557,18.1690344,19.72049554,20.64727683,20.23287988,19.13163679,19.37493243,18.51401576,14.93340477,10.89478233,16.03129027,21.86555545,22.15746071,26.59689143,27.90045501,26.76799254,24.73062069,22.38533393,20.51274781,3.24419354,8.791111098,9.553497601,14.54337319,16.81037892,15.37831158,12.19271258,9.193202486,7.868866577,5.438218202,9.209131236,9.451203107,13.05708411,14.51682301,13.37610723,11.31306373,9.686333754,8.853113959,0.624158991,0.847976183,0.950288768,1,1,0.998699911,0.954544862,0.834596302,43.3246415,-89.33688775,2017,WIH2
TX714/PHZ51,NYH2_2020,Y,17.7,731.1212129,0,0,249,136,65,64,4.422257993,0,1.391731236,3.182357247,6.170888774,3.507901041,2.283490724,1.426918664,2.172175634,137.0899978,0,18.68266731,113.2706661,12.6093331,36.98266699,88.46933366,18.14666667,65.61600019,20.94267544,21.78244971,21.55666085,20.64321436,19.27786447,18.92984529,17.76882093,13.77968924,11.70490539,14.55447306,27.94977782,23.62933928,27.86541297,27.88688897,28.78672537,26.53302948,21.56675493,18.20507674,2.61195699,15.66431106,11.35573055,15.51025755,16.31100023,17.48208292,14.53826355,10.86377734,6.879177126,4.979415324,14.02697238,10.70801105,14.09392345,14.22879085,15.20067311,13.04971037,9.749522427,7.387680802,0.470065285,1,0.969822941,0.995242037,1,0.988859641,0.904446401,0.765938608,42.73230075,-76.65036275,2020,NYH2
PHW52/PHN82,TXH2_2020,N,16.975,779.0688628,0,2,208.28,62.865,67,69,2.284333333,0,4.621906019,2.982124861,1.655000005,6.689114015,2.894056698,2.615892851,2.528400138,68.53,0,55.88714266,111.3664289,1.655000005,70.91857161,82.98143064,12.87071426,76.16571382,13.91343843,13.3863348,15.08661116,19.80328892,19.03358821,19.2160028,19.61198116,21.5690046,17.9190584,20.02266652,27.17999992,26.59088772,26.49063582,29.80749984,29.13094588,32.17534358,33.00407163,34.57616138,6.794333295,17.20400028,15.22554111,13.60666406,17.96904786,16.63267817,20.78659354,19.79317827,24.13923583,7.901247141,14.27292515,13.36557264,12.73068931,16.08957262,15.12192719,18.39831967,18.39239984,20.46927813,0.821357143,1,0.992404768,0.99375244,1,1,1,0.999043315,30.53825625,-96.42790225,2020,TXH2
B37/H95,WIH1_2015,Y,37.55,810.2831048,0,0,274.5,157.5,65,64,4.730000059,9.059999784,2.430610682,6.190059866,3.242812514,1.739310909,2.563222068,2.582604527,2.064862235,151.3600019,54.3599987,32.30062549,198.0887501,6.485625029,21.11437514,113.2525011,35.42937557,62.48000012,19.32367544,22.19104989,23.8972515,19.04105101,21.62804324,20.72553659,16.09255797,13.7227876,9.595561915,19.95718755,28.15000025,26.05326099,28.85932006,29.07385437,26.51056077,24.82739399,20.18089026,14.51549808,8.517187543,15.30499983,11.82802944,17.48783518,16.48010375,14.49615378,12.31509137,8.581945626,2.680440183,8.558350873,13.98301754,11.81015597,15.26183828,14.95581898,12.98753542,11.68123469,8.628108428,5.087550731,0.777276777,1,1,1,1,0.929186389,0.833919484,0.505939954,43.05511725,-89.528525,2015,WIH1
F42/MO17,COH1_2017,N,28.575,612.0565787,4.25,12.5,237.25,115.25,74,70.75,3.393124943,0,0.001708684,0.360843908,0.891428554,3.560382097,1.42287895,1.565670675,1.770870451,108.5799982,0,0.02904762,12.29476177,1.600476163,43.78523833,56.48285717,21.02523811,53.20285701,22.26802993,25.65694836,25.9931063,24.2875628,21.26982858,19.37652668,19.65631787,15.92591012,11.99136935,20.38624986,26.27857154,29.00990249,30.95750085,32.84396765,29.24597739,27.87075516,24.49812031,17.64004964,4.676250031,9.955714362,11.44166305,13.33492254,15.64190474,14.2894836,11.55992968,8.650869984,2.505724526,7.387813889,11.22152513,12.97827389,14.53136664,16.23032426,14.11586508,12.58015619,10.40568176,6.007000116,0.859799101,1,1,1,1,0.978368119,0.882220332,0.653649732,40.64850025,-104.9997825,2017,COH1
CG108/CGR03,GAH2_2016,N,11.9,731.1212129,0,2,223,182.5,46,45.5,1.486129045,0,7.316392826,2.079782856,1.718421064,1.264671045,2.43256314,4.61773679,3.235456168,46.07000041,0,60.50999928,55.97210474,3.436842128,10.11736836,67.31736801,23.15894711,100.2847377,20.21189387,22.87583466,19.10112302,21.34036575,17.85876091,19.83818451,18.50479945,15.9975398,17.29687983,27.80677426,30.50400009,32.06010812,34.2138269,34.93842035,34.86282896,34.62455114,33.33373696,32.80003392,13.8351613,16.55600014,19.35906305,20.32019684,22.9621054,21.76434208,22.04984942,22.29670187,20.14649938,13.32566871,15.60302283,17.72531793,18.78372546,20.36638125,19.89190838,19.9091667,19.70080105,18.42340329,1,1,1,1,1,1,1,1,33.717295,-83.3110275,2016,GAH2
PHG39/PHN82,TXH1-Dry_2018,N,9.8,755.5777323,0,2,232.5,75,74,73,2.442333295,0.87833333,4.91741256,2.91095925,1.112321411,5.987347663,3.094033648,2.445309502,2.573656677,73.26999886,5.269999981,55.2178573,113.3721426,4.449285643,64.36357035,86.72785865,13.67714274,77.357857,13.4988633,14.49154552,13.92485348,19.6618496,19.390827,19.64184359,19.38410293,21.21373351,18.01258323,19.68933331,26.95833333,25.66614373,26.56996845,30.24238085,29.14372996,31.91805433,33.2644762,34.51160554,6.357666679,15.03999996,15.13755815,13.69055459,18.24071415,16.44843436,20.63070323,20.50154739,23.97494014,7.613570572,13.40715604,12.87528071,12.79536137,16.34410207,15.0664779,18.21233438,18.75919739,20.40606275,0.821476194,1,0.991620595,0.99408643,1,1,1,0.999013392,30.546318,-96.4329965,2018,TXH1-Dry
F42/MO17,NYH1_2017,N,18.75,731.1212129,0,4,224.5,110,81.5,77,4.758709581,4.139999986,2.953024942,5.715506232,4.320872878,2.701732063,2.616328443,1.022630585,3.614268439,147.519997,37.25999987,45.12618999,219.9223815,11.26857107,35.6957141,128.4247627,13.30476207,110.8900009,18.97444351,17.81005277,22.0763727,19.38397475,18.56141379,19.22534974,16.71382568,13.43506643,9.037548332,17.06967752,20.23333359,22.7745171,25.66488699,26.70396817,25.32691524,23.26007272,23.96840526,17.61119819,5.964193534,10.19,10.93717632,15.20362294,16.36293638,14.60656728,11.31793404,11.56685323,6.669544781,6.641127344,8.727253675,10.15270493,12.79474615,13.71935226,12.37567782,10.45035179,10.9124923,7.239151369,0.685760371,1,1,1,1,0.982493678,0.953634339,0.701363064,42.72880835,-76.6515625,2017,NYH1
LH198/PHZ51,NCH1_2016,N,14.6,731.1212129,0.5,6.5,239.5,138,65,64,2.901562452,3.125714166,7.137907935,4.683034439,4.3177271,0.863030289,5.226283407,5.104181825,4.507668668,92.84999847,21.87999916,91.86318315,160.7736342,8.497726928,8.495454409,139.9318182,26.12772732,139.7377287,16.36857818,22.27138465,15.49498623,18.72849078,21.8793198,21.8664799,18.529992,18.05675722,17.32656161,20.86125001,25.58571407,25.68946269,27.1054564,30.20318166,31.0559697,32.42423852,33.59766701,33.26035177,7.692187494,8.212857212,14.27003911,16.07300028,18.02681784,18.80169681,21.2796372,22.62190931,22.7218182,8.383421821,10.43985322,12.46468669,13.95599298,16.17160042,16.99727481,18.83160592,19.980567,19.86697781,0.913761163,1,1,1,1,1,1,1,35.30015175,-77.57127825,2016,NCH1
PHB47/PHZ51,IAH4_2017,Y,18.25,738.522528,4.875,3.125,237.25,111.625,68.375,66.75,3.054193612,4.63857133,5.654282844,2.356146022,0.145000003,0.823262634,3.029939984,2.506485397,3.022032747,94.68000197,32.46999931,92.55000019,79.81000018,0.290000005,7.931363713,110.0431818,17.65818187,91.79227275,19.60434628,22.37855189,18.81628808,21.46940114,22.42332305,21.26952374,19.1513695,15.94205759,15.34138578,17.83935482,25.21428544,21.76755785,28.88340452,30.88984893,30.99338411,28.30609907,26.26622464,25.93438806,4.952580655,10.13999993,10.24708413,15.02150207,17.47128796,18.07608078,15.80662465,13.87026602,12.51354651,6.575243948,10.82301274,9.649960621,14.3656457,16.22810104,16.57398155,14.36597852,12.57546566,12.06214068,0.727396317,1,0.910082199,1,1,1,1,0.987168831,41.99455432,-93.69030947,2017,IAH4
B14A/MO17,WIH3_2020,Y,21.2,657.1080619,0.25,2.25,271.5,150.75,68.75,67,2.733870995,5.446666638,6.112394342,4.74655674,3.655208389,1.04360979,2.527373572,3.69928986,2.61452892,84.75000083,32.67999983,82.9068754,167.6149986,8.003125131,12.58312517,113.8450009,40.74312496,78.93437568,20.41919384,18.2775027,21.33639865,20.40337995,19.49413761,18.99324058,17.80850823,14.15156863,10.1168501,15.48354838,26.52499994,25.39100386,27.30541678,28.00124967,27.24401428,25.77617537,21.78088819,14.67245705,3.106129019,15.18500026,12.31273591,15.12317531,16.14624966,16.31340126,13.17330579,9.92591724,4.431311843,5.287102842,13.2823578,11.70416503,13.61992535,14.28505882,13.97808988,12.29059579,9.657643491,5.630137727,0.571854837,1,1,1,1,0.965668942,0.879609054,0.560799012,44.115703,-89.54491325,2020,WIH3
LH195/LH82,SDH1_2015,N,18.9,603.6898747,0,0.5,146,67,74,73,1.890000034,2.68444448,2.847212523,0.928406021,1.08916667,1.213193166,1.12388612,3.994558873,0.570569385,58.59000105,24.16000032,33.86000057,31.14874977,1.720000006,12.77624983,39.02562428,27.90249949,17.65812508,21.16446504,23.3864585,24.03054242,23.94878495,21.74335716,21.42490048,20.60212775,16.27746828,15.18579983,19.04290341,22.5888888,27.20826416,30.46229654,29.54760476,31.86073879,31.47770382,29.48664523,24.89733582,4.208709664,8.468888919,11.69082143,14.25969647,14.29062517,16.06534098,14.02269822,14.11578116,6.942900096,6.807516906,9.210660666,12.27390437,14.67606113,14.18888263,15.81431879,15.00552731,14.17539039,9.834808296,0.77025346,0.983690483,1,1,1,0.983472358,0.961069402,0.950039755,44.208745,-102.928745,2015,SDH1
TX777/LH195,MOH2_2015,N,15.55,731.1212129,0,1.5,232.5,132.5,76.5,74,3.914838722,3.534545422,2.891676029,5.446623968,2.505882375,1.1137255,5.068586465,0.980448186,4.011119538,121.3600004,38.87999964,35.23176398,173.6929392,5.011764751,10.0235295,148.9223525,6.487058864,124.3447057,19.08701148,18.12534948,17.16717858,21.59629129,16.88945411,20.34516158,18.32895435,19.90608894,16.95494386,18.756129,18.24727275,23.87322904,29.02836507,30.59176479,31.93248319,30.27285599,28.73220747,28.34062618,6.152580692,8.059091026,15.30129973,17.80114352,21.94705907,21.39261428,20.17023127,17.40519331,17.20941189,7.288196993,7.58478923,12.05891064,15.51775091,18.26941193,18.66254873,17.2518739,15.21359182,14.97078901,0.75554147,0.814935086,1,1,1,1,1,1,38.89807917,-92.2079,2015,MOH2
LH212HT/LH195,SDH1_2015,N,25.75,597.2539485,0,0.5,160.5,77,75,75,1.890000034,2.68444448,2.847212523,0.928406021,1.08916667,1.213193166,1.12388612,3.994558873,0.570569385,58.59000105,24.16000032,33.86000057,31.14874977,1.720000006,12.77624983,39.02562428,27.90249949,17.65812508,21.16446504,23.3864585,24.03054242,23.94878495,21.74335716,21.42490048,20.60212775,16.27746828,15.18579983,19.04290341,22.5888888,27.20826416,30.46229654,29.54760476,31.86073879,31.47770382,29.48664523,24.89733582,4.208709664,8.468888919,11.69082143,14.25969647,14.29062517,16.06534098,14.02269822,14.11578116,6.942900096,6.807516906,9.210660666,12.27390437,14.67606113,14.18888263,15.81431879,15.00552731,14.17539039,9.834808296,0.77025346,0.983690483,1,1,1,0.983472358,0.961069402,0.950039755,44.208745,-102.928745,2015,SDH1
B73/MO17,MIH1_2019,Y,25,699.5851746,2,15,251.5,139,70,69,3.720322615,6.189999878,7.0818969,2.961916884,8.70871786,0.913986013,1.817216317,4.468053866,4.013250907,115.3300011,49.51999903,106.8900002,93.8269235,16.81999984,10.80615383,84.36076873,63.3192304,120.886153,19.31986936,19.65939665,18.51979106,21.00444556,17.01540622,20.04742627,16.96863927,12.02893287,10.87568864,17.60709666,21.67250037,22.690749,28.9340566,30.56538516,27.94921954,26.00654686,21.50260694,17.46530245,6.210322559,10.31875008,12.21847794,16.86604701,18.743333,15.85306519,14.00590995,11.32576155,7.161163464,6.876773896,9.314382636,10.39761731,15.10453275,16.86261297,14.19391073,12.58553183,10.00606366,7.511656803,0.696382483,1,0.995173883,1,1,0.988904737,0.895422602,0.709438731,42.70789125,-84.4706665,2019,MIH1
B37/OH43,GAH1_2018,Y,14.91,731.9578833,0,2,212.5,112.5,59.5,58,4.231249915,1.934999943,5.575464231,3.801027214,1.067857163,3.256190501,3.932246866,3.816857059,2.685023025,135.3999973,11.60999966,76.79571342,135.0185695,1.516428607,29.30571451,107.1921429,19.08428529,83.23571379,16.89130574,18.83037901,19.9789379,20.32622599,17.16636637,17.47509449,19.98058203,18.77657547,18.35496912,25.6268748,28.56500022,25.46428012,27.96417186,30.5753573,30.54857133,31.9994497,33.07128549,33.68336431,12.70062498,14.46999963,11.35988473,14.27301998,20.47928579,20.42444427,20.68398901,21.82542842,22.30905548,11.99291119,13.91639365,11.33534042,13.63652225,17.52732154,17.4865078,18.33967815,19.36985553,19.8838857,0.988973219,1,1,1,1,1,1,1,31.50582525,-83.55515025,2018,GAH1
B73/PHN82,NYH3_2020,N,14.55,746.5674357,0,4.5,229.5,107,67,66.5,4.422257993,0,1.373865683,3.203515064,6.161458224,3.578657229,2.247619776,1.339995863,2.270768823,137.0899978,0,18.69000064,113.6731244,12.19749978,37.86125033,87.74812532,17.041875,68.54562519,20.94560956,21.78233427,21.55267425,20.63825651,19.18147684,18.87690393,17.75633085,13.93943947,11.5316014,14.59225801,27.97729172,23.60945411,27.89842024,28.17958339,28.76829368,26.51617347,21.47489044,18.12990527,2.644717742,15.68266662,11.3508871,15.53912014,16.43281273,17.50013456,14.53010818,10.52921434,6.891416056,5.000434995,14.04753459,10.70035646,14.11697706,14.42792892,15.19886376,13.03509367,9.604727821,7.356101809,0.471947005,1,0.969562211,0.99553941,1,0.989555914,0.903066166,0.764418635,42.73227475,-76.6513705,2020,NYH3
F42/OH43,DEH1_2019,Y,20.875,703.4467303,0,4,235.75,114,58.25,56.75,4.885483834,0.129999995,2.22754366,2.838879743,7.092619056,13.09007943,2.376059147,7.246095167,5.291338731,151.4499989,1.169999957,29.41999924,87.75142762,13.32785715,117.8107149,70.17642808,38.82285679,163.7607149,18.09422633,22.52754413,19.09832956,21.10549391,16.87992425,18.38683534,17.43790908,14.47643482,15.18822094,17.49129031,20.55777783,23.08374535,28.61102885,30.70333358,31.53571423,31.96636291,30.10673826,28.44137569,7.04516129,9.184444467,14.30050877,18.34149326,20.74333359,21.70119062,22.68293302,22.03347627,19.57253904,6.992168387,8.735510177,11.41430501,15.6056687,17.71122979,18.59296506,19.259015,18.07354239,16.13042035,0.769815656,0.948412699,0.988507504,1,1,1,1,1,38.670675,-75.433225,2019,DEH1
LH212HT/LH195,IAH4_2017,Y,22.05,714.3878048,11.5,2,235,116,73.5,71,3.054193612,4.63857133,5.654282844,2.356146022,0.145000003,0.823262634,3.029939984,2.506485397,3.022032747,94.68000197,32.46999931,92.55000019,79.81000018,0.290000005,7.931363713,110.0431818,17.65818187,91.79227275,19.60434628,22.37855189,18.81628808,21.46940114,22.42332305,21.26952374,19.1513695,15.94205759,15.34138578,17.83935482,25.21428544,21.76755785,28.88340452,30.88984893,30.99338411,28.30609907,26.26622464,25.93438806,4.952580655,10.13999993,10.24708413,15.02150207,17.47128796,18.07608078,15.80662465,13.87026602,12.51354651,6.575243948,10.82301274,9.649960621,14.3656457,16.22810104,16.57398155,14.36597852,12.57546566,12.06214068,0.727396317,1,0.910082199,1,1,1,1,0.987168831,41.99455432,-93.69030947,2017,IAH4
PHG29/PHG47,WIH2_2017,Y,18.65,798.054845,0,2,236.5,118.5,73,73,5.048709616,4.636666616,1.142383575,5.763857885,8.001590729,6.160048604,1.607776433,1.167726513,2.257555268,156.5099981,41.72999954,17.5799998,219.3963643,12.14409065,74.04090792,72.28863683,15.04409093,68.0204557,18.1690344,19.72049554,20.64727683,20.23287988,19.13163679,19.37493243,18.51401576,14.93340477,10.89478233,16.03129027,21.86555545,22.15746071,26.59689143,27.90045501,26.76799254,24.73062069,22.38533393,20.51274781,3.24419354,8.791111098,9.553497601,14.54337319,16.81037892,15.37831158,12.19271258,9.193202486,7.868866577,5.438218202,9.209131236,9.451203107,13.05708411,14.51682301,13.37610723,11.31306373,9.686333754,8.853113959,0.624158991,0.847976183,0.950288768,1,1,0.998699911,0.954544862,0.834596302,43.3246415,-89.33688775,2017,WIH2
B73/PHM49,MIH1_2019,Y,19.25,745.2802504,0.5,5.5,214.5,105.25,64.5,63.5,3.720322615,6.189999878,7.0818969,2.961916884,8.70871786,0.913986013,1.817216317,4.468053866,4.013250907,115.3300011,49.51999903,106.8900002,93.8269235,16.81999984,10.80615383,84.36076873,63.3192304,120.886153,19.31986936,19.65939665,18.51979106,21.00444556,17.01540622,20.04742627,16.96863927,12.02893287,10.87568864,17.60709666,21.67250037,22.690749,28.9340566,30.56538516,27.94921954,26.00654686,21.50260694,17.46530245,6.210322559,10.31875008,12.21847794,16.86604701,18.743333,15.85306519,14.00590995,11.32576155,7.161163464,6.876773896,9.314382636,10.39761731,15.10453275,16.86261297,14.19391073,12.58553183,10.00606366,7.511656803,0.696382483,1,0.995173883,1,1,0.988904737,0.895422602,0.709438731,42.70789125,-84.4706665,2019,MIH1
W10001_0022/PHB47,NYH1_2017,Y,17.7,731.1212129,0,2,229,110,65,64,4.758709581,4.139999986,2.953024942,5.715506232,4.320872878,2.701732063,2.616328443,1.022630585,3.614268439,147.519997,37.25999987,45.12618999,219.9223815,11.26857107,35.6957141,128.4247627,13.30476207,110.8900009,18.97444351,17.81005277,22.0763727,19.38397475,18.56141379,19.22534974,16.71382568,13.43506643,9.037548332,17.06967752,20.23333359,22.7745171,25.66488699,26.70396817,25.32691524,23.26007272,23.96840526,17.61119819,5.964193534,10.19,10.93717632,15.20362294,16.36293638,14.60656728,11.31793404,11.56685323,6.669544781,6.641127344,8.727253675,10.15270493,12.79474615,13.71935226,12.37567782,10.45035179,10.9124923,7.239151369,0.685760371,1,1,1,1,0.982493678,0.953634339,0.701363064,42.72880835,-76.6515625,2017,NYH1
F42/MO17,ILH1_2016,N,14.15,733.6955833,0,1.5,289,163,75,74,2.976905237,4.388409027,2.266536067,5.61207631,2.384848472,3.596551307,3.312350719,4.357499975,4.793790319,93.71999985,46.35499933,33.46068128,180.4177266,4.628863606,41.73386359,104.1413657,28.32431801,148.2020453,18.82488241,16.77241452,21.32061235,20.18653607,20.74234538,18.07981042,18.8666989,17.85818253,16.07680721,18.05081144,19.20204525,23.0422997,29.42292662,27.90308728,26.97317812,29.60218573,29.15938829,28.17592877,4.960040295,8.531272602,10.4507586,17.10049505,15.99717794,16.84881478,19.41054858,18.84383108,17.09740687,6.781235125,7.969267807,10.17119166,15.41614171,14.29579798,14.15384892,16.51995977,16.04951253,14.84458937,0.666766271,0.897956159,0.946860721,1,1,1,1,0.999883117,40.0607245,-88.2338815,2016,ILH1
CG44/CGR01,NYH3_2019,Y,19.7,767.805992,0.5,2.5,219.5,102.5,67,66.5,3.722580618,3.873333404,3.769554008,3.757958966,6.56821411,3.88506864,3.604603585,1.929858492,3.709694332,115.3999992,34.86000064,61.04857108,135.2235714,13.13642822,47.6607138,172.5314276,35.27499978,112.0914282,17.9818517,20.79040337,20.53458356,20.20586531,15.56107187,20.47665645,15.7702462,13.42945136,8.802352299,16.21290321,21.91111098,21.5613082,26.8770008,26.27928579,27.19863099,23.33754175,19.77308355,13.39834902,5.322258069,10.30000003,10.31609792,15.50927174,17.62488075,14.92700095,12.00041282,8.027538821,3.378330702,6.134411308,9.414033746,9.318517767,13.52970479,14.11503311,13.40897889,10.69134109,8.327220554,5.109082433,0.665391704,1,0.983452189,1,1,0.970435943,0.837841689,0.510564168,42.7321756,-76.65345463,2019,NYH3
PB80/PHZ51,COH1_2017,N,32.15,637.1566908,3,6.25,237.25,111.25,75.75,74.25,3.393124943,0,0.001708684,0.360843908,0.891428554,3.560382097,1.42287895,1.565670675,1.770870451,108.5799982,0,0.02904762,12.29476177,1.600476163,43.78523833,56.48285717,21.02523811,53.20285701,22.26802993,25.65694836,25.9931063,24.2875628,21.26982858,19.37652668,19.65631787,15.92591012,11.99136935,20.38624986,26.27857154,29.00990249,30.95750085,32.84396765,29.24597739,27.87075516,24.49812031,17.64004964,4.676250031,9.955714362,11.44166305,13.33492254,15.64190474,14.2894836,11.55992968,8.650869984,2.505724526,7.387813889,11.22152513,12.97827389,14.53136664,16.23032426,14.11586508,12.58015619,10.40568176,6.007000116,0.859799101,1,1,1,1,0.978368119,0.882220332,0.653649732,40.64850025,-104.9997825,2017,COH1
B73/PHM49,NEH2_2018,Y,14.85,768.4495847,0,2,296.5,121.5,65,64,1.223548393,0.707272736,4.763911635,2.422660693,9.359230876,1.187769238,2.22139935,1.060615372,2.655643509,37.93000019,7.780000091,61.58923048,72.52538565,18.71846175,11.03461544,72.02230704,6.795384554,82.07230774,19.8632896,17.86074517,17.24350838,22.63499015,18.62862352,21.21286184,19.62237806,18.45252819,16.56870138,17.6919355,17.47909086,23.04657186,30.81178887,30.82346183,31.15499996,29.41523597,30.138927,26.57117624,3.026129,6.979090886,13.86801705,18.31582591,19.94076905,19.05673485,17.52505525,17.69200753,12.69636803,6.275299993,6.965919572,11.10889174,16.66188215,17.38211544,17.1119836,15.61857368,16.09025205,12.68735507,0.68033411,0.762240243,1,1,1,0.996687975,0.997695055,0.910447978,41.38042275,-96.55988375,2018,NEH2
PHG39/PHN82,TXH1_2019,N,12.42,867.0801532,0,0,179,43.5,69.5,68.5,1.71448275,0.072857141,3.656594302,9.095434564,0.409285716,1.207678571,5.355850783,1.246142852,1.574419343,49.71999974,0.50999999,52.00785631,328.2121388,0.592857139,9.661428571,146.4478573,6.531428533,47.51499965,15.42805705,20.52131135,18.76898834,18.57032559,21.42349659,18.85281525,20.14881361,21.03072751,19.84089234,18.45000007,25.76428577,24.43254944,27.27586732,31.09000002,32.37866099,32.72435205,34.04471448,34.98200776,6.826206914,10.35000004,10.67963154,14.78766739,18.65857179,21.85071427,21.02442735,21.79614282,22.6049739,7.457816468,11.1589152,10.85119479,13.46630403,16.91193677,19.11412105,18.84765314,19.77807102,20.01419559,0.749667494,1,0.945308164,1,1,1,1,0.999698925,30.546318,-96.4329965,2019,TXH1
PHW52/PHM49,COH1_2017,N,37.875,573.762818,0,3.25,223.25,95.5,77.5,76.5,3.393124943,0,0.001708684,0.360843908,0.891428554,3.560382097,1.42287895,1.565670675,1.770870451,108.5799982,0,0.02904762,12.29476177,1.600476163,43.78523833,56.48285717,21.02523811,53.20285701,22.26802993,25.65694836,25.9931063,24.2875628,21.26982858,19.37652668,19.65631787,15.92591012,11.99136935,20.38624986,26.27857154,29.00990249,30.95750085,32.84396765,29.24597739,27.87075516,24.49812031,17.64004964,4.676250031,9.955714362,11.44166305,13.33492254,15.64190474,14.2894836,11.55992968,8.650869984,2.505724526,7.387813889,11.22152513,12.97827389,14.53136664,16.23032426,14.11586508,12.58015619,10.40568176,6.007000116,0.859799101,1,1,1,1,0.978368119,0.882220332,0.653649732,40.64850025,-104.9997825,2017,COH1
LH74/PHN82,MIH1_2016,N,20.05,695.0800263,0,2.5,208.5,111.5,61,60.5,3.213870927,0.372000003,1.277668238,2.072144594,0.204761899,2.382636341,6.277866916,3.129595251,4.115734243,99.62999874,1.860000014,16.77857134,74.4033328,0.614285696,24.34142835,217.3680916,23.88571438,123.5814282,20.04481233,22.69628944,22.57460654,21.19066928,19.62511718,19.41470496,17.43536011,14.16523572,12.41239439,17.74322581,29.20999985,25.57947765,28.1508514,27.23547651,30.32783564,28.27294529,26.6388532,22.50219404,5.299677434,16.33600006,11.90361174,14.70447611,15.74579377,17.52671,16.25511672,15.58650841,10.86825081,6.615827776,14.89908974,11.62365975,13.82943527,13.70908531,16.01583991,14.48649579,13.48265,10.09129455,0.734400922,1,1,1,1,0.999987733,0.99326559,0.936590208,42.41206675,-84.2952625,2016,MIH1
2369/LH123HT,DEH1_2017,Y,21,692.5056558,0,5,260,132.5,69.5,69.5,2.917187458,6.201428686,3.00780289,3.517983876,1.211428521,1.632751291,5.214259368,11.31934688,4.882730708,93.34999865,43.4100008,45.34571489,126.7790489,1.268571377,15.48333303,157.8533328,69.24809492,151.3147631,17.05647962,17.73228645,20.71096481,19.57386043,19.15556694,20.88592809,18.21237176,18.15756056,16.58607394,20.26624998,24.66142872,21.72245043,26.82298965,30.35071437,30.31148162,30.69555299,28.43090921,27.29702356,9.32593758,14.19571427,10.68752201,16.75855213,19.906349,19.88150788,21.21690322,18.72144455,17.91444491,8.690479953,12.08402314,9.787934269,14.12431868,17.15482568,17.14050735,17.94790556,15.63546309,14.74613823,0.907287956,1,0.959736116,1,1,1,1,1,38.67025825,-75.4333645,2017,DEH1
CG119/CG108,KSH1_2018,N,13.075,639.7310613,4.5,2,229,110,65,64,0.123225804,1.309000027,2.835063753,1.245921432,6.190769489,0.847777789,5.121826591,3.691923017,0.576771715,3.819999933,13.09000027,33.35999966,37.39923182,6.190769489,7.630000105,140.8584615,22.1515381,17.82230777,23.1370286,19.20606413,23.76917973,25.01946837,21.72317813,23.99633906,18.76579115,18.12170014,19.24157322,22.75709664,20.771,27.08892973,34.13484851,36.79923102,35.27700868,33.17677556,30.51957897,31.48973893,3.915806478,6.778999925,10.75682887,16.60383588,18.26846137,18.37008543,18.87125761,16.15291204,15.043086,8.255034949,8.267600828,11.90551203,16.73972083,17.84021903,17.73256873,17.54545708,15.43757555,15.43621363,0.847615199,0.789999991,1,1,1,1,1,0.970122947,37.810107,-100.775188,2018,KSH1
PHG39/PHN82,TXH2_2020,N,17.45,790.9753262,0,2,200.76,76.395,72,70.25,2.284333333,0,4.621906019,2.982124861,1.655000005,6.689114015,2.894056698,2.615892851,2.528400138,68.53,0,55.88714266,111.3664289,1.655000005,70.91857161,82.98143064,12.87071426,76.16571382,13.91343843,13.3863348,15.08661116,19.80328892,19.03358821,19.2160028,19.61198116,21.5690046,17.9190584,20.02266652,27.17999992,26.59088772,26.49063582,29.80749984,29.13094588,32.17534358,33.00407163,34.57616138,6.794333295,17.20400028,15.22554111,13.60666406,17.96904786,16.63267817,20.78659354,19.79317827,24.13923583,7.901247141,14.27292515,13.36557264,12.73068931,16.08957262,15.12192719,18.39831967,18.39239984,20.46927813,0.821357143,1,0.992404768,0.99375244,1,1,1,0.999043315,30.53825625,-96.42790225,2020,TXH2
CG44/CGR01,MIH1_2017,N,15.1,674.4850626,0,12,92.5,46,57.5,57.5,2.651290334,1.642500043,0.365195355,3.685889798,0.022982455,0.462972321,1.745768067,1.924198947,6.215848807,82.19000036,13.14000034,4.417894763,131.6678931,0.068947365,5.871578781,77.40789432,25.15789459,187.919471,20.75480046,19.52619267,24.47429891,19.89055103,21.94334328,22.12060477,17.47908742,14.76431364,9.641321864,18.99677434,22.1187501,26.44652255,27.49693157,27.7329823,27.82492569,25.37386911,24.10071042,20.63989867,5.961290348,11.91874993,11.36318641,16.0503933,16.08877179,14.96255052,12.27657104,9.93890341,8.936309075,7.303217139,10.01258026,11.86785018,14.06113521,14.11607898,13.75096176,11.67659513,10.59348898,9.148775778,0.770126733,1,1,1,1,0.999072621,0.949278334,0.816440377,42.68116575,-84.49434125,2017,MIH1
B37/OH43,WIH3_2020,N,24.075,655.8208767,0.5,0.75,258.75,121.5,67.5,64.25,2.733870995,5.446666638,6.112394342,4.74655674,3.655208389,1.04360979,2.527373572,3.69928986,2.61452892,84.75000083,32.67999983,82.9068754,167.6149986,8.003125131,12.58312517,113.8450009,40.74312496,78.93437568,20.41919384,18.2775027,21.33639865,20.40337995,19.49413761,18.99324058,17.80850823,14.15156863,10.1168501,15.48354838,26.52499994,25.39100386,27.30541678,28.00124967,27.24401428,25.77617537,21.78088819,14.67245705,3.106129019,15.18500026,12.31273591,15.12317531,16.14624966,16.31340126,13.17330579,9.92591724,4.431311843,5.287102842,13.2823578,11.70416503,13.61992535,14.28505882,13.97808988,12.29059579,9.657643491,5.630137727,0.571854837,1,1,1,1,0.965668942,0.879609054,0.560799012,44.115703,-89.54491325,2020,WIH3
B73/PHN82,IAH1_2019,Y,23.05,711.1698417,0,0,194,98.5,65,64,8.157187574,0.75333335,7.315577374,1.144389074,0.212857144,0.731688293,3.103679801,5.185721735,4.918979992,261.0300024,4.5200001,87.30642721,32.26642813,0.212857144,8.04857122,121.5035704,46.39999972,147.9399989,18.01904646,22.72114833,18.53868323,20.84617194,19.20093738,21.91428985,16.4832458,14.23349405,11.00878768,22.30999994,27.52999973,24.52617789,31.4481278,28.63047609,29.47870132,27.11002697,25.00731411,20.46577188,10.93062501,14.96333329,14.91684483,20.02766766,18.36452364,16.34071412,15.67686671,13.06746994,9.592819484,10.11779152,13.58137929,12.09039624,17.73903178,15.5681627,15.08353594,13.70818638,12.14295105,9.387875541,0.879263394,1,1,1,1,0.994329881,0.928985237,0.797752907,41.1992562,-91.4941418,2019,IAH1
PHW52/PHN82,MOH2_2015,N,15.6,731.1212129,0,0,195,70,74,71,3.914838722,3.534545422,2.891676029,5.446623968,2.505882375,1.1137255,5.068586465,0.980448186,4.011119538,121.3600004,38.87999964,35.23176398,173.6929392,5.011764751,10.0235295,148.9223525,6.487058864,124.3447057,19.08701148,18.12534948,17.16717858,21.59629129,16.88945411,20.34516158,18.32895435,19.90608894,16.95494386,18.756129,18.24727275,23.87322904,29.02836507,30.59176479,31.93248319,30.27285599,28.73220747,28.34062618,6.152580692,8.059091026,15.30129973,17.80114352,21.94705907,21.39261428,20.17023127,17.40519331,17.20941189,7.288196993,7.58478923,12.05891064,15.51775091,18.26941193,18.66254873,17.2518739,15.21359182,14.97078901,0.75554147,0.814935086,1,1,1,1,1,1,38.89807917,-92.2079,2015,MOH2
TX714/PHZ51,NCH1_2016,N,13.95,731.1212129,0,2,251,138.5,65,64,2.901562452,3.125714166,7.137907935,4.683034439,4.3177271,0.863030289,5.226283407,5.104181825,4.507668668,92.84999847,21.87999916,91.86318315,160.7736342,8.497726928,8.495454409,139.9318182,26.12772732,139.7377287,16.36857818,22.27138465,15.49498623,18.72849078,21.8793198,21.8664799,18.529992,18.05675722,17.32656161,20.86125001,25.58571407,25.68946269,27.1054564,30.20318166,31.0559697,32.42423852,33.59766701,33.26035177,7.692187494,8.212857212,14.27003911,16.07300028,18.02681784,18.80169681,21.2796372,22.62190931,22.7218182,8.383421821,10.43985322,12.46468669,13.95599298,16.17160042,16.99727481,18.83160592,19.980567,19.86697781,0.913761163,1,1,1,1,1,1,1,35.30015175,-77.57127825,2016,NCH1
B37/MO17,TXH1_2020,N,11.225,765.2316216,0,2,198.755,72.39,68.25,67.25,2.284333333,0,4.613530444,2.949806388,1.362941181,6.741056464,2.844869093,3.829088224,2.301094231,68.53,0,55.97058804,110.7988238,1.362941181,71.52235312,82.32059028,18.97352936,69.29117607,13.91343843,13.3863348,15.08816438,19.79337859,19.48130546,19.24170726,19.77113757,20.7945973,17.91495332,20.02266652,27.17999992,26.60815942,26.52479293,29.39617636,29.12989124,32.2266946,33.03076485,34.59511331,6.794333295,17.20400028,15.2455437,13.65359797,17.29686298,16.61337131,20.73348334,20.06167624,24.24037069,7.901247141,14.27292515,13.38037585,12.76738989,15.58009007,15.11126374,18.39892159,18.53701373,20.50202011,0.821357143,1,0.99243504,0.993791594,1,1,1,0.999042533,30.53781575,-96.4283715,2020,TXH1
PHP02/PHB47,NYH2_2015,Y,16.1,731.1212129,0,1,227,117,78,79,3.814193487,2.822857129,1.806874641,1.427310218,14.28882354,6.323155046,2.553769654,1.263651931,1.70374005,118.2399981,39.5199998,23.5252947,50.99705838,17.86235295,65.18176435,90.43176518,10.71352917,51.74117684,19.21827184,21.58410556,20.44972798,21.8367517,17.34067749,18.34945618,18.49425604,17.55625849,13.84215422,11.26903224,15.86071418,24.70888252,27.12764594,29.5805878,28.55383422,27.75922879,25.11594081,20.73318661,0.676451599,3.065714287,12.68317757,14.19692254,19.48862723,17.66257776,16.12899413,12.03346763,8.797239788,3.458861152,5.522653893,11.65565145,13.2498794,16.56577659,15.18766176,14.16580901,11.53845799,8.731216192,0.261509218,0.568112238,0.971160735,0.994106254,1,0.999864887,0.980226591,0.898542131,42.7324825,-76.65277775,2015,NYH2
LH74/PHN82,NYH2_2020,Y,15.85,708.5954713,0,7,215,100,68.5,68.5,4.422257993,0,1.391731236,3.182357247,6.170888774,3.507901041,2.283490724,1.426918664,2.172175634,137.0899978,0,18.68266731,113.2706661,12.6093331,36.98266699,88.46933366,18.14666667,65.61600019,20.94267544,21.78244971,21.55666085,20.64321436,19.27786447,18.92984529,17.76882093,13.77968924,11.70490539,14.55447306,27.94977782,23.62933928,27.86541297,27.88688897,28.78672537,26.53302948,21.56675493,18.20507674,2.61195699,15.66431106,11.35573055,15.51025755,16.31100023,17.48208292,14.53826355,10.86377734,6.879177126,4.979415324,14.02697238,10.70801105,14.09392345,14.22879085,15.20067311,13.04971037,9.749522427,7.387680802,0.470065285,1,0.969822941,0.995242037,1,0.988859641,0.904446401,0.765938608,42.73230075,-76.65036275,2020,NYH2
LH74/PHN82,MIH1_2017,Y,21.7,676.4158404,0,3,91.5,45.5,63.5,63.5,2.651290334,1.642500043,0.365195355,3.685889798,0.022982455,0.462972321,1.745768067,1.924198947,6.215848807,82.19000036,13.14000034,4.417894763,131.6678931,0.068947365,5.871578781,77.40789432,25.15789459,187.919471,20.75480046,19.52619267,24.47429891,19.89055103,21.94334328,22.12060477,17.47908742,14.76431364,9.641321864,18.99677434,22.1187501,26.44652255,27.49693157,27.7329823,27.82492569,25.37386911,24.10071042,20.63989867,5.961290348,11.91874993,11.36318641,16.0503933,16.08877179,14.96255052,12.27657104,9.93890341,8.936309075,7.303217139,10.01258026,11.86785018,14.06113521,14.11607898,13.75096176,11.67659513,10.59348898,9.148775778,0.770126733,1,1,1,1,0.999072621,0.949278334,0.816440377,42.68116575,-84.49434125,2017,MIH1
B73/PHZ51,NCH1_2016,N,14.325,731.1212129,0.25,3,247,135.25,65,64,2.901562452,3.125714166,7.137907935,4.683034439,4.3177271,0.863030289,5.226283407,5.104181825,4.507668668,92.84999847,21.87999916,91.86318315,160.7736342,8.497726928,8.495454409,139.9318182,26.12772732,139.7377287,16.36857818,22.27138465,15.49498623,18.72849078,21.8793198,21.8664799,18.529992,18.05675722,17.32656161,20.86125001,25.58571407,25.68946269,27.1054564,30.20318166,31.0559697,32.42423852,33.59766701,33.26035177,7.692187494,8.212857212,14.27003911,16.07300028,18.02681784,18.80169681,21.2796372,22.62190931,22.7218182,8.383421821,10.43985322,12.46468669,13.95599298,16.17160042,16.99727481,18.83160592,19.980567,19.86697781,0.913761163,1,1,1,1,1,1,1,35.30015175,-77.57127825,2016,NCH1
CG119/CG108,IAH4_2017,Y,17.7,731.1212129,0,2,229,110,65,64,3.054193612,4.63857133,5.654282844,2.356146022,0.145000003,0.823262634,3.029939984,2.506485397,3.022032747,94.68000197,32.46999931,92.55000019,79.81000018,0.290000005,7.931363713,110.0431818,17.65818187,91.79227275,19.60434628,22.37855189,18.81628808,21.46940114,22.42332305,21.26952374,19.1513695,15.94205759,15.34138578,17.83935482,25.21428544,21.76755785,28.88340452,30.88984893,30.99338411,28.30609907,26.26622464,25.93438806,4.952580655,10.13999993,10.24708413,15.02150207,17.47128796,18.07608078,15.80662465,13.87026602,12.51354651,6.575243948,10.82301274,9.649960621,14.3656457,16.22810104,16.57398155,14.36597852,12.57546566,12.06214068,0.727396317,1,0.910082199,1,1,1,1,0.987168831,41.99455432,-93.69030947,2017,IAH4
B14A/H95,NYH1_2019,Y,20.55,740.1315095,2,15.5,254,150,72,71,3.742499989,3.13750004,5.753824184,3.193184694,5.054999975,4.679644987,3.141734315,2.115619262,4.095645999,119.7599996,25.10000032,83.05615347,110.7876916,10.59692295,60.83538484,169.67846,49.66846142,126.1984601,19.31204623,22.90652502,19.40556432,20.09548462,19.54416251,18.43271946,14.78687504,11.82668111,8.218362691,18.69937494,22.85875034,22.9010546,27.51683221,28.25012823,26.24284011,22.02988517,19.80082275,11.00573521,7.845625035,10.06374997,12.28813039,16.10263177,16.07333343,14.39934908,10.67406786,8.357505336,1.635690852,7.6395284,9.775213808,10.49055945,14.05854059,14.39300596,12.73828549,9.762895495,8.676471021,3.980466677,0.838560269,0.991875008,1,1,1,0.934962266,0.800347462,0.399612352,42.7288875,-76.65152084,2019,NYH1
B37/OH43,OHH1_2016,N,21.8,684.1389518,0,17.5,273,123,65,64,4.328064465,1.776000023,3.915145208,2.580740659,3.890757626,4.17049496,5.079069289,3.957741935,3.614594814,134.1699984,8.880000114,44.70363614,85.9177286,9.330454675,39.94818193,160.1854537,27.69772666,110.1186362,18.3437644,22.24283047,20.73146956,20.35982518,19.15233416,18.82824642,16.72048491,17.98730955,14.71797893,19.63580645,29.63200035,26.56953589,28.59263588,29.59106055,30.69283836,29.21689182,28.27188687,26.30588322,8.120967747,16.89599972,14.9739129,16.70528562,18.30318191,19.74443426,18.9160149,15.44500838,13.40262461,8.117657052,15.32722009,13.17028057,14.81678154,15.96857054,17.23303236,16.11713161,14.21502474,12.5845871,0.859331788,1,1,1,1,1,0.999172078,0.989049277,39.860924,-83.6755995,2016,OHH1
PHG39/PHN82,TXH1_2020,N,12.55,777.4598813,0,2,187.325,52.705,70.5,69,2.284333333,0,4.613530444,2.949806388,1.362941181,6.741056464,2.844869093,3.829088224,2.301094231,68.53,0,55.97058804,110.7988238,1.362941181,71.52235312,82.32059028,18.97352936,69.29117607,13.91343843,13.3863348,15.08816438,19.79337859,19.48130546,19.24170726,19.77113757,20.7945973,17.91495332,20.02266652,27.17999992,26.60815942,26.52479293,29.39617636,29.12989124,32.2266946,33.03076485,34.59511331,6.794333295,17.20400028,15.2455437,13.65359797,17.29686298,16.61337131,20.73348334,20.06167624,24.24037069,7.901247141,14.27292515,13.38037585,12.76738989,15.58009007,15.11126374,18.39892159,18.53701373,20.50202011,0.821357143,1,0.99243504,0.993791594,1,1,1,0.999042533,30.53781575,-96.4283715,2020,TXH1
F42/OH43,GAH1_2017,N,14.1,727.2596572,0,2.5,160,65,60,56.5,1.929687474,5.730000019,0.343252103,3.449286585,2.107618968,4.586772466,5.884115127,3.462793619,5.790337869,61.74999917,45.84000015,4.185237975,115.4628578,3.161428452,44.24761888,164.3961923,18.00285697,179.500474,16.80249013,20.13732326,20.17342047,19.27076224,21.20480144,16.6798163,18.15858085,19.37517402,17.73704587,23.5584375,24.76124978,28.73884546,29.02932191,29.79031757,30.11825943,30.88468736,33.04158726,32.39466959,8.654999979,9.073749959,13.81601286,15.94569083,16.85142871,20.07059283,21.0580027,22.24365102,22.03411694,9.935165979,10.3201674,13.6844889,14.81363998,15.5596332,17.10789698,17.95959829,19.61349988,19.1980032,0.8834375,1,1,1,1,1,1,1,31.50794425,-83.55854475,2017,GAH1
B97/PHB47,MNH1_2016,Y,20.65,731.1212129,0,2,229,110,73.5,71,2.893225764,0.170000008,5.030425272,6.121705224,6.438583227,6.210954471,8.179238718,7.617170889,9.394742846,89.68999869,1.190000057,67.79499967,212.8530004,13.67999972,65.11499918,295.599999,62.20750045,287.315495,17.89673604,26.28611401,18.122652,20.29948324,15.80941307,17.87578139,16.93568638,15.29315111,12.15008877,17.5148386,25.45428576,24.53269911,27.63337014,28.14450006,28.70269129,27.15887183,24.8505404,22.53032632,6.338387108,9.824285678,13.68155402,15.81410535,17.82425013,18.42635015,16.92976579,13.57123889,11.50456607,6.871134867,10.90204251,11.6566452,13.98369248,15.05511886,15.68076391,14.22086787,11.86153057,10.26982602,0.734527645,1,1,1,1,0.999952477,0.98729881,0.936092645,44.06646925,-93.533648,2016,MNH1
LH198/PHZ51,NEH2_2015,N,13.55,767.1623994,0,0,229,110,95.5,95.5,1.358750008,3.755999994,3.031264216,1.286090902,0.286666671,1.657187527,3.751759362,0.157499999,0.616713691,43.48000026,37.55999994,66.29000026,43.49999976,0.860000014,16.57187527,117.6431233,0.944999993,18.99062441,19.53783247,19.98656282,18.8528682,23.65152674,23.21232343,22.7312118,19.62767813,21.61948185,18.20728239,15.03874992,23.15200024,18.66927583,30.14561768,32.37510385,32.60862507,30.36489819,32.31320816,28.31448706,-2.426562488,5.230999994,5.264051067,13.5723423,16.5714581,16.13087479,15.9646131,15.56819047,11.19634675,4.192485347,8.478296732,6.894904354,14.37610508,16.560328,16.47008009,15.3434088,16.05261291,12.83173005,0.519497764,0.97653572,0.809891265,1,1,1,1,0.922021698,41.0514495,-100.7471915,2015,NEH2
LH198/PHZ51,ONH2_2015,Y,20.2,774.8855108,0,0,287,139.5,79.5,79,1.876451608,4.282666683,1.928005431,1.58261263,10.80264742,1.923208582,3.114388399,4.294901914,2.356388962,58.16999984,64.24000025,23.61999965,57.22470651,21.60529484,21.1552944,115.5017658,31.56294079,72.1164696,18.95380112,18.76709785,21.17743809,22.45418875,20.04103015,18.4543581,18.45373918,15.80078253,13.34539525,11.17387095,14.38466663,23.91200153,26.61279381,30.15176526,27.65053462,26.77986929,25.87464046,20.7920557,2.006774224,5.636000033,13.64950245,15.64688346,19.32647026,18.51812829,16.74694623,15.4972221,11.03054456,3.742938436,5.617129505,11.53065914,13.52353119,16.78542678,15.13421866,13.95153495,13.1846932,9.37660249,0.276970043,0.589690475,0.985132406,1,1,1,0.993019959,0.931831119,42.45408625,-81.8816065,2015,ONH2
PHP02/PHB47,NCH1_2017,N,15.1,731.1212129,0,2,195,82,65,64,5.929354779,4.097142833,0.297958702,3.860588722,6.673809642,5.437090039,2.513672686,1.67758051,4.140460835,183.8099982,28.67999983,4.023333254,115.8195228,10.90952401,51.84571517,65.15761944,9.68857149,128.3542859,16.84796118,19.66078799,22.20077414,19.20396089,15.77249108,20.54839894,18.7994723,19.26606379,16.40835168,26.07000006,23.57857159,28.17011276,29.72614366,31.01404729,30.48814813,32.54721675,31.95695904,30.43138246,13.64064524,11.25142826,15.69757802,18.87536398,22.57674573,19.84793622,22.28039625,21.2748593,20.81350234,12.56442422,10.48784987,14.26665949,16.36044911,18.79940835,17.21144066,19.38557496,18.57336573,17.65269876,0.998329492,1,1,1,1,1,1,1,35.29663725,-77.5668065,2017,NCH1
W10001_0022/PHB47,DEH1_2015,Y,18.75,683.4953592,0,0,255.5,123.5,61.5,60,2.877187484,6.848000002,1.658122271,2.899811139,0.533124998,6.398055441,4.542065261,4.666333417,5.694818618,92.06999949,68.48000002,26.86312445,94.40374921,0.778750002,57.58249897,115.8581242,26.73625046,176.5393772,18.09789148,17.20138936,20.11151884,21.0089777,21.53492481,19.24730516,17.70191113,15.05628078,15.14846735,16.82656264,19.24400005,20.72376954,27.68890342,31.56656283,31.86354174,32.09465687,30.43364003,29.09395151,6.265937505,9.858999991,10.7453803,17.67876376,20.38750017,21.35659703,22.77220607,22.28250884,20.56647162,6.521960329,8.412914767,9.229957748,14.85993723,17.9770315,18.58170739,19.36170697,18.35807444,16.86736745,0.750435273,0.870857151,0.962682184,1,1,1,1,1,38.62935675,-75.4656925,2015,DEH1
PHG29/PHG47,ONH2_2017,N,18.15,912.6143308,0,6,221,95.5,37.5,36,3.566774253,5.816000056,0.640467161,2.602850346,0.276190468,0.553043346,1.774150425,1.832219351,2.40528059,110.5700018,58.16000056,8.999047586,96.02571482,0.552380936,6.918571438,78.70857161,24.06619065,72.98142847,18.8542372,16.74867072,24.21291039,19.37094181,21.19715784,20.84705237,17.61151759,14.253685,9.927824707,15.7532257,18.68899984,23.40262829,26.34974997,26.59380949,26.86065013,24.57225317,22.91748616,20.00596815,5.764838726,10.96000004,12.03359118,16.18007827,16.63301581,15.91920336,13.14574071,11.27177775,10.10650586,6.141928302,8.38660306,10.68394655,13.52521671,13.7753985,13.64998718,11.58821465,10.41552723,9.107414304,0.598502303,0.966571423,1,1,1,0.999084662,0.956230826,0.8300025,42.45293025,-81.8827315,2017,ONH2
B73/PHM49,IAH3_2017,N,17.7,731.1212129,0,2,229,110,65,64,4.153750014,4.476666673,3.404720357,2.207347727,0.783636364,2.628276904,1.892687593,2.328876272,1.794257086,132.9200004,67.1500001,54.03954627,78.33863542,1.567272728,28.02681865,71.85545488,19.05045461,54.69545453,16.14493189,17.75127989,18.89303832,22.07985964,20.54923199,20.99384486,19.81852315,17.22919489,15.64326955,15.84312499,15.5066665,21.42652578,27.714982,28.45522753,29.90074383,27.6545798,25.64720852,25.13760955,4.41906251,4.141333344,9.782295063,13.56526933,16.05901469,16.6123348,14.8096002,12.74600627,11.28191352,5.818880471,5.62230391,9.387130072,13.2881535,14.4256186,15.3843105,13.65871261,11.89796048,11.29223634,0.568604913,0.570380948,0.879734313,1,1,1,1,0.979205627,41.9758706,-92.24318881,2017,IAH3
PHN11_PHW65_0323/LH195,SDH1_2015,N,26,597.2539485,0,2,144,79,75,74,1.890000034,2.68444448,2.847212523,0.928406021,1.08916667,1.213193166,1.12388612,3.994558873,0.570569385,58.59000105,24.16000032,33.86000057,31.14874977,1.720000006,12.77624983,39.02562428,27.90249949,17.65812508,21.16446504,23.3864585,24.03054242,23.94878495,21.74335716,21.42490048,20.60212775,16.27746828,15.18579983,19.04290341,22.5888888,27.20826416,30.46229654,29.54760476,31.86073879,31.47770382,29.48664523,24.89733582,4.208709664,8.468888919,11.69082143,14.25969647,14.29062517,16.06534098,14.02269822,14.11578116,6.942900096,6.807516906,9.210660666,12.27390437,14.67606113,14.18888263,15.81431879,15.00552731,14.17539039,9.834808296,0.77025346,0.983690483,1,1,1,0.983472358,0.961069402,0.950039755,44.208745,-102.928745,2015,SDH1
CG108/CGR03,NYH2_2017,Y,15.2,763.3008437,0,12.5,244.5,121.5,64.5,64.5,4.985806354,2.593333337,3.453715005,5.89688957,0.948070192,3.208418109,2.379655727,2.694333021,3.397972982,154.559997,23.34000003,55.2357889,222.9889478,1.763157895,41.81263091,117.7794744,23.637895,104.1910535,18.91896409,18.22902181,21.62310913,19.28169434,21.2024166,18.91678159,16.97406986,13.88043676,9.439494818,16.54903238,19.80111122,22.34881997,25.65461899,27.16105275,25.3148988,23.28803047,24.25146582,18.24460841,5.239677404,10.2422222,10.55939387,15.21770316,15.87359667,14.84504335,11.5614249,11.15398494,7.352427253,6.267898103,8.570747831,9.793885142,12.80097944,13.68904673,12.46138399,10.55155578,10.87663924,7.688896934,0.638917053,1,1,1,1,0.981507475,0.966916282,0.722284214,42.73248125,-76.65275025,2017,NYH2
PHP02/PHB47,IAH3_2017,Y,18.25,752.3597692,0,2,229,110,65,64,4.153750014,4.476666673,3.404720357,2.207347727,0.783636364,2.628276904,1.892687593,2.328876272,1.794257086,132.9200004,67.1500001,54.03954627,78.33863542,1.567272728,28.02681865,71.85545488,19.05045461,54.69545453,16.14493189,17.75127989,18.89303832,22.07985964,20.54923199,20.99384486,19.81852315,17.22919489,15.64326955,15.84312499,15.5066665,21.42652578,27.714982,28.45522753,29.90074383,27.6545798,25.64720852,25.13760955,4.41906251,4.141333344,9.782295063,13.56526933,16.05901469,16.6123348,14.8096002,12.74600627,11.28191352,5.818880471,5.62230391,9.387130072,13.2881535,14.4256186,15.3843105,13.65871261,11.89796048,11.29223634,0.568604913,0.570380948,0.879734313,1,1,1,1,0.979205627,41.9758706,-92.24318881,2017,IAH3
B14A/OH43,TXH2_2020,N,14.85,736.9135464,0,2,201.93,73.025,66,69.5,2.284333333,0,4.621906019,2.982124861,1.655000005,6.689114015,2.894056698,2.615892851,2.528400138,68.53,0,55.88714266,111.3664289,1.655000005,70.91857161,82.98143064,12.87071426,76.16571382,13.91343843,13.3863348,15.08661116,19.80328892,19.03358821,19.2160028,19.61198116,21.5690046,17.9190584,20.02266652,27.17999992,26.59088772,26.49063582,29.80749984,29.13094588,32.17534358,33.00407163,34.57616138,6.794333295,17.20400028,15.22554111,13.60666406,17.96904786,16.63267817,20.78659354,19.79317827,24.13923583,7.901247141,14.27292515,13.36557264,12.73068931,16.08957262,15.12192719,18.39831967,18.39239984,20.46927813,0.821357143,1,0.992404768,0.99375244,1,1,1,0.999043315,30.53825625,-96.42790225,2020,TXH2
B14A/OH43,WIH1_2015,N,36.45,716.9621753,0,0,272.5,146.5,65,64,4.730000059,9.059999784,2.430610682,6.190059866,3.242812514,1.739310909,2.563222068,2.582604527,2.064862235,151.3600019,54.3599987,32.30062549,198.0887501,6.485625029,21.11437514,113.2525011,35.42937557,62.48000012,19.32367544,22.19104989,23.8972515,19.04105101,21.62804324,20.72553659,16.09255797,13.7227876,9.595561915,19.95718755,28.15000025,26.05326099,28.85932006,29.07385437,26.51056077,24.82739399,20.18089026,14.51549808,8.517187543,15.30499983,11.82802944,17.48783518,16.48010375,14.49615378,12.31509137,8.581945626,2.680440183,8.558350873,13.98301754,11.81015597,15.26183828,14.95581898,12.98753542,11.68123469,8.628108428,5.087550731,0.777276777,1,1,1,1,0.929186389,0.833919484,0.505939954,43.05511725,-89.528525,2015,WIH1
PHN11_PHG47_0251/PHB47,OHH1_2017,Y,14.65,743.9930652,0,2,229,110,65,64,4.401935447,12.29571451,4.299880116,6.252045262,18.36299991,4.892395558,3.195317293,3.431958172,3.794688752,136.4599988,86.0700016,53.63949916,223.8204996,40.86499989,50.26800107,124.097,30.99400014,115.4320013,19.0647902,19.03427505,21.00226491,20.15032754,19.69555429,18.89580098,18.69837911,16.0400155,13.85510684,20.47903239,25.43142836,25.24002704,27.25803818,28.09541678,28.73270468,26.30456447,24.69395371,24.25720733,8.011935501,13.44999967,12.59882409,15.91673102,16.75358336,18.39824095,14.97688189,13.11535887,11.81284403,8.407228033,12.106522,11.63721293,13.8931373,14.6377479,15.63224373,13.07252875,11.66012039,11.13333271,0.85352535,1,1,1,1,0.996926048,1,0.96495674,39.855785,-83.66477375,2017,OHH1
LH74/PHN82,GAH2_2018,Y,15.8,917.1194792,0,2,211.5,88,52.5,53,4.849677459,0.472857135,6.389842835,2.50728713,2.625000003,3.795198411,2.499668454,2.828785729,3.724124467,150.3400012,3.309999943,84.90856965,76.95785742,5.387857173,33.84785713,66.14142865,15.06428581,115.4478585,20.49558812,21.88511535,20.33298503,19.15998772,23.51626716,19.70790798,20.02489003,19.42019064,16.00793598,23.5748387,25.80428559,25.09824669,29.4338755,32.57678595,32.30446448,33.95531338,34.12885699,31.99587548,8.787742034,10.57714278,11.20780819,18.18961495,18.46904782,20.57888879,21.25284753,21.08492862,21.01629033,9.717543295,11.3392147,11.23425566,15.89113211,17.53376954,18.44167663,19.31882395,19.47290933,18.49284767,0.993778801,1,1,1,1,1,1,1,33.71560925,-83.30894675,2018,GAH2
TX779/LH195,WIH3_2020,N,21.15,698.7270511,0.166666667,0.333333333,261.5,160.5,80.66666667,77.66666667,2.733870995,5.446666638,6.112394342,4.74655674,3.655208389,1.04360979,2.527373572,3.69928986,2.61452892,84.75000083,32.67999983,82.9068754,167.6149986,8.003125131,12.58312517,113.8450009,40.74312496,78.93437568,20.41919384,18.2775027,21.33639865,20.40337995,19.49413761,18.99324058,17.80850823,14.15156863,10.1168501,15.48354838,26.52499994,25.39100386,27.30541678,28.00124967,27.24401428,25.77617537,21.78088819,14.67245705,3.106129019,15.18500026,12.31273591,15.12317531,16.14624966,16.31340126,13.17330579,9.92591724,4.431311843,5.287102842,13.2823578,11.70416503,13.61992535,14.28505882,13.97808988,12.29059579,9.657643491,5.630137727,0.571854837,1,1,1,1,0.965668942,0.879609054,0.560799012,44.115703,-89.54491325,2020,WIH3
B73/PHZ51,IAH3_2017,Y,18.45,772.954733,0,2,229,110,65,64,4.153750014,4.476666673,3.404720357,2.207347727,0.783636364,2.628276904,1.892687593,2.328876272,1.794257086,132.9200004,67.1500001,54.03954627,78.33863542,1.567272728,28.02681865,71.85545488,19.05045461,54.69545453,16.14493189,17.75127989,18.89303832,22.07985964,20.54923199,20.99384486,19.81852315,17.22919489,15.64326955,15.84312499,15.5066665,21.42652578,27.714982,28.45522753,29.90074383,27.6545798,25.64720852,25.13760955,4.41906251,4.141333344,9.782295063,13.56526933,16.05901469,16.6123348,14.8096002,12.74600627,11.28191352,5.818880471,5.62230391,9.387130072,13.2881535,14.4256186,15.3843105,13.65871261,11.89796048,11.29223634,0.568604913,0.570380948,0.879734313,1,1,1,1,0.979205627,41.9758706,-92.24318881,2017,IAH3
PHW52/PHM49,MOH1_2015,N,15.35,731.1212129,0,0,197.5,82.5,77,73,3.914838722,3.002727248,2.7038834,5.646226268,2.268750012,1.183333344,4.736744086,1.740401796,3.666491943,121.3600004,33.02999973,34.41999933,178.8712478,5.868750036,10.6500001,140.2618746,11.88312507,113.6612502,18.81846694,18.88703156,16.92919735,21.70591481,15.72154266,19.94530069,18.47422179,20.12873028,17.02653892,18.28451609,18.00181831,23.77805456,28.93028285,29.85593748,31.76118019,30.42140763,28.58050013,28.43143147,5.857096827,7.500000065,15.21487777,17.6487962,21.67281234,21.45979159,20.28182538,17.09899995,17.28669369,7.068544315,7.302193139,11.97142579,15.39796361,17.76437491,18.61048589,17.380694,14.99182695,15.05317439,0.723283405,0.814935086,1,1,1,1,1,1,38.8965375,-92.20800417,2015,MOH1
LH74/PHN82,SCH1_2018,N,15.465,731.1212129,0,2,211,113,62.5,65.5,5.509375073,3.372500002,5.775327928,7.728127661,4.71095229,3.130603142,3.123485158,2.01328566,5.79306447,176.3000023,26.98000002,97.60999952,245.6735731,5.415714213,31.8442854,83.93428482,10.53785687,179.5849986,18.64772365,19.28692877,21.1730546,18.16318131,18.84742333,19.2548603,19.994513,19.31783344,16.30139442,22.53906247,22.53374982,23.09020479,27.61870045,28.0654766,28.90856809,32.58479132,33.48333298,31.1168664,9.301562469,9.311250091,8.762400081,17.50665347,16.7615475,18.38295894,21.20797915,21.67128537,20.80767273,9.591191253,9.400074843,9.574505228,14.76793775,14.51962258,15.72381397,18.86169653,19.45105318,17.96288574,0.951841518,1,0.982626499,0.991514695,1,1,1,1,34.6223015,-82.7364835,2018,SCH1
PHG80/PHZ51,KSH1_2015,N,15.05,740.7751021,0,2,229,110,85,82,0.688124985,3.518749885,2.537239536,4.634326915,6.340784251,4.013516285,5.753010874,3.95559662,1.81791271,22.01999953,28.14999908,47.40176476,147.1705882,9.165882307,38.18235242,161.646473,23.74705871,56.35529401,19.48910828,20.34062409,19.21958791,21.30664108,18.00351726,18.80818483,18.60066932,17.86718078,18.78253622,17.69406253,22.96750021,19.85221485,29.31892792,29.11705877,31.41670577,31.16760655,30.50505886,29.96204923,3.297187492,8.938749969,8.792561365,16.998743,18.09705929,19.84989561,20.1377744,20.03282345,17.06836811,6.184738542,9.476230158,8.381520189,15.38816616,15.61697663,17.65547515,17.65556265,17.32458654,15.75670183,0.6778125,1,0.850138809,1,1,1,1,0.98304554,39.21641775,-96.60482225,2015,KSH1
WF9/H95,GAH2_2016,N,13.5,731.1212129,0,2,219,158,56,53,1.486129045,0,7.316392826,2.079782856,1.718421064,1.264671045,2.43256314,4.61773679,3.235456168,46.07000041,0,60.50999928,55.97210474,3.436842128,10.11736836,67.31736801,23.15894711,100.2847377,20.21189387,22.87583466,19.10112302,21.34036575,17.85876091,19.83818451,18.50479945,15.9975398,17.29687983,27.80677426,30.50400009,32.06010812,34.2138269,34.93842035,34.86282896,34.62455114,33.33373696,32.80003392,13.8351613,16.55600014,19.35906305,20.32019684,22.9621054,21.76434208,22.04984942,22.29670187,20.14649938,13.32566871,15.60302283,17.72531793,18.78372546,20.36638125,19.89190838,19.9091667,19.70080105,18.42340329,1,1,1,1,1,1,1,1,33.717295,-83.3110275,2016,GAH2
PHN11_PHG47_0251/PHB47,NYH1_2017,Y,17.7,731.1212129,0,2,229,110,65,64,4.758709581,4.139999986,2.953024942,5.715506232,4.320872878,2.701732063,2.616328443,1.022630585,3.614268439,147.519997,37.25999987,45.12618999,219.9223815,11.26857107,35.6957141,128.4247627,13.30476207,110.8900009,18.97444351,17.81005277,22.0763727,19.38397475,18.56141379,19.22534974,16.71382568,13.43506643,9.037548332,17.06967752,20.23333359,22.7745171,25.66488699,26.70396817,25.32691524,23.26007272,23.96840526,17.61119819,5.964193534,10.19,10.93717632,15.20362294,16.36293638,14.60656728,11.31793404,11.56685323,6.669544781,6.641127344,8.727253675,10.15270493,12.79474615,13.71935226,12.37567782,10.45035179,10.9124923,7.239151369,0.685760371,1,1,1,1,0.982493678,0.953634339,0.701363064,42.72880835,-76.6515625,2017,NYH1
F42/OH43,GAH1_2019,Y,17.605,740.9038206,0,0,185,97.5,61,60.5,4.224827643,1.980000006,1.908236784,2.106472486,0,0.090714284,5.691865924,1.473428559,3.045620547,122.5200016,17.82000005,22.37999977,72.04999958,0,0.725714275,156.5528547,7.367142797,92.8692846,16.4500471,17.48633936,17.40259385,20.9384506,22.51147406,21.84430948,17.66714436,19.76491442,19.71139218,21.20655165,22.58666695,26.81574745,29.5228407,35.04273814,35.70196446,32.62270198,33.62814315,33.36893722,7.214827602,8.595555623,14.04498416,14.47543411,19.21654783,20.58464301,20.89661115,21.78014287,21.253149,8.370628681,9.274220075,12.91642218,14.40044999,18.67726543,19.28313207,18.63395398,19.63555568,19.18049021,0.90216748,0.984365085,1,1,1,1,1,1,31.50582525,-83.55515025,2019,GAH1
B73/PHM49,TXH2_2019,N,11.53,791.2520711,0,0,216,80,71,71,1.71448275,0.072857141,3.656594302,9.095434564,0.409285716,1.207678571,5.355850783,1.246142852,1.574419343,49.71999974,0.50999999,52.00785631,328.2121388,0.592857139,9.661428571,146.4478573,6.531428533,47.51499965,15.42805705,20.52131135,18.76898834,18.57032559,21.42349659,18.85281525,20.14881361,21.03072751,19.84089234,18.45000007,25.76428577,24.43254944,27.27586732,31.09000002,32.37866099,32.72435205,34.04471448,34.98200776,6.826206914,10.35000004,10.67963154,14.78766739,18.65857179,21.85071427,21.02442735,21.79614282,22.6049739,7.457816468,11.1589152,10.85119479,13.46630403,16.91193677,19.11412105,18.84765314,19.77807102,20.01419559,0.749667494,1,0.945308164,1,1,1,1,0.999698925,30.546318,-96.4329965,2019,TXH2
CG44/CGR01,ONH1_2015,Y,26.05,726.6160645,0,0,235,125,80,80.5,1.605625002,2.296315821,1.411426091,1.973297954,0.512941169,3.436769168,2.641035405,1.799953816,2.360571209,51.38000005,43.63000059,20.30117703,73.50294104,0.81882352,40.73352947,103.9364728,19.58470627,71.14882509,18.02169462,20.4737019,23.34007091,22.64543997,20.24065375,18.07254412,18.60447299,14.22755231,12.21920895,9.771562532,12.63473691,23.7578119,26.83441686,29.90941261,27.46928249,26.11972075,22.82201755,18.35250846,-0.327500018,2.045263152,11.01347606,13.31919887,17.43313718,16.50329302,14.06775752,11.69572195,7.013714688,2.851211725,4.201400589,10.67713105,12.77399982,15.76589753,14.15032606,12.63577386,10.48249806,7.379159901,0.167098218,0.403345874,0.957007131,0.991950294,1,0.994472794,0.939113043,0.772366561,43.49741975,-80.44806025,2015,ONH1
TX951/LH195,MIH1_2020,N,33,688.0005075,0,1.5,264.75,163.5,67,65.5,4.984838709,2.447142908,2.78018427,2.64718347,5.506875038,1.476884461,2.688717092,6.006552647,2.65185957,154.53,17.13000035,30.43499947,89.07562375,6.053750038,16.17374991,112.2143753,49.72375022,79.8756258,20.40588462,19.28742858,24.32683064,21.06964646,18.47526628,19.40802789,18.05267967,13.18055513,11.8632568,17.75483874,24.12857165,28.18736501,29.25734834,30.47187495,29.12451894,27.19720882,23.65947149,18.53645566,5.91032262,13.18571418,13.36449351,15.87753885,17.57625037,17.40439215,14.2199518,12.09430501,6.603961046,6.886871568,11.64218502,13.33305563,14.86544572,16.04104967,15.33737973,13.2580117,11.17810785,7.349100415,0.70564517,0.993469382,1,1,1,0.990981538,0.929873564,0.775463757,42.7085775,-84.4705825,2020,MIH1
PHN11_OH43_0001/PHB47,GAH2_2016,N,11.5,731.1212129,0,2,268,250,50,50,1.486129045,0,7.316392826,2.079782856,1.718421064,1.264671045,2.43256314,4.61773679,3.235456168,46.07000041,0,60.50999928,55.97210474,3.436842128,10.11736836,67.31736801,23.15894711,100.2847377,20.21189387,22.87583466,19.10112302,21.34036575,17.85876091,19.83818451,18.50479945,15.9975398,17.29687983,27.80677426,30.50400009,32.06010812,34.2138269,34.93842035,34.86282896,34.62455114,33.33373696,32.80003392,13.8351613,16.55600014,19.35906305,20.32019684,22.9621054,21.76434208,22.04984942,22.29670187,20.14649938,13.32566871,15.60302283,17.72531793,18.78372546,20.36638125,19.89190838,19.9091667,19.70080105,18.42340329,1,1,1,1,1,1,1,1,33.717295,-83.3110275,2016,GAH2
PHG39/PHN82,NCH1_2016,N,15.25,731.1212129,1,2,218.5,115.5,65,64,2.901562452,3.125714166,7.137907935,4.683034439,4.3177271,0.863030289,5.226283407,5.104181825,4.507668668,92.84999847,21.87999916,91.86318315,160.7736342,8.497726928,8.495454409,139.9318182,26.12772732,139.7377287,16.36857818,22.27138465,15.49498623,18.72849078,21.8793198,21.8664799,18.529992,18.05675722,17.32656161,20.86125001,25.58571407,25.68946269,27.1054564,30.20318166,31.0559697,32.42423852,33.59766701,33.26035177,7.692187494,8.212857212,14.27003911,16.07300028,18.02681784,18.80169681,21.2796372,22.62190931,22.7218182,8.383421821,10.43985322,12.46468669,13.95599298,16.17160042,16.99727481,18.83160592,19.980567,19.86697781,0.913761163,1,1,1,1,1,1,1,35.30015175,-77.57127825,2016,NCH1
B14A/MO17,INH1_2020,Y,25.32,664.2197603,1.5,2,230.825,113.9,69.25,67.25,2.63064515,6.092222161,2.380905542,2.638028789,0.629411796,2.977235278,3.349803369,1.095052516,1.575144189,81.54999965,54.82999945,26.35000017,86.90176377,0.755294155,29.77235278,114.9176474,7.60117643,48.41470517,19.12040675,14.46862051,21.68340347,21.75389977,20.24839053,19.66959435,18.78188958,18.00828299,15.45076636,15.20677414,20.6899999,27.1104927,29.42650107,32.0752936,30.36388222,28.15834081,28.66782236,25.41333794,2.934193564,11.51555562,15.17811918,16.46944194,19.37588254,18.23752946,16.66734055,16.5683672,12.52337519,5.193705795,9.337664252,13.54219901,15.16026165,17.73146127,16.3694037,14.61167179,14.83949529,11.90095499,0.576025338,0.994801587,1,1,1,1,1,0.975702381,40.4787965,-86.9895995,2020,INH1
PHN11_PHW65_0323/LH195,NCH1_2019,Y,12.6,781.321437,0,0,196.25,81.25,55,55,2.191129027,0,0.107342031,4.775073233,0.466011907,4.533660718,6.24100048,2.370892844,2.941295675,67.92499983,0,1.347142833,143.4146411,0.94178571,36.26928575,165.0100003,13.54249993,91.02821354,18.69452832,25.30126673,21.77382428,19.07893176,22.56876209,20.7892765,19.22903807,18.96679552,16.71087377,25.69580629,28.76666609,32.29891346,30.08294473,33.3002377,33.83080339,32.75741781,32.04927549,30.79691829,13.34274195,12.19133326,19.06280588,18.61089734,20.56851188,21.23558053,21.08131414,19.9046464,19.77832645,12.18436683,13.33597385,17.64216348,16.39126772,18.88342746,19.44075481,18.8247811,17.98080212,17.31161093,1,1,1,1,1,1,1,1,35.67010175,-78.510504,2019,NCH1
PHB47/PHZ51,INH1_2015,N,14,737.1280773,0.666666667,3.333333333,221,94,67.66666667,67.33333333,2.968064535,5.608750075,2.401797478,2.620596579,1.049062505,3.048312443,3.454130844,1.332533481,1.484370975,92.01000059,44.8700006,26.44312483,85.12437463,1.715625018,30.48312443,116.5724995,9.316249996,45.68062523,19.44608656,13.59046638,21.88315593,21.65689439,20.60130358,19.73326552,18.77560381,17.99738388,15.64927463,15.67580632,21.0562501,27.44396829,29.52449332,32.66781175,30.16981242,28.17317586,28.46934151,25.5406298,3.004516139,13.05249977,15.22068343,16.62214482,19.56843758,18.02818774,16.71489706,16.46563638,12.56847521,5.360930658,9.9438759,13.725819,15.26696414,18.11812466,16.1828721,14.63810214,14.67667849,11.95902497,0.609504607,1,1,1,1,1,1,0.986081101,40.477075,-87.000205,2015,INH1
B14A/OH43,TXH1_2020,Y,10.2825,736.2699538,0,2,191.77,67.945,67.5,66.5,2.284333333,0,4.613530444,2.949806388,1.362941181,6.741056464,2.844869093,3.829088224,2.301094231,68.53,0,55.97058804,110.7988238,1.362941181,71.52235312,82.32059028,18.97352936,69.29117607,13.91343843,13.3863348,15.08816438,19.79337859,19.48130546,19.24170726,19.77113757,20.7945973,17.91495332,20.02266652,27.17999992,26.60815942,26.52479293,29.39617636,29.12989124,32.2266946,33.03076485,34.59511331,6.794333295,17.20400028,15.2455437,13.65359797,17.29686298,16.61337131,20.73348334,20.06167624,24.24037069,7.901247141,14.27292515,13.38037585,12.76738989,15.58009007,15.11126374,18.39892159,18.53701373,20.50202011,0.821357143,1,0.99243504,0.993791594,1,1,1,0.999042533,30.53781575,-96.4283715,2020,TXH1
F42/H95,ARH1_2016,N,17.75,783.8958075,0,2,194,112.5,73,69.5,12.62656226,6.052222146,7.859593922,4.411032368,3.769999921,0.095833332,1.834913509,2.950363528,2.931715563,404.0499923,54.46999931,101.1431819,160.496816,7.539999843,0.824999988,46.86636396,14.75181764,90.88318244,16.40757677,14.40289243,17.41332625,19.31399891,17.48165414,22.15918181,19.7781726,18.25208951,17.22596404,20.37124979,20.08666674,25.25253507,26.30445415,29.50681779,32.27019592,33.22074717,33.17606868,32.75999986,8.53968759,10.04999993,14.84655054,15.67568893,20.10318184,20.90335237,23.01320039,23.46584116,23.35664232,8.376579132,8.623890092,12.4075181,13.38568101,16.80499981,18.57005087,20.09384313,20.24603027,19.89808151,0.932198657,0.999841266,1,1,1,1,1,1,34.72952,-90.7603555,2016,ARH1
LH198/PHZ51,ONH1_2015,Y,29.9,707.9518787,0,1.5,225,120,85.5,86,1.605625002,2.296315821,1.411426091,1.973297954,0.512941169,3.436769168,2.641035405,1.799953816,2.360571209,51.38000005,43.63000059,20.30117703,73.50294104,0.81882352,40.73352947,103.9364728,19.58470627,71.14882509,18.02169462,20.4737019,23.34007091,22.64543997,20.24065375,18.07254412,18.60447299,14.22755231,12.21920895,9.771562532,12.63473691,23.7578119,26.83441686,29.90941261,27.46928249,26.11972075,22.82201755,18.35250846,-0.327500018,2.045263152,11.01347606,13.31919887,17.43313718,16.50329302,14.06775752,11.69572195,7.013714688,2.851211725,4.201400589,10.67713105,12.77399982,15.76589753,14.15032606,12.63577386,10.48249806,7.379159901,0.167098218,0.403345874,0.957007131,0.991950294,1,0.994472794,0.939113043,0.772366561,43.49741975,-80.44806025,2015,ONH1
LH212HT/LH195,OHH1_2015,Y,19.1,769.0931773,0,0,265.5,129.5,65,66,4.820000016,2.056666652,1.801667061,2.430255425,2.070588264,2.75488235,3.664772063,1.623969288,1.874022108,149.4200005,12.33999991,20.27235275,82.00588303,2.23529414,26.29176468,128.0200007,12.16764697,57.18411674,17.71339239,20.831882,20.85048625,20.93566426,20.28419298,19.59839119,17.66236547,17.23782846,14.83481447,16.95064511,28.03666687,26.64173705,29.01382079,31.07970569,30.59522857,27.99762273,26.69097183,23.34659959,5.9283871,15.42166694,14.66308043,16.74801267,19.23764672,18.74322206,16.69895781,13.90980629,10.26308727,6.580773377,14.04730329,13.19467995,15.08203889,17.16864649,16.69143216,14.53513226,12.92347397,10.29932856,0.672569122,1,1,1,1,1,0.994932126,0.947361455,39.855785,-83.66477375,2015,OHH1
PHW52/PHM49,TXH3_2020,N,9.735,1757.973233,0,2,215.9,82.55,62,60.5,3.45875001,5.345714297,0.996479651,4.090893152,11.37176514,0.055555557,3.334418123,0.880352915,2.226110039,110.6800003,37.42000008,12.08058808,124.9758839,22.74353027,0.450000013,88.32823513,3.714117541,69.00941121,15.8034201,18.34009743,21.30541133,19.40762275,20.16580067,20.62125497,19.02899565,16.94703156,18.75160362,25.77062485,24.00285694,27.63577502,29.95402965,30.19186265,32.38063702,33.36328143,35.03835301,35.63206825,14.19906271,12.24428552,13.92062761,17.60156859,18.33921522,21.14142164,21.88591696,25.71364726,24.34760913,12.60372436,11.20425028,13.29865333,15.96364287,16.27361839,18.69618421,19.4144726,21.47019646,20.81901077,0.989866069,1,1,1,1,0.99995416,0.999321567,0.998827006,30.53869475,-96.4274175,2020,TXH3
PHB47/PHN82,TXH1_2015,N,14.65,749.1418061,0,2,147.5,64,69.5,69,2.435333351,0.886666695,4.529386736,2.992210444,0,5.407499953,3.236240411,4.528416659,2.205666663,73.06000052,5.320000172,54.16999972,113.7899998,0,59.48249948,89.11249819,24.54499996,66.1699999,13.38128519,15.80308406,13.73749678,19.48289484,22.46598899,19.96463979,19.54848583,19.57031498,18.03135075,19.61999995,26.26833312,25.8489028,26.4780255,30.37177098,28.79539756,31.9014052,33.48070828,34.35516661,6.122333375,12.74499997,15.39155332,13.69439061,15.83385423,15.9580683,20.41172374,21.45270844,23.93220836,7.516768444,12.28221354,13.06030889,12.7550996,15.35592881,14.67426974,18.11040569,19.30603111,20.37775841,0.822428569,1,0.992325397,0.994092815,1,1,1,0.999431249,30.54708625,-96.43393475,2015,TXH1
B14A/H95,NCH1_2015,Y,16.5,731.1212129,0,0,212,108,65,64,3.0140625,9.692856925,3.043308324,7.00027835,0,3.411347986,2.886716411,10.31533332,6.56176467,96.44999999,67.84999847,47.46470581,233.8535261,0,30.12176424,80.44058821,53.94764695,203.4147048,18.56641886,18.5514961,20.38733283,17.18369043,24.39251002,21.03629604,20.30189304,17.27178406,15.58503138,22.38312501,24.94999995,23.18034629,27.40244989,31.82117664,31.76743482,33.30845927,33.22968591,31.16039845,8.592187501,12.50999982,10.48535005,18.40286831,19.92058833,21.46261411,22.34001137,22.61282364,21.92468694,9.285127697,11.46773529,10.15801447,14.99239002,17.87088248,18.60652477,19.71826945,19.84422869,18.53531879,0.955334819,1,0.995809598,1,1,1,1,1,35.29657708,-77.5664625,2015,NCH1
CG60/LH162,ONH1_2016,Y,17.4,736.9135464,0,2,160.5,87.5,72.5,71,1.979032247,2.105714291,0.92181366,1.439738287,4.720833318,2.435439396,4.62931563,1.31185227,2.043303741,61.34999967,29.48000008,13.31600007,60.28400005,10.99249999,28.54150001,172.0475013,11.37649985,61.38049932,20.24883872,21.56727634,23.77365349,22.41142308,19.3081847,20.61473607,17.12813691,15.31534219,11.6349499,10.49290321,16.47999988,25.01561457,25.51466922,28.22516696,27.99415914,27.31356147,24.49017951,20.3886015,-0.735806467,3.753571405,10.93050922,11.61184699,15.55325019,14.71775745,15.07244109,12.71620509,9.185787659,3.269306411,5.688768484,11.09209761,11.56175859,14.2216101,13.76399544,13.57642435,11.5133866,8.776899495,0.291105988,0.684668367,0.99891379,0.988093962,1,0.998165816,0.971212584,0.877977401,43.4997965,-80.451125,2016,ONH1
CG44/CGR01,WIH2_2019,N,23.825,673.5196736,0,0,228.7499998,97.91666675,58.75,58.75,5.084687524,1.186666648,3.682690384,5.868440751,0.695238091,4.73009737,4.315774648,4.395502279,4.547947068,162.7100008,7.119999886,58.08928529,183.8007161,1.222857135,55.05428533,207.5435701,59.53000056,136.8792876,20.51840827,23.10255337,19.84622659,19.54978709,22.13574316,19.04821964,14.90817086,12.98397937,9.337872891,18.93468753,26.85500018,22.80729416,28.92841129,27.86750015,27.53142967,23.33864799,22.30785619,12.19546616,7.173437506,12.79833317,11.75963315,17.3057567,14.67845241,15.42498763,12.56161555,11.34993986,2.687473085,7.568173943,12.44054354,10.32084191,15.24419851,13.63574066,13.78240318,10.8770868,10.55092288,4.713570865,0.808549105,1,0.995612408,1,1,0.966295589,0.875965566,0.450550638,43.320768,-89.33189475,2019,WIH2
PB80/PHZ51,MOH1_2015,N,13.86666667,731.1212129,0,4.666666667,231.6666667,118.3333333,74.66666667,73.33333333,3.914838722,3.002727248,2.7038834,5.646226268,2.268750012,1.183333344,4.736744086,1.740401796,3.666491943,121.3600004,33.02999973,34.41999933,178.8712478,5.868750036,10.6500001,140.2618746,11.88312507,113.6612502,18.81846694,18.88703156,16.92919735,21.70591481,15.72154266,19.94530069,18.47422179,20.12873028,17.02653892,18.28451609,18.00181831,23.77805456,28.93028285,29.85593748,31.76118019,30.42140763,28.58050013,28.43143147,5.857096827,7.500000065,15.21487777,17.6487962,21.67281234,21.45979159,20.28182538,17.09899995,17.28669369,7.068544315,7.302193139,11.97142579,15.39796361,17.76437491,18.61048589,17.380694,14.99182695,15.05317439,0.723283405,0.814935086,1,1,1,1,1,1,38.8965375,-92.20800417,2015,MOH1
PHB47/PHZ51,WIH1_2016,N,17.81666667,807.9232652,1,6.333333333,251.1666667,125.5,71.83333333,72.16666667,2.076129018,1.94750002,4.430291291,4.068377178,0.606590927,8.204471101,6.520888551,7.285801826,4.413191112,64.35999957,23.37000024,50.66818307,153.9786358,1.017727305,87.41727302,222.4604529,58.95590957,134.9268184,19.92805462,20.9108026,19.53546339,20.65690042,18.97296773,19.76360502,17.50876714,15.21370917,12.23883056,16.70258062,17.57583312,27.08182728,26.49130857,27.22159082,28.35833875,27.6700069,25.1458901,22.98674642,3.327419363,4.990833327,14.04723809,14.47423798,17.58636334,16.7186736,17.17399145,14.32051147,12.5735533,5.875866612,6.419508974,12.98865398,12.92924289,14.50224274,14.72651534,14.55658067,12.23924581,10.7486024,0.621198161,0.7653869,1,1,1,0.999967803,0.998306277,0.970976554,43.05632525,-89.53194975,2016,WIH1
PHG39/PHN82,GAH1_2018,Y,15.725,749.7210395,0,2,227.5,115,62,61.5,4.231249915,1.934999943,5.575464231,3.801027214,1.067857163,3.256190501,3.932246866,3.816857059,2.685023025,135.3999973,11.60999966,76.79571342,135.0185695,1.516428607,29.30571451,107.1921429,19.08428529,83.23571379,16.89130574,18.83037901,19.9789379,20.32622599,17.16636637,17.47509449,19.98058203,18.77657547,18.35496912,25.6268748,28.56500022,25.46428012,27.96417186,30.5753573,30.54857133,31.9994497,33.07128549,33.68336431,12.70062498,14.46999963,11.35988473,14.27301998,20.47928579,20.42444427,20.68398901,21.82542842,22.30905548,11.99291119,13.91639365,11.33534042,13.63652225,17.52732154,17.4865078,18.33967815,19.36985553,19.8838857,0.988973219,1,1,1,1,1,1,1,31.50582525,-83.55515025,2018,GAH1
PHB47/PHZ51,TXH1_2015,N,10.3,746.889232,0,2,141,82,67.25,66.25,2.435333351,0.886666695,4.529386736,2.992210444,0,5.407499953,3.236240411,4.528416659,2.205666663,73.06000052,5.320000172,54.16999972,113.7899998,0,59.48249948,89.11249819,24.54499996,66.1699999,13.38128519,15.80308406,13.73749678,19.48289484,22.46598899,19.96463979,19.54848583,19.57031498,18.03135075,19.61999995,26.26833312,25.8489028,26.4780255,30.37177098,28.79539756,31.9014052,33.48070828,34.35516661,6.122333375,12.74499997,15.39155332,13.69439061,15.83385423,15.9580683,20.41172374,21.45270844,23.93220836,7.516768444,12.28221354,13.06030889,12.7550996,15.35592881,14.67426974,18.11040569,19.30603111,20.37775841,0.822428569,1,0.992325397,0.994092815,1,1,1,0.999431249,30.54708625,-96.43393475,2015,TXH1
B14A/OH43,NCH1_2015,Y,16.45,731.1212129,0,0,225,122,65,64,3.0140625,9.692856925,3.043308324,7.00027835,0,3.411347986,2.886716411,10.31533332,6.56176467,96.44999999,67.84999847,47.46470581,233.8535261,0,30.12176424,80.44058821,53.94764695,203.4147048,18.56641886,18.5514961,20.38733283,17.18369043,24.39251002,21.03629604,20.30189304,17.27178406,15.58503138,22.38312501,24.94999995,23.18034629,27.40244989,31.82117664,31.76743482,33.30845927,33.22968591,31.16039845,8.592187501,12.50999982,10.48535005,18.40286831,19.92058833,21.46261411,22.34001137,22.61282364,21.92468694,9.285127697,11.46773529,10.15801447,14.99239002,17.87088248,18.60652477,19.71826945,19.84422869,18.53531879,0.955334819,1,0.995809598,1,1,1,1,1,35.29657708,-77.5664625,2015,NCH1
PHG29/PHG47,IAH4_2017,Y,19.175,721.7891199,0,2,213.75,105.75,65.25,64.5,3.054193612,4.63857133,5.654282844,2.356146022,0.145000003,0.823262634,3.029939984,2.506485397,3.022032747,94.68000197,32.46999931,92.55000019,79.81000018,0.290000005,7.931363713,110.0431818,17.65818187,91.79227275,19.60434628,22.37855189,18.81628808,21.46940114,22.42332305,21.26952374,19.1513695,15.94205759,15.34138578,17.83935482,25.21428544,21.76755785,28.88340452,30.88984893,30.99338411,28.30609907,26.26622464,25.93438806,4.952580655,10.13999993,10.24708413,15.02150207,17.47128796,18.07608078,15.80662465,13.87026602,12.51354651,6.575243948,10.82301274,9.649960621,14.3656457,16.22810104,16.57398155,14.36597852,12.57546566,12.06214068,0.727396317,1,0.910082199,1,1,1,1,0.987168831,41.99455432,-93.69030947,2017,IAH4
F42/MO17,NYH2_2017,N,21.25,689.9312854,0,10,245,121,77,75.5,4.985806354,2.593333337,3.453715005,5.89688957,0.948070192,3.208418109,2.379655727,2.694333021,3.397972982,154.559997,23.34000003,55.2357889,222.9889478,1.763157895,41.81263091,117.7794744,23.637895,104.1910535,18.91896409,18.22902181,21.62310913,19.28169434,21.2024166,18.91678159,16.97406986,13.88043676,9.439494818,16.54903238,19.80111122,22.34881997,25.65461899,27.16105275,25.3148988,23.28803047,24.25146582,18.24460841,5.239677404,10.2422222,10.55939387,15.21770316,15.87359667,14.84504335,11.5614249,11.15398494,7.352427253,6.267898103,8.570747831,9.793885142,12.80097944,13.68904673,12.46138399,10.55155578,10.87663924,7.688896934,0.638917053,1,1,1,1,0.981507475,0.966916282,0.722284214,42.73248125,-76.65275025,2017,NYH2
TX779/LH195,TXH1-Late_2018,N,11.8,769.7367699,0,2,240,95.5,65.5,65,3.579375003,7.22999986,0.880950212,3.393996506,5.74642872,3.619146949,3.455600496,0.428285708,2.278709721,114.5400001,43.37999916,11.7107143,109.309285,11.49285744,35.41714406,87.15857094,2.141428539,70.64000136,15.18905504,16.98149872,20.4111462,19.99876216,15.81608334,20.1152116,19.58230121,16.39417859,18.61523184,25.42156261,25.48166672,24.9240565,29.86096768,30.55928573,31.11103384,33.47173554,33.67857067,35.62923946,13.73406251,14.7233332,12.14174484,16.97683375,21.17380969,19.92907914,21.60030195,24.8844286,24.53525352,12.24876106,12.9546326,11.47321097,15.6369769,17.86869493,17.49319399,19.34856645,20.63058471,20.90474588,0.995234379,0.961607144,1,1,1,0.999944236,0.999152383,0.999033412,30.546318,-96.4329965,2018,TXH1-Late
CG119/CG108,GAH2_2020,N,14.275,687.6787112,14.75,27.5,197.5,106.75,52.5,52,4.57387094,0.441111114,8.353941854,2.596292498,5.733571683,2.103095203,2.179001438,2.485142878,3.918548365,141.7899991,3.970000029,91.39071568,80.77428585,11.41500051,18.92785683,57.71499962,12.42571439,121.4749993,20.66171874,23.27184486,17.58943298,19.5164109,18.75300796,20.35385684,20.26001561,17.11426864,16.01109332,24.32935487,22.81222216,27.25049476,29.76903398,31.23452386,32.73428517,34.13891635,33.4245718,31.64458511,9.683548431,7.437777784,15.07002369,18.41195949,20.46821458,20.95039675,21.2406723,21.91714281,20.83905522,10.34437265,8.95024402,13.55540875,16.15181668,17.85136922,18.84234096,19.40061188,19.58004094,18.23728962,0.993479262,1,1,1,1,1,1,1,33.72355555,-83.30265185,2020,GAH2
B14A/OH43,GAH1_2018,N,14.135,675.7078885,1.5,2,202.5,90,59,56.5,4.231249915,1.934999943,5.575464231,3.801027214,1.067857163,3.256190501,3.932246866,3.816857059,2.685023025,135.3999973,11.60999966,76.79571342,135.0185695,1.516428607,29.30571451,107.1921429,19.08428529,83.23571379,16.89130574,18.83037901,19.9789379,20.32622599,17.16636637,17.47509449,19.98058203,18.77657547,18.35496912,25.6268748,28.56500022,25.46428012,27.96417186,30.5753573,30.54857133,31.9994497,33.07128549,33.68336431,12.70062498,14.46999963,11.35988473,14.27301998,20.47928579,20.42444427,20.68398901,21.82542842,22.30905548,11.99291119,13.91639365,11.33534042,13.63652225,17.52732154,17.4865078,18.33967815,19.36985553,19.8838857,0.988973219,1,1,1,1,1,1,1,31.50582525,-83.55515025,2018,GAH1
LH198/PHZ51,ONH2_2017,N,20.65,903.6040342,0.5,3,235,109,40.5,38,3.566774253,5.816000056,0.640467161,2.602850346,0.276190468,0.553043346,1.774150425,1.832219351,2.40528059,110.5700018,58.16000056,8.999047586,96.02571482,0.552380936,6.918571438,78.70857161,24.06619065,72.98142847,18.8542372,16.74867072,24.21291039,19.37094181,21.19715784,20.84705237,17.61151759,14.253685,9.927824707,15.7532257,18.68899984,23.40262829,26.34974997,26.59380949,26.86065013,24.57225317,22.91748616,20.00596815,5.764838726,10.96000004,12.03359118,16.18007827,16.63301581,15.91920336,13.14574071,11.27177775,10.10650586,6.141928302,8.38660306,10.68394655,13.52521671,13.7753985,13.64998718,11.58821465,10.41552723,9.107414304,0.598502303,0.966571423,1,1,1,0.999084662,0.956230826,0.8300025,42.45293025,-81.8827315,2017,ONH2
B73/MO17,GAH2_2020,N,14.125,706.0211008,3.5,36.5,261,137.5,63.5,61.75,4.57387094,0.441111114,8.353941854,2.596292498,5.733571683,2.103095203,2.179001438,2.485142878,3.918548365,141.7899991,3.970000029,91.39071568,80.77428585,11.41500051,18.92785683,57.71499962,12.42571439,121.4749993,20.66171874,23.27184486,17.58943298,19.5164109,18.75300796,20.35385684,20.26001561,17.11426864,16.01109332,24.32935487,22.81222216,27.25049476,29.76903398,31.23452386,32.73428517,34.13891635,33.4245718,31.64458511,9.683548431,7.437777784,15.07002369,18.41195949,20.46821458,20.95039675,21.2406723,21.91714281,20.83905522,10.34437265,8.95024402,13.55540875,16.15181668,17.85136922,18.84234096,19.40061188,19.58004094,18.23728962,0.993479262,1,1,1,1,1,1,1,33.72355555,-83.30265185,2020,GAH2
PHW52/PHN82,KSH1_2015,N,15.35,768.4495847,0,2,229,110,85,82,0.688124985,3.518749885,2.537239536,4.634326915,6.340784251,4.013516285,5.753010874,3.95559662,1.81791271,22.01999953,28.14999908,47.40176476,147.1705882,9.165882307,38.18235242,161.646473,23.74705871,56.35529401,19.48910828,20.34062409,19.21958791,21.30664108,18.00351726,18.80818483,18.60066932,17.86718078,18.78253622,17.69406253,22.96750021,19.85221485,29.31892792,29.11705877,31.41670577,31.16760655,30.50505886,29.96204923,3.297187492,8.938749969,8.792561365,16.998743,18.09705929,19.84989561,20.1377744,20.03282345,17.06836811,6.184738542,9.476230158,8.381520189,15.38816616,15.61697663,17.65547515,17.65556265,17.32458654,15.75670183,0.6778125,1,0.850138809,1,1,1,1,0.98304554,39.21641775,-96.60482225,2015,KSH1
LH82/PHB47,ILH1_2015,N,13.5,727.2596572,0,0,200,75,64,64,4.343437491,1.296153843,7.654899739,5.34311295,3.674999952,2.467291633,4.647268051,0.712819956,1.951907909,138.9899997,16.84999996,99.86750055,177.342501,7.349999905,22.2056247,144.0256246,5.039375113,60.06187434,19.4076893,20.21820178,17.58012378,22.59231729,17.35775694,20.12242863,18.79551315,20.37165926,16.80998738,15.69375022,16.27615364,23.81483975,28.77428317,30.28249967,31.91701372,28.65899596,28.4854072,27.09877011,2.916875011,4.602307732,13.93389792,16.26044709,20.47749984,20.41381959,17.79543547,15.77196732,14.62672175,5.339800043,5.921635642,11.53105666,14.7484369,17.37999976,18.17178164,15.31569586,14.44648847,13.36421336,0.599162964,0.636840646,1,1,1,1,1,0.99828125,40.05982425,-88.23397575,2015,ILH1
PHB47/PHN82,NEH4_2017,N,20.45,765.2316216,0,2,117,54.5,65,64,4.590322548,9.024000108,0.479867887,3.811963874,0.538484848,1.684924238,2.267850047,4.65714279,3.86350146,142.299999,90.24000108,5.110000134,117.465454,1.615454544,15.13454541,79.63181698,32.59999953,117.4254543,19.43913734,17.21531701,24.1724839,20.95919975,19.50871722,19.21508163,18.90739129,17.69743939,15.39985704,20.62225799,19.52599983,28.59420128,30.06742287,31.22545445,32.42712118,28.61649727,28.47933405,26.83248677,7.519354824,9.509000063,13.57084537,16.75424147,19.44181835,20.40977276,17.16375472,15.74751643,13.71007622,8.50655754,8.450389052,13.62685976,15.58817353,17.34314748,18.36849178,14.97842881,14.34457974,12.87682879,0.797626729,0.881249991,1,1,1,1,1,0.994264069,41.162,-96.409,2017,NEH4
TX951/LH195,OHH1_2015,Y,24.7,745.9238431,0,0.5,267,134.5,69.5,68,4.820000016,2.056666652,1.801667061,2.430255425,2.070588264,2.75488235,3.664772063,1.623969288,1.874022108,149.4200005,12.33999991,20.27235275,82.00588303,2.23529414,26.29176468,128.0200007,12.16764697,57.18411674,17.71339239,20.831882,20.85048625,20.93566426,20.28419298,19.59839119,17.66236547,17.23782846,14.83481447,16.95064511,28.03666687,26.64173705,29.01382079,31.07970569,30.59522857,27.99762273,26.69097183,23.34659959,5.9283871,15.42166694,14.66308043,16.74801267,19.23764672,18.74322206,16.69895781,13.90980629,10.26308727,6.580773377,14.04730329,13.19467995,15.08203889,17.16864649,16.69143216,14.53513226,12.92347397,10.29932856,0.672569122,1,1,1,1,1,0.994932126,0.947361455,39.855785,-83.66477375,2015,OHH1
LH198/PHZ51,MOH2_2015,N,14.6,731.1212129,0,0,227.5,102.5,73.5,72.5,3.914838722,3.534545422,2.891676029,5.446623968,2.505882375,1.1137255,5.068586465,0.980448186,4.011119538,121.3600004,38.87999964,35.23176398,173.6929392,5.011764751,10.0235295,148.9223525,6.487058864,124.3447057,19.08701148,18.12534948,17.16717858,21.59629129,16.88945411,20.34516158,18.32895435,19.90608894,16.95494386,18.756129,18.24727275,23.87322904,29.02836507,30.59176479,31.93248319,30.27285599,28.73220747,28.34062618,6.152580692,8.059091026,15.30129973,17.80114352,21.94705907,21.39261428,20.17023127,17.40519331,17.20941189,7.288196993,7.58478923,12.05891064,15.51775091,18.26941193,18.66254873,17.2518739,15.21359182,14.97078901,0.75554147,0.814935086,1,1,1,1,1,1,38.89807917,-92.2079,2015,MOH2
PHW52/PHM49,WIH2_2016,Y,21.15,817.3626235,0,2,261.5,122.5,64.5,64,2.185483832,6.563333432,3.447094458,4.124693788,6.707159024,6.158880111,5.945293137,1.654273513,4.758742445,67.74999878,39.38000059,44.45545418,149.2718189,18.91272705,63.86318129,228.7613642,17.11772738,143.1609097,20.07161814,17.64681498,20.48120554,20.03716075,21.00097141,18.73971629,16.31911952,14.94670844,10.3303759,18.34677419,27.65666644,25.59626749,27.3504729,29.44640147,29.15349181,26.70938079,24.21329019,20.37268081,4.840000014,15.2516667,12.43660419,15.21846351,16.18390156,17.81047537,15.29826924,12.0891497,9.537770322,6.76617685,13.67923016,11.77429452,13.6256578,15.0809804,15.56950508,13.35737665,11.10536848,8.849967039,0.729688939,1,1,1,1,0.998061418,0.979766622,0.886131912,43.32649075,-89.33882925,2016,WIH2
WF9/H95,ONH2_2016,N,21.65,718.8929531,0,41,258,109,76,71,1.435483875,1.740833327,1.463802716,3.022687524,0.150999999,1.134659085,3.046446673,1.693503778,2.765116665,44.50000012,20.88999993,18.84600039,117.1590009,0.150999999,12.25349994,101.0444998,13.16149993,84.26899996,19.72563927,22.19747464,21.68954048,21.77365896,18.98664827,19.92678304,16.69906166,15.68152671,12.9072029,14.10741935,17.58083336,26.00758685,26.04894451,27.78099985,28.79287246,28.2480382,25.9224786,23.75348014,4.257419363,7.13166666,15.03828811,14.1477789,17.72699971,17.33924119,18.24672102,15.95494667,14.17526013,5.131346137,6.986841243,12.85116395,12.65171997,14.84296497,15.26027205,15.31782021,13.26534606,11.67621189,0.511244241,0.799851209,1,1,1,1,1,0.975829282,42.4530035,-81.88279875,2016,ONH2
B14A/OH43,MIH1_2016,N,24.65,669.3363216,0,14.5,232.5,124.5,63.5,62.5,3.213870927,0.372000003,1.277668238,2.072144594,0.204761899,2.382636341,6.277866916,3.129595251,4.115734243,99.62999874,1.860000014,16.77857134,74.4033328,0.614285696,24.34142835,217.3680916,23.88571438,123.5814282,20.04481233,22.69628944,22.57460654,21.19066928,19.62511718,19.41470496,17.43536011,14.16523572,12.41239439,17.74322581,29.20999985,25.57947765,28.1508514,27.23547651,30.32783564,28.27294529,26.6388532,22.50219404,5.299677434,16.33600006,11.90361174,14.70447611,15.74579377,17.52671,16.25511672,15.58650841,10.86825081,6.615827776,14.89908974,11.62365975,13.82943527,13.70908531,16.01583991,14.48649579,13.48265,10.09129455,0.734400922,1,1,1,1,0.999987733,0.99326559,0.936590208,42.41206675,-84.2952625,2016,MIH1
PHB47/PHZ51,ONH2_2016,N,17.675,697.0108042,0,3.25,229.25,97.75,72,68,1.435483875,1.740833327,1.463802716,3.022687524,0.150999999,1.134659085,3.046446673,1.693503778,2.765116665,44.50000012,20.88999993,18.84600039,117.1590009,0.150999999,12.25349994,101.0444998,13.16149993,84.26899996,19.72563927,22.19747464,21.68954048,21.77365896,18.98664827,19.92678304,16.69906166,15.68152671,12.9072029,14.10741935,17.58083336,26.00758685,26.04894451,27.78099985,28.79287246,28.2480382,25.9224786,23.75348014,4.257419363,7.13166666,15.03828811,14.1477789,17.72699971,17.33924119,18.24672102,15.95494667,14.17526013,5.131346137,6.986841243,12.85116395,12.65171997,14.84296497,15.26027205,15.31782021,13.26534606,11.67621189,0.511244241,0.799851209,1,1,1,1,1,0.975829282,42.4530035,-81.88279875,2016,ONH2
B73/PHM49,ONH1_2016,Y,31.05,637.1566908,0,1,217.5,129,86.5,84,1.979032247,2.105714291,0.92181366,1.439738287,4.720833318,2.435439396,4.62931563,1.31185227,2.043303741,61.34999967,29.48000008,13.31600007,60.28400005,10.99249999,28.54150001,172.0475013,11.37649985,61.38049932,20.24883872,21.56727634,23.77365349,22.41142308,19.3081847,20.61473607,17.12813691,15.31534219,11.6349499,10.49290321,16.47999988,25.01561457,25.51466922,28.22516696,27.99415914,27.31356147,24.49017951,20.3886015,-0.735806467,3.753571405,10.93050922,11.61184699,15.55325019,14.71775745,15.07244109,12.71620509,9.185787659,3.269306411,5.688768484,11.09209761,11.56175859,14.2216101,13.76399544,13.57642435,11.5133866,8.776899495,0.291105988,0.684668367,0.99891379,0.988093962,1,0.998165816,0.971212584,0.877977401,43.4997965,-80.451125,2016,ONH1
CG119/CG108,TXH3_2019,N,14.21,745.3703534,0,0,150,48.5,63.5,62,1.71448275,0.072857141,3.656594302,9.095434564,0.409285716,1.207678571,5.355850783,1.246142852,1.574419343,49.71999974,0.50999999,52.00785631,328.2121388,0.592857139,9.661428571,146.4478573,6.531428533,47.51499965,15.42805705,20.52131135,18.76898834,18.57032559,21.42349659,18.85281525,20.14881361,21.03072751,19.84089234,18.45000007,25.76428577,24.43254944,27.27586732,31.09000002,32.37866099,32.72435205,34.04471448,34.98200776,6.826206914,10.35000004,10.67963154,14.78766739,18.65857179,21.85071427,21.02442735,21.79614282,22.6049739,7.457816468,11.1589152,10.85119479,13.46630403,16.91193677,19.11412105,18.84765314,19.77807102,20.01419559,0.749667494,1,0.945308164,1,1,1,1,0.999698925,30.546318,-96.4329965,2019,TXH3
CG44/CGR01,MNH1_2015,Y,14.65,711.1698417,2.5,0.5,212.5,112.5,67.5,64.5,2.676451665,6.10285713,1.587216104,4.707726326,2.093823531,4.685775359,5.935015669,2.223261507,2.198788145,82.97000162,42.71999991,19.59000013,155.007059,3.965294123,52.23235247,227.0947085,20.90117698,67.40117758,19.81693462,15.87546921,21.62818458,20.65236193,17.21434565,21.12123323,17.7408483,14.5374504,12.06297535,17.43387093,22.63000025,27.28921799,28.46423671,28.36529418,28.07899716,26.14089523,24.73259507,17.90095705,4.567419307,13.73428563,14.30007362,16.89716897,18.65411764,16.19745995,14.75643511,13.57280729,6.634647692,6.2838161,10.87437977,13.26905608,14.87023808,15.64114514,14.35392043,12.99006372,12.46836687,7.55733068,0.722983866,1,1,1,1,0.977703003,0.878626049,0.721229646,44.07038575,-93.53519625,2015,MNH1
B37/MO17,MOH1_2_2020,N,18.58,731.1212129,13.4,0.2,246,108.4,58.4,55,2.765624954,8.119999743,10.23533287,1.900197364,6.862941181,7.496322061,3.61617108,2.901626778,3.303786197,88.49999854,40.59999871,96.12411712,56.39411764,8.455882353,68.01117661,117.8082348,21.52705885,101.3270584,18.75466287,21.25211372,22.58999711,20.28617166,20.64270943,17.48834951,18.15902921,17.2011884,14.69335169,22.18656257,30.76999931,28.84882905,30.74339714,30.90558787,31.2308437,28.74780649,29.21697892,24.17436303,12.23093753,19.21800041,17.30516703,20.0610583,19.70343171,21.50444419,18.15153395,17.40346693,12.7162556,10.41798935,16.99399986,15.18178367,17.42227064,17.30450979,18.37429674,15.5665539,15.53509051,11.41105442,0.936383936,1,1,1,1,1,0.996694042,0.965786214,38.8958275,-92.2071575,2020,MOH1
PHG29/PHG47,MOH1_2017,N,16.1,731.1212129,0,18.5,228.5,118.5,59,59,8.937741737,9.40166688,2.512230721,3.318030003,5.035714369,1.794490762,1.996986524,1.220079397,1.67255761,277.0699939,56.41000128,33.26619119,103.9014299,11.93095259,15.87761924,65.30142803,7.334762096,51.25476209,18.72482054,18.08832916,22.62422694,21.00800173,18.77514496,19.93438148,19.70533138,19.36646121,17.34329115,21.92032254,25.32999992,25.47495036,29.30087203,30.46650729,32.25412016,29.92026774,28.22145964,28.04827898,10.06000005,15.27666648,12.99827088,17.39768618,19.78222205,21.21359122,18.70404881,16.33857143,14.9717184,9.612847321,12.76903024,11.94928206,15.49761919,17.12130987,18.67277384,16.20463701,14.48208578,13.92850008,0.915472353,1,1,1,1,1,1,0.999239796,38.89264,-92.2057525,2017,MOH1
PHN11_PHG47_0251/PHB47,TXH1_2016,N,13.55,698.941582,0,2,178,52,67,66,1.633666698,16.13999993,0.99702422,4.719865603,0.129393939,3.277272727,13.06232457,0.703636358,1.017125621,49.01000094,112.9799995,14.5313639,177.3549991,0.33090909,36.05,378.0672674,3.179999969,30.53454577,13.9726292,10.72874144,17.88940951,17.80076093,20.55685321,19.77792414,17.90480363,20.8338604,20.14326093,22.32500016,23.95000022,24.48309256,26.40498513,28.5388636,28.63545455,30.12870319,34.35404525,35.58838723,6.034666632,13.33571414,9.675379644,13.12758779,15.78530267,16.33764454,20.13902853,23.08186362,24.00118421,8.473379033,11.29783551,10.5045992,12.46111665,14.43681279,14.72204148,17.12368238,20.53225114,20.87599038,0.915869048,1,0.972225207,1,1,1,1,1,30.54708625,-96.43393475,2016,TXH1
W10005_0107/PHB47,NYH2_2016,N,20.65,731.1212129,0.5,2,148.5,70.5,73.5,69.5,2.034516133,1.030000001,1.88805842,0.867300396,1.140952366,2.326450204,3.376451109,4.287746575,3.208572451,63.07000011,12.36000001,22.4085716,34.4438095,2.622857094,25.59095225,116.65619,31.75809508,97.82571426,19.21240982,23.35584625,23.40556822,22.17883586,23.94456446,21.25361649,17.18897092,16.17245816,13.35906413,14.04935483,18.68749992,27.50851283,26.23633728,28.78071431,29.31692664,28.41638555,26.44500865,23.15297547,1.686774175,4.439999988,12.92699036,12.85534504,13.89476193,15.65588736,16.863818,13.58818034,10.55762265,4.511298309,6.607155497,12.88765676,12.33330427,13.7996272,14.74166699,14.82295673,12.66050813,10.26842414,0.447315667,0.804761906,0.999400038,0.994542932,1,0.999880088,0.994843294,0.949842165,42.726117,-76.655339,2016,NYH2
PHW52/PHN82,TXH3_2020,N,10.02,1783.716938,0,2,224.79,74.93,60.75,59.75,3.45875001,5.345714297,0.996479651,4.090893152,11.37176514,0.055555557,3.334418123,0.880352915,2.226110039,110.6800003,37.42000008,12.08058808,124.9758839,22.74353027,0.450000013,88.32823513,3.714117541,69.00941121,15.8034201,18.34009743,21.30541133,19.40762275,20.16580067,20.62125497,19.02899565,16.94703156,18.75160362,25.77062485,24.00285694,27.63577502,29.95402965,30.19186265,32.38063702,33.36328143,35.03835301,35.63206825,14.19906271,12.24428552,13.92062761,17.60156859,18.33921522,21.14142164,21.88591696,25.71364726,24.34760913,12.60372436,11.20425028,13.29865333,15.96364287,16.27361839,18.69618421,19.4144726,21.47019646,20.81901077,0.989866069,1,1,1,1,0.99995416,0.999321567,0.998827006,30.53869475,-96.4274175,2020,TXH3
F42/H95,MOH1_1_2020,N,13.06666667,731.1212129,1.333333333,0.333333333,229.3333333,90.66666667,56.33333333,54.66666667,2.765624954,8.119999743,10.49656654,1.909885915,5.802857127,7.415295831,3.691475556,2.293301892,3.400930865,88.49999854,40.59999871,96.7978566,57.0957143,7.737142835,67.39857156,118.848571,17.52928566,104.715714,18.75466287,21.25211372,22.49923535,20.31658939,20.84622072,17.68630925,18.12476098,17.46293798,14.64158327,22.18656257,30.76999931,28.86546125,30.72469998,30.62226157,31.26253243,28.67352632,29.54480095,24.35225034,12.23093753,19.21800041,17.35636515,20.03188031,19.40511944,21.45309498,18.10676495,17.58972003,12.9136675,10.41798935,16.99399986,15.213465,17.3995364,17.01369051,18.36589209,15.51205264,15.80164337,11.56818364,0.936383936,1,1,1,1,1,0.995985623,0.962870504,38.8978375,-92.2070925,2020,MOH1
B37/MO17,INH1_2018,Y,22.82,849.7353322,3.5,2,264,126,63.5,61.5,2.767096756,4.68454543,2.7337539,2.608245307,0.180000007,3.094468228,3.412660528,0.546071422,1.653962344,85.77999943,51.52999973,31.28214284,86.61642764,0.256428582,29.52071404,116.6621433,3.926428522,50.80214219,18.97651723,17.84080185,18.4751702,21.91502565,21.1577316,19.53552192,18.82147066,19.16946561,15.73843824,16.02451609,18.1199998,25.33039297,28.95851984,31.36964308,31.15694425,28.16765345,28.4284546,26.00206774,3.260645186,6.861818249,15.08608447,16.0398559,19.18499974,18.88806934,16.73005964,15.8360335,13.18834038,5.572938243,7.259226835,12.75390782,14.76719288,17.27732141,17.05840253,14.63863294,14.40004061,12.39915253,0.613732714,0.707012975,1,1,1,1,1,0.979968538,40.4787825,-86.9898145,2018,INH1
PHN11_OH43_0001/PHB47,NYH2_2016,N,18.25,731.1212129,18.5,4.5,186,82,74,70,2.034516133,1.030000001,1.88805842,0.867300396,1.140952366,2.326450204,3.376451109,4.287746575,3.208572451,63.07000011,12.36000001,22.4085716,34.4438095,2.622857094,25.59095225,116.65619,31.75809508,97.82571426,19.21240982,23.35584625,23.40556822,22.17883586,23.94456446,21.25361649,17.18897092,16.17245816,13.35906413,14.04935483,18.68749992,27.50851283,26.23633728,28.78071431,29.31692664,28.41638555,26.44500865,23.15297547,1.686774175,4.439999988,12.92699036,12.85534504,13.89476193,15.65588736,16.863818,13.58818034,10.55762265,4.511298309,6.607155497,12.88765676,12.33330427,13.7996272,14.74166699,14.82295673,12.66050813,10.26842414,0.447315667,0.804761906,0.999400038,0.994542932,1,0.999880088,0.994843294,0.949842165,42.726117,-76.655339,2016,NYH2
PHG39/PHN82,NEH2_2015,N,16.55,742.0622874,0,1,229,110,97.5,95.5,1.358750008,3.755999994,3.031264216,1.286090902,0.286666671,1.657187527,3.751759362,0.157499999,0.616713691,43.48000026,37.55999994,66.29000026,43.49999976,0.860000014,16.57187527,117.6431233,0.944999993,18.99062441,19.53783247,19.98656282,18.8528682,23.65152674,23.21232343,22.7312118,19.62767813,21.61948185,18.20728239,15.03874992,23.15200024,18.66927583,30.14561768,32.37510385,32.60862507,30.36489819,32.31320816,28.31448706,-2.426562488,5.230999994,5.264051067,13.5723423,16.5714581,16.13087479,15.9646131,15.56819047,11.19634675,4.192485347,8.478296732,6.894904354,14.37610508,16.560328,16.47008009,15.3434088,16.05261291,12.83173005,0.519497764,0.97653572,0.809891265,1,1,1,1,0.922021698,41.0514495,-100.7471915,2015,NEH2
LH74/PHN82,IAH3_2015,Y,18.1,731.7648055,0,3,256.5,121.5,65,64,1.888124991,2.913571392,3.784813995,6.971928843,0,3.257500064,1.487385228,2.541446469,4.507444947,60.41999972,40.78999949,55.43999982,241.6600003,0,32.57500064,50.31437471,24.68500039,138.7756267,19.80172794,20.03998334,15.9141292,20.68283491,21.69136486,21.24428636,20.63784564,18.68301758,14.92198489,14.64187506,16.6814285,21.6371088,27.61372247,30.87885427,30.3035625,28.596254,28.51656267,24.33389908,0.83250004,3.600714236,12.24542872,16.05178152,19.47364565,18.11006255,15.99319583,14.30373217,10.64901215,4.605131548,5.787499831,10.11465775,14.1164012,17.17624996,16.25391669,14.57670766,13.97583386,10.87542788,0.501462055,0.634540813,0.981270753,1,1,1,0.968879463,0.933929792,41.97585629,-92.24291804,2015,IAH3
CG44/CGR01,NYH2_2016,N,17.575,731.1212129,0,1.75,159,80.5,66.5,65.5,2.034516133,1.030000001,1.88805842,0.867300396,1.140952366,2.326450204,3.376451109,4.287746575,3.208572451,63.07000011,12.36000001,22.4085716,34.4438095,2.622857094,25.59095225,116.65619,31.75809508,97.82571426,19.21240982,23.35584625,23.40556822,22.17883586,23.94456446,21.25361649,17.18897092,16.17245816,13.35906413,14.04935483,18.68749992,27.50851283,26.23633728,28.78071431,29.31692664,28.41638555,26.44500865,23.15297547,1.686774175,4.439999988,12.92699036,12.85534504,13.89476193,15.65588736,16.863818,13.58818034,10.55762265,4.511298309,6.607155497,12.88765676,12.33330427,13.7996272,14.74166699,14.82295673,12.66050813,10.26842414,0.447315667,0.804761906,0.999400038,0.994542932,1,0.999880088,0.994843294,0.949842165,42.726117,-76.655339,2016,NYH2
B73/MO17,GAH2_2018,Y,15.15,734.9827686,0,2,255.5,119,54.5,53,4.849677459,0.472857135,6.389842835,2.50728713,2.625000003,3.795198411,2.499668454,2.828785729,3.724124467,150.3400012,3.309999943,84.90856965,76.95785742,5.387857173,33.84785713,66.14142865,15.06428581,115.4478585,20.49558812,21.88511535,20.33298503,19.15998772,23.51626716,19.70790798,20.02489003,19.42019064,16.00793598,23.5748387,25.80428559,25.09824669,29.4338755,32.57678595,32.30446448,33.95531338,34.12885699,31.99587548,8.787742034,10.57714278,11.20780819,18.18961495,18.46904782,20.57888879,21.25284753,21.08492862,21.01629033,9.717543295,11.3392147,11.23425566,15.89113211,17.53376954,18.44167663,19.31882395,19.47290933,18.49284767,0.993778801,1,1,1,1,1,1,1,33.71560925,-83.30894675,2018,GAH2
CG60/LH162,MOH1_2017,N,16.3,731.1212129,3,4.5,184,76.5,55,54,8.937741737,9.40166688,2.512230721,3.318030003,5.035714369,1.794490762,1.996986524,1.220079397,1.67255761,277.0699939,56.41000128,33.26619119,103.9014299,11.93095259,15.87761924,65.30142803,7.334762096,51.25476209,18.72482054,18.08832916,22.62422694,21.00800173,18.77514496,19.93438148,19.70533138,19.36646121,17.34329115,21.92032254,25.32999992,25.47495036,29.30087203,30.46650729,32.25412016,29.92026774,28.22145964,28.04827898,10.06000005,15.27666648,12.99827088,17.39768618,19.78222205,21.21359122,18.70404881,16.33857143,14.9717184,9.612847321,12.76903024,11.94928206,15.49761919,17.12130987,18.67277384,16.20463701,14.48208578,13.92850008,0.915472353,1,1,1,1,1,1,0.999239796,38.89264,-92.2057525,2017,MOH1
LH82/PHB47,INH1_2015,N,14,722.1109162,0,4,168,66,66,66,2.968064535,5.608750075,2.401797478,2.620596579,1.049062505,3.048312443,3.454130844,1.332533481,1.484370975,92.01000059,44.8700006,26.44312483,85.12437463,1.715625018,30.48312443,116.5724995,9.316249996,45.68062523,19.44608656,13.59046638,21.88315593,21.65689439,20.60130358,19.73326552,18.77560381,17.99738388,15.64927463,15.67580632,21.0562501,27.44396829,29.52449332,32.66781175,30.16981242,28.17317586,28.46934151,25.5406298,3.004516139,13.05249977,15.22068343,16.62214482,19.56843758,18.02818774,16.71489706,16.46563638,12.56847521,5.360930658,9.9438759,13.725819,15.26696414,18.11812466,16.1828721,14.63810214,14.67667849,11.95902497,0.609504607,1,1,1,1,1,1,0.986081101,40.477075,-87.000205,2015,INH1
PHP02/PHB47,WIH1_2016,Y,19.3,760.0828806,0,1.5,242.5,140.5,69,69,2.076129018,1.94750002,4.430291291,4.068377178,0.606590927,8.204471101,6.520888551,7.285801826,4.413191112,64.35999957,23.37000024,50.66818307,153.9786358,1.017727305,87.41727302,222.4604529,58.95590957,134.9268184,19.92805462,20.9108026,19.53546339,20.65690042,18.97296773,19.76360502,17.50876714,15.21370917,12.23883056,16.70258062,17.57583312,27.08182728,26.49130857,27.22159082,28.35833875,27.6700069,25.1458901,22.98674642,3.327419363,4.990833327,14.04723809,14.47423798,17.58636334,16.7186736,17.17399145,14.32051147,12.5735533,5.875866612,6.419508974,12.98865398,12.92924289,14.50224274,14.72651534,14.55658067,12.23924581,10.7486024,0.621198161,0.7653869,1,1,1,0.999967803,0.998306277,0.970976554,43.05632525,-89.53194975,2016,WIH1
B37/MO17,INH1_2016,N,21.35,635.8695056,50,17.5,270,146.5,66,63.5,3.034516148,1.382857186,3.106568823,3.966270256,3.500454469,6.752636371,3.451172643,3.198528118,3.024422797,94.07000059,9.680000305,31.26000059,138.8759105,3.500454469,67.52636371,113.8927274,21.6654544,92.62590972,17.63328649,23.97511796,20.66441577,20.1236558,19.9706746,19.39149484,18.14527656,15.98533716,14.62820237,18.74516109,26.31142807,27.84898846,28.12893417,28.20272714,29.14504538,29.16779001,27.95564941,27.07739093,7.950322636,11.69428553,16.31817922,16.10606538,16.8522731,18.34872752,18.58889605,17.50284626,15.03841012,7.677100472,11.91689015,14.24288378,14.4184555,14.68521604,15.7994256,15.9329094,14.92238151,13.51734692,0.852649763,1,1,1,1,1,1,0.996102814,40.4787595,-86.98982,2016,INH1
W10005_0107/PHB47,COH1_2017,N,25.225,620.1014864,7.75,6.25,210.25,87,69,68,3.393124943,0,0.001708684,0.360843908,0.891428554,3.560382097,1.42287895,1.565670675,1.770870451,108.5799982,0,0.02904762,12.29476177,1.600476163,43.78523833,56.48285717,21.02523811,53.20285701,22.26802993,25.65694836,25.9931063,24.2875628,21.26982858,19.37652668,19.65631787,15.92591012,11.99136935,20.38624986,26.27857154,29.00990249,30.95750085,32.84396765,29.24597739,27.87075516,24.49812031,17.64004964,4.676250031,9.955714362,11.44166305,13.33492254,15.64190474,14.2894836,11.55992968,8.650869984,2.505724526,7.387813889,11.22152513,12.97827389,14.53136664,16.23032426,14.11586508,12.58015619,10.40568176,6.007000116,0.859799101,1,1,1,1,0.978368119,0.882220332,0.653649732,40.64850025,-104.9997825,2017,COH1
B73/MO17,ONH2_2019,N,30.1,689.9312854,9.5,3.5,273.5,122,62,60.5,3.148749955,1.707142813,2.884788786,4.447732757,0.559615387,2.381315681,1.591062148,2.963873616,2.693056068,100.7599986,11.94999969,28.24076917,155.5976948,1.398461539,27.51692318,83.67846091,41.8892306,82.50307587,19.66548085,22.32332843,21.1459014,19.53903082,19.21471346,16.24443645,13.80926932,11.15414419,7.415876262,21.25437486,24.3300002,28.12065395,27.65940311,26.58807711,26.0777262,22.19925608,19.8977064,9.549499144,11.33624993,14.43999985,17.94791472,17.45486711,16.31807709,16.95925516,13.13253797,10.95349597,1.834706344,9.515816833,11.92539607,15.12217856,14.69848405,13.62366511,13.69445237,10.64536319,9.344594814,3.453371008,0.985803572,1,1,1,1,0.93986372,0.838029257,0.289255913,42.45221275,-81.881844,2019,ONH2
PHG39/TX205,INH1_2016,Y,21.7,675.7722478,0,5,273,131.5,66.5,65.5,3.034516148,1.382857186,3.106568823,3.966270256,3.500454469,6.752636371,3.451172643,3.198528118,3.024422797,94.07000059,9.680000305,31.26000059,138.8759105,3.500454469,67.52636371,113.8927274,21.6654544,92.62590972,17.63328649,23.97511796,20.66441577,20.1236558,19.9706746,19.39149484,18.14527656,15.98533716,14.62820237,18.74516109,26.31142807,27.84898846,28.12893417,28.20272714,29.14504538,29.16779001,27.95564941,27.07739093,7.950322636,11.69428553,16.31817922,16.10606538,16.8522731,18.34872752,18.58889605,17.50284626,15.03841012,7.677100472,11.91689015,14.24288378,14.4184555,14.68521604,15.7994256,15.9329094,14.92238151,13.51734692,0.852649763,1,1,1,1,1,1,0.996102814,40.4787595,-86.98982,2016,INH1
PHB47/PHN82,NYH1_2017,N,16.75,731.1212129,0,5,222.5,83.5,75.5,74.5,4.758709581,4.139999986,2.953024942,5.715506232,4.320872878,2.701732063,2.616328443,1.022630585,3.614268439,147.519997,37.25999987,45.12618999,219.9223815,11.26857107,35.6957141,128.4247627,13.30476207,110.8900009,18.97444351,17.81005277,22.0763727,19.38397475,18.56141379,19.22534974,16.71382568,13.43506643,9.037548332,17.06967752,20.23333359,22.7745171,25.66488699,26.70396817,25.32691524,23.26007272,23.96840526,17.61119819,5.964193534,10.19,10.93717632,15.20362294,16.36293638,14.60656728,11.31793404,11.56685323,6.669544781,6.641127344,8.727253675,10.15270493,12.79474615,13.71935226,12.37567782,10.45035179,10.9124923,7.239151369,0.685760371,1,1,1,1,0.982493678,0.953634339,0.701363064,42.72880835,-76.6515625,2017,NYH1
B14A/H95,IAH4_2015,Y,16.8,738.8443243,0,11,249,133,65,64,1.42451612,4.854615514,2.513668144,6.351127419,5.46999979,2.154687441,1.85099418,0.335758934,4.064770202,44.15999973,63.11000168,35.58999979,218.2399999,10.93999958,20.30812445,58.48687407,2.377500039,125.1143763,19.83997888,19.28772805,16.02270398,20.69822917,17.27718186,21.35831173,20.17303565,19.59360772,15.6142427,15.83032262,16.78769229,22.26164163,27.88725423,29.37999988,31.52784708,28.69895342,30.18404469,25.46833276,2.473548389,5.024615425,13.48280789,16.59868734,20.37374985,19.78628468,17.37298211,16.89515858,12.68514048,5.318693913,6.228847238,10.78291245,14.47529064,16.87687486,17.66054739,15.18141656,15.71210426,12.05907357,0.585391697,0.659230777,0.98994413,1,1,1,1,0.952600636,41.19970961,-91.49362406,2015,IAH4
LH195/PHN37,OHH1_2017,N,17.2,739.4879169,0,2,229,110,65,64,4.401935447,12.29571451,4.299880116,6.252045262,18.36299991,4.892395558,3.195317293,3.431958172,3.794688752,136.4599988,86.0700016,53.63949916,223.8204996,40.86499989,50.26800107,124.097,30.99400014,115.4320013,19.0647902,19.03427505,21.00226491,20.15032754,19.69555429,18.89580098,18.69837911,16.0400155,13.85510684,20.47903239,25.43142836,25.24002704,27.25803818,28.09541678,28.73270468,26.30456447,24.69395371,24.25720733,8.011935501,13.44999967,12.59882409,15.91673102,16.75358336,18.39824095,14.97688189,13.11535887,11.81284403,8.407228033,12.106522,11.63721293,13.8931373,14.6377479,15.63224373,13.07252875,11.66012039,11.13333271,0.85352535,1,1,1,1,0.996926048,1,0.96495674,39.855785,-83.66477375,2017,OHH1
WF9/H95,IAH3_2015,Y,21.1,697.6543968,7,3,272,130,65,64,1.888124991,2.913571392,3.784813995,6.971928843,0,3.257500064,1.487385228,2.541446469,4.507444947,60.41999972,40.78999949,55.43999982,241.6600003,0,32.57500064,50.31437471,24.68500039,138.7756267,19.80172794,20.03998334,15.9141292,20.68283491,21.69136486,21.24428636,20.63784564,18.68301758,14.92198489,14.64187506,16.6814285,21.6371088,27.61372247,30.87885427,30.3035625,28.596254,28.51656267,24.33389908,0.83250004,3.600714236,12.24542872,16.05178152,19.47364565,18.11006255,15.99319583,14.30373217,10.64901215,4.605131548,5.787499831,10.11465775,14.1164012,17.17624996,16.25391669,14.57670766,13.97583386,10.87542788,0.501462055,0.634540813,0.981270753,1,1,1,0.968879463,0.933929792,41.97585629,-92.24291804,2015,IAH3
B14A/MO17,TXH1-Early_2018,Y,14.05,733.6955833,0,2,210.5,79,71,73,2.442333295,0.87833333,4.91741256,2.91095925,1.112321411,5.987347663,3.094033648,2.445309502,2.573656677,73.26999886,5.269999981,55.2178573,113.3721426,4.449285643,64.36357035,86.72785865,13.67714274,77.357857,13.4988633,14.49154552,13.92485348,19.6618496,19.390827,19.64184359,19.38410293,21.21373351,18.01258323,19.68933331,26.95833333,25.66614373,26.56996845,30.24238085,29.14372996,31.91805433,33.2644762,34.51160554,6.357666679,15.03999996,15.13755815,13.69055459,18.24071415,16.44843436,20.63070323,20.50154739,23.97494014,7.613570572,13.40715604,12.87528071,12.79536137,16.34410207,15.0664779,18.21233438,18.75919739,20.40606275,0.821476194,1,0.991620595,0.99408643,1,1,1,0.999013392,30.546318,-96.4329965,2018,TXH1-Early
B37/MO17,NCH1_2019,Y,15.2,759.439288,0,1,218.5625,101.875,61.5,60,2.191129027,0,0.107342031,4.775073233,0.466011907,4.533660718,6.24100048,2.370892844,2.941295675,67.92499983,0,1.347142833,143.4146411,0.94178571,36.26928575,165.0100003,13.54249993,91.02821354,18.69452832,25.30126673,21.77382428,19.07893176,22.56876209,20.7892765,19.22903807,18.96679552,16.71087377,25.69580629,28.76666609,32.29891346,30.08294473,33.3002377,33.83080339,32.75741781,32.04927549,30.79691829,13.34274195,12.19133326,19.06280588,18.61089734,20.56851188,21.23558053,21.08131414,19.9046464,19.77832645,12.18436683,13.33597385,17.64216348,16.39126772,18.88342746,19.44075481,18.8247811,17.98080212,17.31161093,1,1,1,1,1,1,1,1,35.67010175,-78.510504,2019,NCH1
F42/H95,TXH3_2019,Y,12.635,829.3012666,0,0,209.5,81.5,70.5,70,1.71448275,0.072857141,3.656594302,9.095434564,0.409285716,1.207678571,5.355850783,1.246142852,1.574419343,49.71999974,0.50999999,52.00785631,328.2121388,0.592857139,9.661428571,146.4478573,6.531428533,47.51499965,15.42805705,20.52131135,18.76898834,18.57032559,21.42349659,18.85281525,20.14881361,21.03072751,19.84089234,18.45000007,25.76428577,24.43254944,27.27586732,31.09000002,32.37866099,32.72435205,34.04471448,34.98200776,6.826206914,10.35000004,10.67963154,14.78766739,18.65857179,21.85071427,21.02442735,21.79614282,22.6049739,7.457816468,11.1589152,10.85119479,13.46630403,16.91193677,19.11412105,18.84765314,19.77807102,20.01419559,0.749667494,1,0.945308164,1,1,1,1,0.999698925,30.546318,-96.4329965,2019,TXH3
LH198/PHZ51,NCH1_2017,N,15.6,731.1212129,0.5,2,221,107.5,65,64,5.929354779,4.097142833,0.297958702,3.860588722,6.673809642,5.437090039,2.513672686,1.67758051,4.140460835,183.8099982,28.67999983,4.023333254,115.8195228,10.90952401,51.84571517,65.15761944,9.68857149,128.3542859,16.84796118,19.66078799,22.20077414,19.20396089,15.77249108,20.54839894,18.7994723,19.26606379,16.40835168,26.07000006,23.57857159,28.17011276,29.72614366,31.01404729,30.48814813,32.54721675,31.95695904,30.43138246,13.64064524,11.25142826,15.69757802,18.87536398,22.57674573,19.84793622,22.28039625,21.2748593,20.81350234,12.56442422,10.48784987,14.26665949,16.36044911,18.79940835,17.21144066,19.38557496,18.57336573,17.65269876,0.998329492,1,1,1,1,1,1,1,35.29663725,-77.5668065,2017,NCH1
B14A/OH43,INH1_2020,Y,27.495,641.5974798,0.25,1.75,239.575,128.875,64.75,64,2.63064515,6.092222161,2.380905542,2.638028789,0.629411796,2.977235278,3.349803369,1.095052516,1.575144189,81.54999965,54.82999945,26.35000017,86.90176377,0.755294155,29.77235278,114.9176474,7.60117643,48.41470517,19.12040675,14.46862051,21.68340347,21.75389977,20.24839053,19.66959435,18.78188958,18.00828299,15.45076636,15.20677414,20.6899999,27.1104927,29.42650107,32.0752936,30.36388222,28.15834081,28.66782236,25.41333794,2.934193564,11.51555562,15.17811918,16.46944194,19.37588254,18.23752946,16.66734055,16.5683672,12.52337519,5.193705795,9.337664252,13.54219901,15.16026165,17.73146127,16.3694037,14.61167179,14.83949529,11.90095499,0.576025338,0.994801587,1,1,1,1,1,0.975702381,40.4787965,-86.9895995,2020,INH1
TX777/LH195,TXH2_2020,N,17.425,786.7919742,0,2,215.9,72.39,69.25,71.25,2.284333333,0,4.621906019,2.982124861,1.655000005,6.689114015,2.894056698,2.615892851,2.528400138,68.53,0,55.88714266,111.3664289,1.655000005,70.91857161,82.98143064,12.87071426,76.16571382,13.91343843,13.3863348,15.08661116,19.80328892,19.03358821,19.2160028,19.61198116,21.5690046,17.9190584,20.02266652,27.17999992,26.59088772,26.49063582,29.80749984,29.13094588,32.17534358,33.00407163,34.57616138,6.794333295,17.20400028,15.22554111,13.60666406,17.96904786,16.63267817,20.78659354,19.79317827,24.13923583,7.901247141,14.27292515,13.36557264,12.73068931,16.08957262,15.12192719,18.39831967,18.39239984,20.46927813,0.821357143,1,0.992404768,0.99375244,1,1,1,0.999043315,30.53825625,-96.42790225,2020,TXH2
F42/MO17,IAH1_2015,Y,22.7,689.2876928,0,1,285.5,145,65,64,1.566451638,2.213076954,8.402418557,1.323463692,0.084411761,2.297359398,2.93999255,2.37101191,2.732793763,48.56000078,28.7700004,122.1399999,43.52999979,0.168823523,22.82352863,100.1182349,16.67000003,83.81294001,20.43214903,18.85811498,14.63317728,22.31276759,19.14227258,22.20806523,19.83862588,18.33763158,15.0581957,16.08774191,16.64538457,21.84697853,28.7334183,30.26852911,31.30747052,29.05105531,29.39636272,24.66946357,1.839032284,4.865384661,13.12892854,16.86768962,20.05941139,18.05705196,16.3929614,15.43749916,11.17229855,5.447129731,6.098188577,10.48240964,14.99632473,17.16639266,16.72884186,14.96924927,14.77137221,11.30644361,0.593087559,0.682994502,0.988452545,1,1,0.997626801,1,0.896934674,41.9980952,-93.69336973,2015,IAH1
F42/OH43,WIH2_2020,Y,27.45,661.6132102,7,2,244,114,70,67.5,1.142258063,7.375000167,3.772605813,4.528143625,15.91411821,3.015240613,2.848395651,6.559665308,3.073983535,35.40999997,73.75000167,42.96999988,163.850588,31.01764819,33.16764674,117.7699986,59.84176376,94.45823468,20.73953056,16.04352899,21.23354675,21.58093245,19.01370295,17.88573252,19.32013515,13.57540027,12.27254504,13.56999995,18.91099977,26.0938683,28.2322475,29.46647072,27.75422455,27.09322103,24.80509675,19.00189054,0.762580661,9.396999884,13.99892158,14.99589118,17.7452939,17.49807463,14.22893102,13.29211059,7.459399134,4.176897214,8.107987139,12.68677404,14.02444379,15.66411489,14.70790633,13.20588953,12.26960615,7.833960257,0.443168195,0.881928567,1,1,1,0.990384734,0.880973437,0.780679991,43.294786,-89.383968,2020,WIH2
WF9/H95,INH1_2016,N,20.15,581.8077257,13,36.5,280.5,139,65.5,63.5,3.034516148,1.382857186,3.106568823,3.966270256,3.500454469,6.752636371,3.451172643,3.198528118,3.024422797,94.07000059,9.680000305,31.26000059,138.8759105,3.500454469,67.52636371,113.8927274,21.6654544,92.62590972,17.63328649,23.97511796,20.66441577,20.1236558,19.9706746,19.39149484,18.14527656,15.98533716,14.62820237,18.74516109,26.31142807,27.84898846,28.12893417,28.20272714,29.14504538,29.16779001,27.95564941,27.07739093,7.950322636,11.69428553,16.31817922,16.10606538,16.8522731,18.34872752,18.58889605,17.50284626,15.03841012,7.677100472,11.91689015,14.24288378,14.4184555,14.68521604,15.7994256,15.9329094,14.92238151,13.51734692,0.852649763,1,1,1,1,1,1,0.996102814,40.4787595,-86.98982,2016,INH1
B73/PHN82,TXH1_2016,N,10.35,701.5159525,0,2,207,76,70.5,70.5,1.633666698,16.13999993,0.99702422,4.719865603,0.129393939,3.277272727,13.06232457,0.703636358,1.017125621,49.01000094,112.9799995,14.5313639,177.3549991,0.33090909,36.05,378.0672674,3.179999969,30.53454577,13.9726292,10.72874144,17.88940951,17.80076093,20.55685321,19.77792414,17.90480363,20.8338604,20.14326093,22.32500016,23.95000022,24.48309256,26.40498513,28.5388636,28.63545455,30.12870319,34.35404525,35.58838723,6.034666632,13.33571414,9.675379644,13.12758779,15.78530267,16.33764454,20.13902853,23.08186362,24.00118421,8.473379033,11.29783551,10.5045992,12.46111665,14.43681279,14.72204148,17.12368238,20.53225114,20.87599038,0.915869048,1,0.972225207,1,1,1,1,1,30.54708625,-96.43393475,2016,TXH1
B73/MO17,DEH1_2016,Y,20.95,702.1595451,0.5,2,273.5,143,78,75,2.701875035,7.431818214,3.891344367,3.01543569,5.358105985,2.453055546,7.028031294,2.624318106,3.1968602,86.46000111,81.75000036,66.39499953,101.6163622,13.33454524,24.02227264,188.3231781,15.05272682,98.58045408,18.33047433,10.1000462,19.40971708,21.02938559,18.25055452,17.64652011,18.94468483,17.7865103,16.44449792,18.09,16.60090897,19.90208421,27.67646738,27.79681775,28.9030859,31.91379825,31.21812112,30.57169607,5.529687506,9.93090907,10.11289786,16.8589893,18.02106052,19.78800518,21.90881045,21.62957593,20.16127331,6.825577378,7.645605865,8.606637786,14.43603228,14.98401645,16.37610101,18.85541374,18.37748956,17.3477875,0.726328134,0.729318176,0.990929859,1,1,1,1,1,38.6482025,-75.44606,2016,DEH1
B73/PHN82,MOH1_2_2020,N,17.43636364,731.1212129,0.090909091,0.636363636,234,104.2727273,55.27272727,53.63636364,2.765624954,8.119999743,10.23533287,1.900197364,6.862941181,7.496322061,3.61617108,2.901626778,3.303786197,88.49999854,40.59999871,96.12411712,56.39411764,8.455882353,68.01117661,117.8082348,21.52705885,101.3270584,18.75466287,21.25211372,22.58999711,20.28617166,20.64270943,17.48834951,18.15902921,17.2011884,14.69335169,22.18656257,30.76999931,28.84882905,30.74339714,30.90558787,31.2308437,28.74780649,29.21697892,24.17436303,12.23093753,19.21800041,17.30516703,20.0610583,19.70343171,21.50444419,18.15153395,17.40346693,12.7162556,10.41798935,16.99399986,15.18178367,17.42227064,17.30450979,18.37429674,15.5665539,15.53509051,11.41105442,0.936383936,1,1,1,1,1,0.996694042,0.965786214,38.8958275,-92.2071575,2020,MOH1
PHG39/PHN82,SCH1_2018,N,14.64,731.1212129,0,2,197,99.5,60.5,64,5.509375073,3.372500002,5.775327928,7.728127661,4.71095229,3.130603142,3.123485158,2.01328566,5.79306447,176.3000023,26.98000002,97.60999952,245.6735731,5.415714213,31.8442854,83.93428482,10.53785687,179.5849986,18.64772365,19.28692877,21.1730546,18.16318131,18.84742333,19.2548603,19.994513,19.31783344,16.30139442,22.53906247,22.53374982,23.09020479,27.61870045,28.0654766,28.90856809,32.58479132,33.48333298,31.1168664,9.301562469,9.311250091,8.762400081,17.50665347,16.7615475,18.38295894,21.20797915,21.67128537,20.80767273,9.591191253,9.400074843,9.574505228,14.76793775,14.51962258,15.72381397,18.86169653,19.45105318,17.96288574,0.951841518,1,0.982626499,0.991514695,1,1,1,1,34.6223015,-82.7364835,2018,SCH1
PHB47/PHZ51,NCH1_2016,Y,13,731.1212129,0,6.5,234.5,120.5,65,64,2.901562452,3.125714166,7.137907935,4.683034439,4.3177271,0.863030289,5.226283407,5.104181825,4.507668668,92.84999847,21.87999916,91.86318315,160.7736342,8.497726928,8.495454409,139.9318182,26.12772732,139.7377287,16.36857818,22.27138465,15.49498623,18.72849078,21.8793198,21.8664799,18.529992,18.05675722,17.32656161,20.86125001,25.58571407,25.68946269,27.1054564,30.20318166,31.0559697,32.42423852,33.59766701,33.26035177,7.692187494,8.212857212,14.27003911,16.07300028,18.02681784,18.80169681,21.2796372,22.62190931,22.7218182,8.383421821,10.43985322,12.46468669,13.95599298,16.17160042,16.99727481,18.83160592,19.980567,19.86697781,0.913761163,1,1,1,1,1,1,1,35.30015175,-77.57127825,2016,NCH1
LH195/PHN37,IAH4_2017,N,21.025,724.6852867,4.75,2,240.25,106.5,72,68,3.054193612,4.63857133,5.654282844,2.356146022,0.145000003,0.823262634,3.029939984,2.506485397,3.022032747,94.68000197,32.46999931,92.55000019,79.81000018,0.290000005,7.931363713,110.0431818,17.65818187,91.79227275,19.60434628,22.37855189,18.81628808,21.46940114,22.42332305,21.26952374,19.1513695,15.94205759,15.34138578,17.83935482,25.21428544,21.76755785,28.88340452,30.88984893,30.99338411,28.30609907,26.26622464,25.93438806,4.952580655,10.13999993,10.24708413,15.02150207,17.47128796,18.07608078,15.80662465,13.87026602,12.51354651,6.575243948,10.82301274,9.649960621,14.3656457,16.22810104,16.57398155,14.36597852,12.57546566,12.06214068,0.727396317,1,0.910082199,1,1,1,1,0.987168831,41.99455432,-93.69030947,2017,IAH4
2369/LH123HT,NCH1_2016,N,15,731.1212129,0,2.5,246.5,142,65,64,2.901562452,3.125714166,7.137907935,4.683034439,4.3177271,0.863030289,5.226283407,5.104181825,4.507668668,92.84999847,21.87999916,91.86318315,160.7736342,8.497726928,8.495454409,139.9318182,26.12772732,139.7377287,16.36857818,22.27138465,15.49498623,18.72849078,21.8793198,21.8664799,18.529992,18.05675722,17.32656161,20.86125001,25.58571407,25.68946269,27.1054564,30.20318166,31.0559697,32.42423852,33.59766701,33.26035177,7.692187494,8.212857212,14.27003911,16.07300028,18.02681784,18.80169681,21.2796372,22.62190931,22.7218182,8.383421821,10.43985322,12.46468669,13.95599298,16.17160042,16.99727481,18.83160592,19.980567,19.86697781,0.913761163,1,1,1,1,1,1,1,35.30015175,-77.57127825,2016,NCH1
B37/H95,WIH1_2020,N,15.81,502.6458338,0.5,0.5,273.5,138.5,80,77.5,1.598387111,6.507143004,4.413520471,5.455426438,9.576153682,6.848251811,1.847198819,1.302442385,3.233674973,49.55000043,91.10000205,54.05307698,191.9769218,14.76999958,75.33076992,75.52923148,17.19923096,99.29769339,20.3303612,17.70938441,19.63774696,21.71928057,19.47191414,18.08778093,19.52506722,17.02277317,12.74244368,13.80935484,15.78214281,24.71870171,28.0331271,31.3961547,28.17125902,26.95535567,26.2427393,20.06715065,1.332903252,5.150000061,13.25869882,14.90724568,18.80923077,17.63741262,14.66820073,13.00544381,8.429758508,4.404075426,5.920121855,11.73838603,13.88054584,17.12955683,14.95247276,13.30208011,12.63591888,8.588509069,0.46481566,0.623010193,1,1,1,0.987099279,0.934776512,0.808464704,43.05505505,-89.52853825,2020,WIH1
TX777/LH195,INH1_2015,N,13.95,746.5674357,0,2,240,114,68.5,68.5,2.968064535,5.608750075,2.401797478,2.620596579,1.049062505,3.048312443,3.454130844,1.332533481,1.484370975,92.01000059,44.8700006,26.44312483,85.12437463,1.715625018,30.48312443,116.5724995,9.316249996,45.68062523,19.44608656,13.59046638,21.88315593,21.65689439,20.60130358,19.73326552,18.77560381,17.99738388,15.64927463,15.67580632,21.0562501,27.44396829,29.52449332,32.66781175,30.16981242,28.17317586,28.46934151,25.5406298,3.004516139,13.05249977,15.22068343,16.62214482,19.56843758,18.02818774,16.71489706,16.46563638,12.56847521,5.360930658,9.9438759,13.725819,15.26696414,18.11812466,16.1828721,14.63810214,14.67667849,11.95902497,0.609504607,1,1,1,1,1,1,0.986081101,40.477075,-87.000205,2015,INH1
F42/H95,NYH1_2017,Y,18.25,731.1212129,0,4,246,118,78,74.5,4.758709581,4.139999986,2.953024942,5.715506232,4.320872878,2.701732063,2.616328443,1.022630585,3.614268439,147.519997,37.25999987,45.12618999,219.9223815,11.26857107,35.6957141,128.4247627,13.30476207,110.8900009,18.97444351,17.81005277,22.0763727,19.38397475,18.56141379,19.22534974,16.71382568,13.43506643,9.037548332,17.06967752,20.23333359,22.7745171,25.66488699,26.70396817,25.32691524,23.26007272,23.96840526,17.61119819,5.964193534,10.19,10.93717632,15.20362294,16.36293638,14.60656728,11.31793404,11.56685323,6.669544781,6.641127344,8.727253675,10.15270493,12.79474615,13.71935226,12.37567782,10.45035179,10.9124923,7.239151369,0.685760371,1,1,1,1,0.982493678,0.953634339,0.701363064,42.72880835,-76.6515625,2017,NYH1
PHG39/TX205,ONH2_2016,N,20.45,682.208174,0,9.5,261,139,81,77,1.435483875,1.740833327,1.463802716,3.022687524,0.150999999,1.134659085,3.046446673,1.693503778,2.765116665,44.50000012,20.88999993,18.84600039,117.1590009,0.150999999,12.25349994,101.0444998,13.16149993,84.26899996,19.72563927,22.19747464,21.68954048,21.77365896,18.98664827,19.92678304,16.69906166,15.68152671,12.9072029,14.10741935,17.58083336,26.00758685,26.04894451,27.78099985,28.79287246,28.2480382,25.9224786,23.75348014,4.257419363,7.13166666,15.03828811,14.1477789,17.72699971,17.33924119,18.24672102,15.95494667,14.17526013,5.131346137,6.986841243,12.85116395,12.65171997,14.84296497,15.26027205,15.31782021,13.26534606,11.67621189,0.511244241,0.799851209,1,1,1,1,1,0.975829282,42.4530035,-81.88279875,2016,ONH2
TX951/LH195,IAH1_2020,Y,19.81666667,731.1212129,2.166666667,0,229,110,65,64,1.688064506,6.196000195,3.0793737,6.533057926,1.271428551,2.673269776,1.85421064,0.708456624,3.755616013,52.32999969,61.96000195,37.23499918,213.6221428,2.198571375,25.9085708,60.11785651,6.012142782,115.3728583,19.46953177,15.04660187,20.64247086,20.31598349,21.99207742,21.09552252,19.7297914,19.80455556,15.11692591,15.87290319,18.70700045,25.72176895,28.50674309,31.92999949,30.87921407,28.61147391,29.37327705,24.63079501,3.348387095,9.753000152,14.65929334,17.38633346,19.85714286,19.28849194,17.27261165,15.46819038,11.83183106,5.5584858,8.125456457,12.65757338,15.09801966,17.89357117,17.09078834,15.12121856,14.7539709,11.47694483,0.621440085,0.927035726,1,1,1,0.998514142,0.992713009,0.918334154,41.19774214,-91.48767072,2020,IAH1
PHG39/PHN82,OHH1_2016,N,18,760.7264732,0,3,264,121,65,64,4.328064465,1.776000023,3.915145208,2.580740659,3.890757626,4.17049496,5.079069289,3.957741935,3.614594814,134.1699984,8.880000114,44.70363614,85.9177286,9.330454675,39.94818193,160.1854537,27.69772666,110.1186362,18.3437644,22.24283047,20.73146956,20.35982518,19.15233416,18.82824642,16.72048491,17.98730955,14.71797893,19.63580645,29.63200035,26.56953589,28.59263588,29.59106055,30.69283836,29.21689182,28.27188687,26.30588322,8.120967747,16.89599972,14.9739129,16.70528562,18.30318191,19.74443426,18.9160149,15.44500838,13.40262461,8.117657052,15.32722009,13.17028057,14.81678154,15.96857054,17.23303236,16.11713161,14.21502474,12.5845871,0.859331788,1,1,1,1,1,0.999172078,0.989049277,39.860924,-83.6755995,2016,OHH1
B37/H95,ONH2_2015,Y,24.7,777.4598813,0,9.5,282.5,140,81.5,79,1.876451608,4.282666683,1.928005431,1.58261263,10.80264742,1.923208582,3.114388399,4.294901914,2.356388962,58.16999984,64.24000025,23.61999965,57.22470651,21.60529484,21.1552944,115.5017658,31.56294079,72.1164696,18.95380112,18.76709785,21.17743809,22.45418875,20.04103015,18.4543581,18.45373918,15.80078253,13.34539525,11.17387095,14.38466663,23.91200153,26.61279381,30.15176526,27.65053462,26.77986929,25.87464046,20.7920557,2.006774224,5.636000033,13.64950245,15.64688346,19.32647026,18.51812829,16.74694623,15.4972221,11.03054456,3.742938436,5.617129505,11.53065914,13.52353119,16.78542678,15.13421866,13.95153495,13.1846932,9.37660249,0.276970043,0.589690475,0.985132406,1,1,1,0.993019959,0.931831119,42.45408625,-81.8816065,2015,ONH2
B97/PHB47,ARH2_2016,N,15.35,731.1212129,0,1.5,166.5,105,62.5,58,5.780937422,12.26500018,3.712120208,7.0222886,1.105000019,0.295568184,1.931287914,1.454696927,6.280835692,184.9899975,73.59000111,50.67409075,233.2059098,2.210000038,2.364545475,51.29727264,7.656817956,194.7059064,17.76457119,17.22719622,20.14058537,19.80644481,18.88262117,19.79738723,18.69440654,19.88854878,15.60714355,21.02781257,25.69833342,24.88224707,27.55747889,33.1628785,33.38017045,32.40728063,33.71248445,31.37684753,8.517187547,14.13833332,13.26693003,16.75834882,22.79151535,23.21522755,22.56353312,22.95024234,22.3752492,8.626308124,12.37618007,11.75818796,14.46644855,19.89189903,20.24263088,19.43024202,20.23735303,18.81126952,0.958649555,1,1,1,1,1,1,1,35.838614,-90.66530155,2016,ARH2
W10001_0022/PHB47,ARH1_2017,Y,17.7,731.1212129,0,2,229,110,65,64,3.058125025,3.532857077,9.871688678,6.405160528,0.516363615,5.988171668,5.119232493,3.102318153,5.34158356,97.86000079,24.72999954,132.0327285,211.6218184,0.569545432,54.36818138,136.8913653,16.08272713,165.5890903,17.13974981,16.55343887,20.38424011,18.76225527,22.81364793,19.06964508,19.53553475,19.77193111,17.12972935,24.60906261,23.96000045,24.77057006,28.06605652,30.35469691,31.5146664,31.30577636,32.78459133,30.91587993,11.9175,14.17857156,11.8445801,17.60850246,18.97249995,21.30615642,21.39979275,22.50533316,21.62237538,11.1639709,11.77578055,11.22655186,14.97537354,16.74359516,18.41041141,18.33049426,19.54768126,18.22457608,1,1,1,1,1,1,1,1,34.7272515,-90.76032575,2017,ARH1
PHG39/TX205,ARH2_2017,N,16,731.1212129,0,2,189,79,65,64,2.789999995,15.83285686,4.776016413,2.853949028,1.142500003,5.651818152,3.905948255,2.4430325,4.688621725,89.27999985,110.829998,61.6427269,88.95863769,3.003181826,52.42863608,105.2449988,13.33772746,145.3472735,17.14489296,19.09436907,20.93439511,19.65670258,19.84409681,19.1211903,18.81176407,19.65259997,17.546866,23.65656266,24.55142866,25.38541455,28.9612549,32.40098458,30.84565692,31.84241473,32.83627249,30.20087953,12.07343751,12.16142872,12.7110645,18.0477898,21.78734854,20.24410098,21.87781566,22.25639174,20.26112908,10.83878158,11.22094165,11.88579938,15.62584547,19.09416656,17.54487895,18.8103181,19.27693671,17.25265116,0.991674107,1,0.97315368,1,1,1,1,1,35.67418125,-90.0752695,2017,ARH2
PHB47/PHN82,MIH1_2017,Y,23.05,696.3672116,0,2,103.5,49,64,64,2.651290334,1.642500043,0.365195355,3.685889798,0.022982455,0.462972321,1.745768067,1.924198947,6.215848807,82.19000036,13.14000034,4.417894763,131.6678931,0.068947365,5.871578781,77.40789432,25.15789459,187.919471,20.75480046,19.52619267,24.47429891,19.89055103,21.94334328,22.12060477,17.47908742,14.76431364,9.641321864,18.99677434,22.1187501,26.44652255,27.49693157,27.7329823,27.82492569,25.37386911,24.10071042,20.63989867,5.961290348,11.91874993,11.36318641,16.0503933,16.08877179,14.96255052,12.27657104,9.93890341,8.936309075,7.303217139,10.01258026,11.86785018,14.06113521,14.11607898,13.75096176,11.67659513,10.59348898,9.148775778,0.770126733,1,1,1,1,0.999072621,0.949278334,0.816440377,42.68116575,-84.49434125,2017,MIH1
CG108/CGR03,WIH1_2016,Y,16.95,830.8780685,0,2.5,230,123.5,66.5,67,2.076129018,1.94750002,4.430291291,4.068377178,0.606590927,8.204471101,6.520888551,7.285801826,4.413191112,64.35999957,23.37000024,50.66818307,153.9786358,1.017727305,87.41727302,222.4604529,58.95590957,134.9268184,19.92805462,20.9108026,19.53546339,20.65690042,18.97296773,19.76360502,17.50876714,15.21370917,12.23883056,16.70258062,17.57583312,27.08182728,26.49130857,27.22159082,28.35833875,27.6700069,25.1458901,22.98674642,3.327419363,4.990833327,14.04723809,14.47423798,17.58636334,16.7186736,17.17399145,14.32051147,12.5735533,5.875866612,6.419508974,12.98865398,12.92924289,14.50224274,14.72651534,14.55658067,12.23924581,10.7486024,0.621198161,0.7653869,1,1,1,0.999967803,0.998306277,0.970976554,43.05632525,-89.53194975,2016,WIH1
F42/MO17,SCH1_2019,N,14.91,731.1212129,1.5,1.5,214.63,82.55,56.5,61,3.522580645,3.026666641,1.832071666,3.15534991,1.497023807,2.439880971,1.838213127,1.715047598,2.162465429,109.2,18.15999985,19.94999987,97.87357193,2.846428582,21.92714303,50.9164284,9.481428444,67.0364283,18.2238054,19.24788825,19.83816148,19.9388592,17.79349522,20.88775084,19.93011295,20.19525604,17.6553152,24.08129043,27.55666669,26.86360264,30.30302253,30.15095266,31.81823454,32.87501498,31.84457125,32.33357145,10.7222581,15.88833332,14.78977791,18.33498627,20.49666657,19.48954379,21.18366564,19.1694286,20.16504603,10.62715993,13.88239503,13.27455789,16.3672742,17.32380961,17.64580353,19.00989067,17.48787314,18.15917061,0.967315668,1,1,1,1,1,1,1,34.62248225,-82.73756775,2019,SCH1
W10004_0216/PHZ51,ONH1_2017,Y,17.7,731.1212129,0,2,229,110,65,64,4.42290319,4.904999876,1.545173221,3.420435244,1.695375006,2.594700004,1.855534774,1.54565171,2.383111348,137.1099989,49.04999876,23.52600009,140.8034994,5.378000009,36.46150006,95.23350107,29.85300009,72.44250006,18.65662235,17.08545341,23.10813164,20.12586768,18.11232318,19.44819915,16.33652997,11.62209215,7.957733996,13.94322577,18.20700026,22.35689536,24.80045755,25.17183321,25.2296929,22.79396283,22.13957367,13.29532023,3.578387066,9.706999969,10.10387851,14.12185296,14.82349991,13.63261195,10.3904862,9.847475595,3.166289439,4.958212412,8.025894563,9.659097931,11.97096233,12.35740613,11.98311106,9.953455995,10.0654016,5.273375752,0.439723498,0.877642858,1,1,1,0.972410901,0.840292505,0.515578473,43.49546,-80.42596875,2017,ONH1
F42/H95,IAH2_2019,Y,22.15,734.9827686,1,0.5,235,114,65,64,1.624999978,4.994666719,7.633826981,4.023414549,10.53523836,1.22350002,2.763567443,7.261517829,4.773321835,51.99999928,74.92000079,126.7292866,144.3807149,31.60571507,12.2350002,103.2057142,58.23357121,145.3535721,19.40078695,15.59915857,17.73377221,20.37141966,18.69170743,21.11460887,19.04896103,16.46108124,13.94542613,15.78031255,14.78666655,21.30773964,26.90560141,30.4667857,29.3667858,27.70213024,26.0789087,24.69893011,1.823749996,4.276000045,9.222208134,15.06467224,19.71440506,18.17542877,16.74212177,15.32632928,13.45358666,5.188982368,5.371381143,9.150668224,13.41851256,17.10626668,15.79657396,14.44283917,13.04517908,11.92357614,0.546495539,0.532857125,0.866155154,0.998157434,1,1,1,0.956872449,42.06583499,-94.72067796,2019,IAH2
B37/OH43,TXH3_2019,N,10.41,786.6182042,0,0,198.5,59.5,70,69.5,1.71448275,0.072857141,3.656594302,9.095434564,0.409285716,1.207678571,5.355850783,1.246142852,1.574419343,49.71999974,0.50999999,52.00785631,328.2121388,0.592857139,9.661428571,146.4478573,6.531428533,47.51499965,15.42805705,20.52131135,18.76898834,18.57032559,21.42349659,18.85281525,20.14881361,21.03072751,19.84089234,18.45000007,25.76428577,24.43254944,27.27586732,31.09000002,32.37866099,32.72435205,34.04471448,34.98200776,6.826206914,10.35000004,10.67963154,14.78766739,18.65857179,21.85071427,21.02442735,21.79614282,22.6049739,7.457816468,11.1589152,10.85119479,13.46630403,16.91193677,19.11412105,18.84765314,19.77807102,20.01419559,0.749667494,1,0.945308164,1,1,1,1,0.999698925,30.546318,-96.4329965,2019,TXH3
B97/PHB47,GAH1_2017,N,13.6,714.3878048,4,2,170,80,57,56,1.929687474,5.730000019,0.343252103,3.449286585,2.107618968,4.586772466,5.884115127,3.462793619,5.790337869,61.74999917,45.84000015,4.185237975,115.4628578,3.161428452,44.24761888,164.3961923,18.00285697,179.500474,16.80249013,20.13732326,20.17342047,19.27076224,21.20480144,16.6798163,18.15858085,19.37517402,17.73704587,23.5584375,24.76124978,28.73884546,29.02932191,29.79031757,30.11825943,30.88468736,33.04158726,32.39466959,8.654999979,9.073749959,13.81601286,15.94569083,16.85142871,20.07059283,21.0580027,22.24365102,22.03411694,9.935165979,10.3201674,13.6844889,14.81363998,15.5596332,17.10789698,17.95959829,19.61349988,19.1980032,0.8834375,1,1,1,1,1,1,1,31.50794425,-83.55854475,2017,GAH1
PHB47/PHN82,DEH1_2020,N,20.1625,695.4018226,0.125,1,236.5,117.625,61.25,61.125,3.884838689,2.918749928,0.484801506,3.712682555,3.963928495,10.54878945,3.680508849,4.08975176,5.319973187,120.4299994,23.34999943,5.74999997,113.1935704,6.565714155,94.92928366,102.5935729,23.16642891,164.6128593,19.34389959,17.33862388,21.23126246,20.37262205,20.84469896,18.13380163,16.82964191,15.50064315,15.14081803,17.43483888,21.1624999,25.02143811,29.01024665,32.25440507,31.30417669,31.95048154,29.3682824,28.21514964,6.792903194,12.85250008,15.40184434,18.86790491,21.28607132,21.93053571,22.84339264,21.06525136,19.30786859,6.86665098,10.04482466,12.64072343,16.02028347,18.72161765,18.60397455,19.32804006,17.22313801,15.91003144,0.79362904,0.982098209,1,1,1,1,1,1,38.628981,-75.46566025,2020,DEH1
B14A/OH43,MIH1_2020,N,22.35,677.059433,0,62,262,150.5,62,61.5,4.984838709,2.447142908,2.78018427,2.64718347,5.506875038,1.476884461,2.688717092,6.006552647,2.65185957,154.53,17.13000035,30.43499947,89.07562375,6.053750038,16.17374991,112.2143753,49.72375022,79.8756258,20.40588462,19.28742858,24.32683064,21.06964646,18.47526628,19.40802789,18.05267967,13.18055513,11.8632568,17.75483874,24.12857165,28.18736501,29.25734834,30.47187495,29.12451894,27.19720882,23.65947149,18.53645566,5.91032262,13.18571418,13.36449351,15.87753885,17.57625037,17.40439215,14.2199518,12.09430501,6.603961046,6.886871568,11.64218502,13.33305563,14.86544572,16.04104967,15.33737973,13.2580117,11.17810785,7.349100415,0.70564517,0.993469382,1,1,1,0.990981538,0.929873564,0.775463757,42.7085775,-84.4705825,2020,MIH1
PHG39/TX205,WIH1_2016,Y,23.1,738.8443243,0,9.5,267.5,142.5,75.5,76.5,2.076129018,1.94750002,4.430291291,4.068377178,0.606590927,8.204471101,6.520888551,7.285801826,4.413191112,64.35999957,23.37000024,50.66818307,153.9786358,1.017727305,87.41727302,222.4604529,58.95590957,134.9268184,19.92805462,20.9108026,19.53546339,20.65690042,18.97296773,19.76360502,17.50876714,15.21370917,12.23883056,16.70258062,17.57583312,27.08182728,26.49130857,27.22159082,28.35833875,27.6700069,25.1458901,22.98674642,3.327419363,4.990833327,14.04723809,14.47423798,17.58636334,16.7186736,17.17399145,14.32051147,12.5735533,5.875866612,6.419508974,12.98865398,12.92924289,14.50224274,14.72651534,14.55658067,12.23924581,10.7486024,0.621198161,0.7653869,1,1,1,0.999967803,0.998306277,0.970976554,43.05632525,-89.53194975,2016,WIH1
PHG29/PHG47,DEH1_2016,Y,15.15,740.7751021,0,2.5,247.5,120,76,74,2.701875035,7.431818214,3.891344367,3.01543569,5.358105985,2.453055546,7.028031294,2.624318106,3.1968602,86.46000111,81.75000036,66.39499953,101.6163622,13.33454524,24.02227264,188.3231781,15.05272682,98.58045408,18.33047433,10.1000462,19.40971708,21.02938559,18.25055452,17.64652011,18.94468483,17.7865103,16.44449792,18.09,16.60090897,19.90208421,27.67646738,27.79681775,28.9030859,31.91379825,31.21812112,30.57169607,5.529687506,9.93090907,10.11289786,16.8589893,18.02106052,19.78800518,21.90881045,21.62957593,20.16127331,6.825577378,7.645605865,8.606637786,14.43603228,14.98401645,16.37610101,18.85541374,18.37748956,17.3477875,0.726328134,0.729318176,0.990929859,1,1,1,1,1,38.6482025,-75.44606,2016,DEH1
PHP02/PHB47,NYH3_2015,N,17.65,731.1212129,0.5,11.5,233.5,120,70,70,4.268387075,0,1.234803629,3.315485905,3.744705864,3.708743319,2.034738589,2.091907533,2.160160663,132.3199993,0,17.66999944,111.4647067,9.843529393,38.42352946,75.35117763,21.49235322,65.37235311,20.95885717,21.76160183,22.01003167,20.47654391,19.37507164,18.84800849,18.09954582,14.25866518,12.17165493,15.21516129,28.41399994,23.9726608,27.94852153,28.22411762,29.00645443,26.88612691,22.65429039,19.02039094,3.206451565,16.00799999,11.62235867,15.61032629,16.7502941,17.72633694,14.88804443,11.60832066,7.356588233,5.349626667,14.38734971,10.95773449,14.17183136,14.61937489,15.41213998,13.31670354,10.34569698,7.707711279,0.504331792,1,0.97267375,0.996219796,1,0.995345527,0.95775528,0.812032548,42.7233625,-76.6555945,2015,NYH3
TX777/LH195,WIH1_2020,N,21.05,708.5954713,0,0,311,173.5,89.5,86.5,1.598387111,6.507143004,4.413520471,5.455426438,9.576153682,6.848251811,1.847198819,1.302442385,3.233674973,49.55000043,91.10000205,54.05307698,191.9769218,14.76999958,75.33076992,75.52923148,17.19923096,99.29769339,20.3303612,17.70938441,19.63774696,21.71928057,19.47191414,18.08778093,19.52506722,17.02277317,12.74244368,13.80935484,15.78214281,24.71870171,28.0331271,31.3961547,28.17125902,26.95535567,26.2427393,20.06715065,1.332903252,5.150000061,13.25869882,14.90724568,18.80923077,17.63741262,14.66820073,13.00544381,8.429758508,4.404075426,5.920121855,11.73838603,13.88054584,17.12955683,14.95247276,13.30208011,12.63591888,8.588509069,0.46481566,0.623010193,1,1,1,0.987099279,0.934776512,0.808464704,43.05505505,-89.52853825,2020,WIH1
2369/LH123HT,MNH1_2020,Y,20.5,753.0033618,4.5,1,283,155,70,67,0.943005099,6.546073051,4.140359128,4.707487639,0.452236841,2.543512757,5.928901117,4.270615044,2.501087783,29.23315806,64.90105435,50.61684199,155.384737,0.714736844,28.61736839,219.2994748,34.34473765,76.93105461,20.83516212,15.73399946,19.74828467,20.97522671,19.78574355,20.20086134,18.41063051,15.8353279,12.84776632,15.708455,18.53155205,25.82840423,28.49526052,29.92499944,28.21992409,26.52185226,25.93987928,19.74067922,2.261239378,9.186207707,13.99244036,16.68286788,19.34447405,16.90528318,15.09377646,14.30914312,8.593217323,5.370680578,7.953384306,12.46596379,14.77865871,16.66236577,14.75116185,13.25288188,13.01752467,8.666130292,0.622613994,0.838417993,1,1,1,0.988450437,0.93066422,0.780758993,44.06907839,-93.53263028,2020,MNH1
B97/PHB47,GAH2_2017,N,15.2,743.3494726,18.5,2,236,125.5,56,56.5,5.215806507,2.59000005,0.877047008,6.976424555,36.66571527,11.68990473,2.766634194,6.717714339,5.237281131,161.6900017,18.13000035,10.98809533,219.4985743,69.630002,116.6428568,77.55666748,33.5885717,162.3557151,18.59375843,20.97986943,21.98193589,18.54567619,14.33990901,17.7663424,19.78523868,18.86354985,17.57616326,25.93516134,24.17571449,30.47339418,29.31252372,29.52904774,29.72980419,32.72601502,32.10511542,30.76784952,12.17225799,9.938571385,16.15324828,18.06353156,20.43476164,19.51114297,21.20992787,20.86352373,19.95543778,11.90954616,10.38538115,15.45655397,15.75249851,16.98190469,16.63412837,18.90169131,18.47155665,17.41241638,0.999631335,0.985714285,1,1,1,1,1,1,33.727145,-83.29821525,2017,GAH2
B73/DK3IIH6,MIH1_2017,Y,19.575,702.8031377,0,6.5,168.25,83.25,64.75,64.75,2.651290334,1.642500043,0.365195355,3.685889798,0.022982455,0.462972321,1.745768067,1.924198947,6.215848807,82.19000036,13.14000034,4.417894763,131.6678931,0.068947365,5.871578781,77.40789432,25.15789459,187.919471,20.75480046,19.52619267,24.47429891,19.89055103,21.94334328,22.12060477,17.47908742,14.76431364,9.641321864,18.99677434,22.1187501,26.44652255,27.49693157,27.7329823,27.82492569,25.37386911,24.10071042,20.63989867,5.961290348,11.91874993,11.36318641,16.0503933,16.08877179,14.96255052,12.27657104,9.93890341,8.936309075,7.303217139,10.01258026,11.86785018,14.06113521,14.11607898,13.75096176,11.67659513,10.59348898,9.148775778,0.770126733,1,1,1,1,0.999072621,0.949278334,0.816440377,42.68116575,-84.49434125,2017,MIH1
LH198/PHZ51,ILH1_2016,N,14.85,729.190435,0,1.75,237,112.75,73,71.75,2.976905237,4.388409027,2.266536067,5.61207631,2.384848472,3.596551307,3.312350719,4.357499975,4.793790319,93.71999985,46.35499933,33.46068128,180.4177266,4.628863606,41.73386359,104.1413657,28.32431801,148.2020453,18.82488241,16.77241452,21.32061235,20.18653607,20.74234538,18.07981042,18.8666989,17.85818253,16.07680721,18.05081144,19.20204525,23.0422997,29.42292662,27.90308728,26.97317812,29.60218573,29.15938829,28.17592877,4.960040295,8.531272602,10.4507586,17.10049505,15.99717794,16.84881478,19.41054858,18.84383108,17.09740687,6.781235125,7.969267807,10.17119166,15.41614171,14.29579798,14.15384892,16.51995977,16.04951253,14.84458937,0.666766271,0.897956159,0.946860721,1,1,1,1,0.999883117,40.0607245,-88.2338815,2016,ILH1
B73/PHN82,ARH2_2017,N,16.2,731.1212129,0,2,171.5,73.5,65.5,63,2.789999995,15.83285686,4.776016413,2.853949028,1.142500003,5.651818152,3.905948255,2.4430325,4.688621725,89.27999985,110.829998,61.6427269,88.95863769,3.003181826,52.42863608,105.2449988,13.33772746,145.3472735,17.14489296,19.09436907,20.93439511,19.65670258,19.84409681,19.1211903,18.81176407,19.65259997,17.546866,23.65656266,24.55142866,25.38541455,28.9612549,32.40098458,30.84565692,31.84241473,32.83627249,30.20087953,12.07343751,12.16142872,12.7110645,18.0477898,21.78734854,20.24410098,21.87781566,22.25639174,20.26112908,10.83878158,11.22094165,11.88579938,15.62584547,19.09416656,17.54487895,18.8103181,19.27693671,17.25265116,0.991674107,1,0.97315368,1,1,1,1,1,35.67418125,-90.0752695,2017,ARH2
B73/MO17,KSH1_2015,N,16.65,740.7751021,0,2,229,110,85,82,0.688124985,3.518749885,2.537239536,4.634326915,6.340784251,4.013516285,5.753010874,3.95559662,1.81791271,22.01999953,28.14999908,47.40176476,147.1705882,9.165882307,38.18235242,161.646473,23.74705871,56.35529401,19.48910828,20.34062409,19.21958791,21.30664108,18.00351726,18.80818483,18.60066932,17.86718078,18.78253622,17.69406253,22.96750021,19.85221485,29.31892792,29.11705877,31.41670577,31.16760655,30.50505886,29.96204923,3.297187492,8.938749969,8.792561365,16.998743,18.09705929,19.84989561,20.1377744,20.03282345,17.06836811,6.184738542,9.476230158,8.381520189,15.38816616,15.61697663,17.65547515,17.65556265,17.32458654,15.75670183,0.6778125,1,0.850138809,1,1,1,1,0.98304554,39.21641775,-96.60482225,2015,KSH1
PHW52/PHN82,GAH1_2018,Y,15.185,644.6223651,0,2,197.5,100,62,60,4.231249915,1.934999943,5.575464231,3.801027214,1.067857163,3.256190501,3.932246866,3.816857059,2.685023025,135.3999973,11.60999966,76.79571342,135.0185695,1.516428607,29.30571451,107.1921429,19.08428529,83.23571379,16.89130574,18.83037901,19.9789379,20.32622599,17.16636637,17.47509449,19.98058203,18.77657547,18.35496912,25.6268748,28.56500022,25.46428012,27.96417186,30.5753573,30.54857133,31.9994497,33.07128549,33.68336431,12.70062498,14.46999963,11.35988473,14.27301998,20.47928579,20.42444427,20.68398901,21.82542842,22.30905548,11.99291119,13.91639365,11.33534042,13.63652225,17.52732154,17.4865078,18.33967815,19.36985553,19.8838857,0.988973219,1,1,1,1,1,1,1,31.50582525,-83.55515025,2018,GAH1
B73/MO17,DEH1_2018,N,18.65,709.2390639,0,2,225.75,116,66.5,65.75,3.413225795,4.724545566,2.007753279,2.760624154,0.287142856,8.862777665,3.915865231,4.933581623,5.971971652,105.8099996,51.97000122,28.2621423,90.35856978,0.861428567,79.76499898,101.102142,26.37928568,184.7400021,18.24738333,20.30334785,18.96061465,21.19242313,20.3949075,18.85770366,17.73482038,14.47844699,15.08372737,17.38161278,18.28454564,22.01469092,28.14795471,32.28714262,31.68230149,32.09286912,30.42106803,28.79790015,6.703871004,7.41363637,12.85857977,17.97497576,22.0019049,21.31992057,22.76420594,22.26141136,20.21526036,6.825711165,7.366383816,10.38385741,15.21158117,19.10753111,18.47850441,19.35879976,18.34204267,16.58274325,0.781601378,0.839058448,0.989425295,1,1,1,1,1,38.65164475,-75.44913625,2018,DEH1
W10001_0022/PHB47,OHH1_2016,Y,15.2,734.339176,0,25,269,120.5,65,64,4.328064465,1.776000023,3.915145208,2.580740659,3.890757626,4.17049496,5.079069289,3.957741935,3.614594814,134.1699984,8.880000114,44.70363614,85.9177286,9.330454675,39.94818193,160.1854537,27.69772666,110.1186362,18.3437644,22.24283047,20.73146956,20.35982518,19.15233416,18.82824642,16.72048491,17.98730955,14.71797893,19.63580645,29.63200035,26.56953589,28.59263588,29.59106055,30.69283836,29.21689182,28.27188687,26.30588322,8.120967747,16.89599972,14.9739129,16.70528562,18.30318191,19.74443426,18.9160149,15.44500838,13.40262461,8.117657052,15.32722009,13.17028057,14.81678154,15.96857054,17.23303236,16.11713161,14.21502474,12.5845871,0.859331788,1,1,1,1,1,0.999172078,0.989049277,39.860924,-83.6755995,2016,OHH1
F42/MO17,WIH2_2017,Y,22.15,755.5777323,0,2,272.5,145,76.5,77.5,5.048709616,4.636666616,1.142383575,5.763857885,8.001590729,6.160048604,1.607776433,1.167726513,2.257555268,156.5099981,41.72999954,17.5799998,219.3963643,12.14409065,74.04090792,72.28863683,15.04409093,68.0204557,18.1690344,19.72049554,20.64727683,20.23287988,19.13163679,19.37493243,18.51401576,14.93340477,10.89478233,16.03129027,21.86555545,22.15746071,26.59689143,27.90045501,26.76799254,24.73062069,22.38533393,20.51274781,3.24419354,8.791111098,9.553497601,14.54337319,16.81037892,15.37831158,12.19271258,9.193202486,7.868866577,5.438218202,9.209131236,9.451203107,13.05708411,14.51682301,13.37610723,11.31306373,9.686333754,8.853113959,0.624158991,0.847976183,0.950288768,1,1,0.998699911,0.954544862,0.834596302,43.3246415,-89.33688775,2017,WIH2
WF9/H95,NCH1_2017,Y,17.7,731.1212129,0,2,229,110,65,64,5.929354779,4.097142833,0.297958702,3.860588722,6.673809642,5.437090039,2.513672686,1.67758051,4.140460835,183.8099982,28.67999983,4.023333254,115.8195228,10.90952401,51.84571517,65.15761944,9.68857149,128.3542859,16.84796118,19.66078799,22.20077414,19.20396089,15.77249108,20.54839894,18.7994723,19.26606379,16.40835168,26.07000006,23.57857159,28.17011276,29.72614366,31.01404729,30.48814813,32.54721675,31.95695904,30.43138246,13.64064524,11.25142826,15.69757802,18.87536398,22.57674573,19.84793622,22.28039625,21.2748593,20.81350234,12.56442422,10.48784987,14.26665949,16.36044911,18.79940835,17.21144066,19.38557496,18.57336573,17.65269876,0.998329492,1,1,1,1,1,1,1,35.29663725,-77.5668065,2017,NCH1
CG44/CGR01,NYH1_2019,N,24.05,704.090323,0,4,258,128.5,61,61.5,3.742499989,3.13750004,5.753824184,3.193184694,5.054999975,4.679644987,3.141734315,2.115619262,4.095645999,119.7599996,25.10000032,83.05615347,110.7876916,10.59692295,60.83538484,169.67846,49.66846142,126.1984601,19.31204623,22.90652502,19.40556432,20.09548462,19.54416251,18.43271946,14.78687504,11.82668111,8.218362691,18.69937494,22.85875034,22.9010546,27.51683221,28.25012823,26.24284011,22.02988517,19.80082275,11.00573521,7.845625035,10.06374997,12.28813039,16.10263177,16.07333343,14.39934908,10.67406786,8.357505336,1.635690852,7.6395284,9.775213808,10.49055945,14.05854059,14.39300596,12.73828549,9.762895495,8.676471021,3.980466677,0.838560269,0.991875008,1,1,1,0.934962266,0.800347462,0.399612352,42.7288875,-76.65152084,2019,NYH1
F42/H95,TXH1-Early_2018,N,10.95,772.954733,0,2,247.5,103,72.5,70,2.442333295,0.87833333,4.91741256,2.91095925,1.112321411,5.987347663,3.094033648,2.445309502,2.573656677,73.26999886,5.269999981,55.2178573,113.3721426,4.449285643,64.36357035,86.72785865,13.67714274,77.357857,13.4988633,14.49154552,13.92485348,19.6618496,19.390827,19.64184359,19.38410293,21.21373351,18.01258323,19.68933331,26.95833333,25.66614373,26.56996845,30.24238085,29.14372996,31.91805433,33.2644762,34.51160554,6.357666679,15.03999996,15.13755815,13.69055459,18.24071415,16.44843436,20.63070323,20.50154739,23.97494014,7.613570572,13.40715604,12.87528071,12.79536137,16.34410207,15.0664779,18.21233438,18.75919739,20.40606275,0.821476194,1,0.991620595,0.99408643,1,1,1,0.999013392,30.546318,-96.4329965,2018,TXH1-Early
2369/LH123HT,MNH1_2019,N,30.825,686.0697297,11.75,5,275.75,130.25,67.75,64.75,5.301249992,3.475999832,3.602993786,6.929571154,0.665000021,5.494791652,5.263070224,5.621187949,3.218817211,169.6399997,17.37999916,52.03749943,225.572501,0.665000021,65.93749982,237.3162515,64.04000057,97.09750019,20.08423158,23.23368454,18.89062728,19.10632096,20.66435087,19.89868527,15.01321032,12.57416254,8.931227934,18.84156254,30.07599983,22.64517247,27.8446756,25.93437445,26.98812485,23.63970818,22.67396729,11.50651745,7.590312487,16.46599998,13.06713844,17.85158404,15.20500028,15.88958326,13.39640844,11.73885282,1.693081995,7.690019481,15.3684929,10.60199808,14.93632352,12.89140505,13.69019131,11.26189256,10.71987293,4.447532915,0.811763395,1,1,1,1,0.985092269,0.878346274,0.404429721,44.0664117,-93.52500471,2019,MNH1
PHG39/PHN82,GAH1_2015,Y,14.5,756.8649175,0,1,185,90,64,62,4.231249915,0,5.95843649,3.852603143,2.594000032,2.429925956,4.217759372,2.225466652,2.667397826,135.3999973,0,82.56599903,137.5619979,4.851333332,21.8693336,117.5779999,11.12733326,82.68933261,16.59936112,21.58269278,19.11661296,20.61616366,14.5260024,17.86473659,19.792993,19.1551459,18.46432438,25.43281227,26.81500022,26.00854227,27.82657943,29.9603331,30.57562955,31.8228303,33.58693334,33.75221527,12.50374998,10.5999999,12.24448314,13.90452364,20.76811106,20.25348139,20.64254904,22.17719986,22.29090342,11.85447967,11.72664631,11.94062668,13.41492991,17.36422208,17.41455547,18.23714923,19.83066815,19.89653894,0.988973219,1,1,1,1,1,1,1,31.505771,-83.555095,2015,GAH1
B73/MO17,MOH1_2_2020,N,17.90714286,731.1212129,0.571428571,1,248.1428571,114.2857143,56,54.14285714,2.765624954,8.119999743,10.23533287,1.900197364,6.862941181,7.496322061,3.61617108,2.901626778,3.303786197,88.49999854,40.59999871,96.12411712,56.39411764,8.455882353,68.01117661,117.8082348,21.52705885,101.3270584,18.75466287,21.25211372,22.58999711,20.28617166,20.64270943,17.48834951,18.15902921,17.2011884,14.69335169,22.18656257,30.76999931,28.84882905,30.74339714,30.90558787,31.2308437,28.74780649,29.21697892,24.17436303,12.23093753,19.21800041,17.30516703,20.0610583,19.70343171,21.50444419,18.15153395,17.40346693,12.7162556,10.41798935,16.99399986,15.18178367,17.42227064,17.30450979,18.37429674,15.5665539,15.53509051,11.41105442,0.936383936,1,1,1,1,1,0.996694042,0.965786214,38.8958275,-92.2071575,2020,MOH1
W10004_0216/PHZ51,KSH1_2015,N,16.5,771.0239551,0,2,229,110,85,82,0.688124985,3.518749885,2.537239536,4.634326915,6.340784251,4.013516285,5.753010874,3.95559662,1.81791271,22.01999953,28.14999908,47.40176476,147.1705882,9.165882307,38.18235242,161.646473,23.74705871,56.35529401,19.48910828,20.34062409,19.21958791,21.30664108,18.00351726,18.80818483,18.60066932,17.86718078,18.78253622,17.69406253,22.96750021,19.85221485,29.31892792,29.11705877,31.41670577,31.16760655,30.50505886,29.96204923,3.297187492,8.938749969,8.792561365,16.998743,18.09705929,19.84989561,20.1377744,20.03282345,17.06836811,6.184738542,9.476230158,8.381520189,15.38816616,15.61697663,17.65547515,17.65556265,17.32458654,15.75670183,0.6778125,1,0.850138809,1,1,1,1,0.98304554,39.21641775,-96.60482225,2015,KSH1
CG119/CG108,INH1_2016,N,15.1,668.692729,0,3.5,221.5,106.5,53.5,52.5,3.034516148,1.382857186,3.106568823,3.966270256,3.500454469,6.752636371,3.451172643,3.198528118,3.024422797,94.07000059,9.680000305,31.26000059,138.8759105,3.500454469,67.52636371,113.8927274,21.6654544,92.62590972,17.63328649,23.97511796,20.66441577,20.1236558,19.9706746,19.39149484,18.14527656,15.98533716,14.62820237,18.74516109,26.31142807,27.84898846,28.12893417,28.20272714,29.14504538,29.16779001,27.95564941,27.07739093,7.950322636,11.69428553,16.31817922,16.10606538,16.8522731,18.34872752,18.58889605,17.50284626,15.03841012,7.677100472,11.91689015,14.24288378,14.4184555,14.68521604,15.7994256,15.9329094,14.92238151,13.51734692,0.852649763,1,1,1,1,1,1,0.996102814,40.4787595,-86.98982,2016,INH1
PHW52/PHN82,MOH1_1_2018,N,18.56666667,731.1212129,0,2,212.6666667,85.33333333,54.33333333,52.66666667,4.419032262,0.120000001,6.56660792,4.995913726,0,0.865952386,4.867908623,7.318145406,3.629241153,136.9900001,0.840000004,71.60142667,150.6285707,0,7.793571472,145.6157139,39.85928573,112.0157138,18.39395777,18.46565301,20.1607481,20.70593221,19.87326009,21.97749135,18.06982858,17.46468943,16.31914076,19.5254839,22.76714298,27.16554273,29.60936822,31.6271427,32.32420578,29.51628185,29.85375934,27.04843165,7.99741943,14.14714282,16.43732974,18.81172612,21.79964249,20.71007941,19.44316189,19.21155699,15.91814144,7.992986492,11.1555316,14.00535673,16.26359619,18.7133926,18.51714259,16.54699664,16.60044059,13.86670431,0.872361758,1,1,1,1,1,1,0.995607144,38.89791675,-92.20952075,2018,MOH1
F42/OH43,ONH2_2019,N,28.95,683.7527963,5,1,275,122,60.5,52,3.148749955,1.707142813,2.884788786,4.447732757,0.559615387,2.381315681,1.591062148,2.963873616,2.693056068,100.7599986,11.94999969,28.24076917,155.5976948,1.398461539,27.51692318,83.67846091,41.8892306,82.50307587,19.66548085,22.32332843,21.1459014,19.53903082,19.21471346,16.24443645,13.80926932,11.15414419,7.415876262,21.25437486,24.3300002,28.12065395,27.65940311,26.58807711,26.0777262,22.19925608,19.8977064,9.549499144,11.33624993,14.43999985,17.94791472,17.45486711,16.31807709,16.95925516,13.13253797,10.95349597,1.834706344,9.515816833,11.92539607,15.12217856,14.69848405,13.62366511,13.69445237,10.64536319,9.344594814,3.453371008,0.985803572,1,1,1,1,0.93986372,0.838029257,0.289255913,42.45221275,-81.881844,2019,ONH2
PB80/PHZ51,OHH1_2016,Y,16.4,754.9341397,0,6.5,302.5,144.5,65,64,4.328064465,1.776000023,3.915145208,2.580740659,3.890757626,4.17049496,5.079069289,3.957741935,3.614594814,134.1699984,8.880000114,44.70363614,85.9177286,9.330454675,39.94818193,160.1854537,27.69772666,110.1186362,18.3437644,22.24283047,20.73146956,20.35982518,19.15233416,18.82824642,16.72048491,17.98730955,14.71797893,19.63580645,29.63200035,26.56953589,28.59263588,29.59106055,30.69283836,29.21689182,28.27188687,26.30588322,8.120967747,16.89599972,14.9739129,16.70528562,18.30318191,19.74443426,18.9160149,15.44500838,13.40262461,8.117657052,15.32722009,13.17028057,14.81678154,15.96857054,17.23303236,16.11713161,14.21502474,12.5845871,0.859331788,1,1,1,1,1,0.999172078,0.989049277,39.860924,-83.6755995,2016,OHH1
B73/PHN82,MOH2_2015,N,14.8,731.1212129,0,2.5,217.5,115,73.5,72.5,3.914838722,3.534545422,2.891676029,5.446623968,2.505882375,1.1137255,5.068586465,0.980448186,4.011119538,121.3600004,38.87999964,35.23176398,173.6929392,5.011764751,10.0235295,148.9223525,6.487058864,124.3447057,19.08701148,18.12534948,17.16717858,21.59629129,16.88945411,20.34516158,18.32895435,19.90608894,16.95494386,18.756129,18.24727275,23.87322904,29.02836507,30.59176479,31.93248319,30.27285599,28.73220747,28.34062618,6.152580692,8.059091026,15.30129973,17.80114352,21.94705907,21.39261428,20.17023127,17.40519331,17.20941189,7.288196993,7.58478923,12.05891064,15.51775091,18.26941193,18.66254873,17.2518739,15.21359182,14.97078901,0.75554147,0.814935086,1,1,1,1,1,1,38.89807917,-92.2079,2015,MOH2
PHG39/PHN82,ARH2_2018,N,15.125,731.1212129,0.5,2,178,80.5,67.5,66,4.523124937,5.877777735,3.202210455,3.225384198,0.461428574,5.0703967,1.707251537,1.546976178,1.915506911,144.739998,52.89999962,46.32285666,103.4992844,0.461428574,45.6335703,42.68714207,7.346428526,59.38071425,17.7541087,19.6455271,19.52097147,20.05684428,23.80737271,19.97823453,19.1297214,18.25489796,18.05597286,19.61875001,21.92000008,22.77345622,28.90718296,31.9800005,30.98396799,32.84130907,33.56595603,31.90391706,8.73406262,10.34777779,11.28771296,17.85430307,18.706429,19.75547635,22.48266054,23.2605133,21.25223495,8.305601359,9.423215554,10.22107903,15.52009327,17.35232514,17.37984482,19.61861005,20.2782542,18.53689778,0.857433028,1,0.994106717,0.995975764,1,1,1,1,35.674241,-90.0749725,2018,ARH2
LH198/PHZ51,NCH1_2015,N,16.5,731.1212129,0,0,241.5,130,65,64,3.0140625,9.692856925,3.043308324,7.00027835,0,3.411347986,2.886716411,10.31533332,6.56176467,96.44999999,67.84999847,47.46470581,233.8535261,0,30.12176424,80.44058821,53.94764695,203.4147048,18.56641886,18.5514961,20.38733283,17.18369043,24.39251002,21.03629604,20.30189304,17.27178406,15.58503138,22.38312501,24.94999995,23.18034629,27.40244989,31.82117664,31.76743482,33.30845927,33.22968591,31.16039845,8.592187501,12.50999982,10.48535005,18.40286831,19.92058833,21.46261411,22.34001137,22.61282364,21.92468694,9.285127697,11.46773529,10.15801447,14.99239002,17.87088248,18.60652477,19.71826945,19.84422869,18.53531879,0.955334819,1,0.995809598,1,1,1,1,1,35.29657708,-77.5664625,2015,NCH1
TX714/PHZ51,NYH1_2017,N,17.1,731.1212129,0.5,10.5,243,127.5,78.5,77.5,4.758709581,4.139999986,2.953024942,5.715506232,4.320872878,2.701732063,2.616328443,1.022630585,3.614268439,147.519997,37.25999987,45.12618999,219.9223815,11.26857107,35.6957141,128.4247627,13.30476207,110.8900009,18.97444351,17.81005277,22.0763727,19.38397475,18.56141379,19.22534974,16.71382568,13.43506643,9.037548332,17.06967752,20.23333359,22.7745171,25.66488699,26.70396817,25.32691524,23.26007272,23.96840526,17.61119819,5.964193534,10.19,10.93717632,15.20362294,16.36293638,14.60656728,11.31793404,11.56685323,6.669544781,6.641127344,8.727253675,10.15270493,12.79474615,13.71935226,12.37567782,10.45035179,10.9124923,7.239151369,0.685760371,1,1,1,1,0.982493678,0.953634339,0.701363064,42.72880835,-76.6515625,2017,NYH1
B97/PHB47,NEH1_2015,N,14.4,795.4804746,0,2,245,105,65,55.5,2.959062506,0.753999996,4.745632833,2.187040691,0.179999996,3.601448917,1.548000793,0.057812502,1.589214364,94.69000018,3.769999981,46.84999943,63.50812512,0.239999995,39.12187557,55.49499987,0.586250016,47.85812447,19.07194562,25.84699936,20.00593662,19.96245842,20.96463704,17.86296284,18.31175333,17.30405645,12.3794141,23.74906254,30.51399994,29.13009987,30.74148671,30.73750019,28.43858622,29.13031746,26.88374984,20.12342532,13.19218739,15.46999989,18.04036499,19.18092822,19.11281252,17.33248289,15.92131484,11.1533021,6.525200269,11.64481375,15.25955733,15.68336601,16.96891106,16.93845514,15.07345461,14.95183393,12.01070089,8.15887847,0.924598212,1,1,1,1,0.96969665,0.982957588,0.758540943,41.290979,-96.41664325,2015,NEH1
B14A/H95,GAH1_2016,N,14.55,842.4627356,0.5,20.5,195,90,59,58.5,6.466250051,4.395000041,0.566421492,2.549627568,3.17469698,5.859943136,4.096967014,2.330999996,2.476261007,206.9200016,35.16000032,6.21000006,86.0200003,9.52409094,52.42727233,105.6731797,11.65499998,76.76409122,15.95696127,18.25385642,20.33100053,20.74024209,20.01064868,19.54302735,19.38198769,19.26953352,18.21451922,23.62687498,22.98249984,28.56134937,29.4983659,33.37075638,32.62719045,33.25026907,34.51499955,33.94928126,11.29749997,10.47000009,15.64744728,16.2846205,20.78287862,20.61269551,21.56927107,22.51809092,22.40467728,10.53971422,9.962440438,14.36481163,15.11313475,19.02952924,18.56859265,19.26668195,20.34390963,19.99415841,0.993928569,1,1,1,1,1,1,1,31.5079175,-83.55854775,2016,GAH1
PB80/PHZ51,WIH1_2015,Y,23.9,786.4701779,0,0,277.5,150,65,64,4.730000059,9.059999784,2.430610682,6.190059866,3.242812514,1.739310909,2.563222068,2.582604527,2.064862235,151.3600019,54.3599987,32.30062549,198.0887501,6.485625029,21.11437514,113.2525011,35.42937557,62.48000012,19.32367544,22.19104989,23.8972515,19.04105101,21.62804324,20.72553659,16.09255797,13.7227876,9.595561915,19.95718755,28.15000025,26.05326099,28.85932006,29.07385437,26.51056077,24.82739399,20.18089026,14.51549808,8.517187543,15.30499983,11.82802944,17.48783518,16.48010375,14.49615378,12.31509137,8.581945626,2.680440183,8.558350873,13.98301754,11.81015597,15.26183828,14.95581898,12.98753542,11.68123469,8.628108428,5.087550731,0.777276777,1,1,1,1,0.929186389,0.833919484,0.505939954,43.05511725,-89.528525,2015,WIH1
LH195/PHN37,IAH2_2017,N,14.85,743.6712689,0,4.75,224.5,100.5,65,64,2.991935476,4.003749907,5.594154361,1.824159742,2.965909053,1.138616173,3.544395797,5.525860929,3.224964342,92.74999976,32.02999926,86.83999968,64.74363607,5.880909015,11.03545466,133.6850016,39.36636487,98.02272796,18.91811151,22.03083944,18.39067038,21.91300981,21.59707026,21.00058551,18.76246256,16.50136756,14.56336975,16.70258062,25.25375009,21.16444029,28.78792803,31.34295403,31.03890899,27.79230679,26.54138994,25.01808603,3.836129038,9.060000002,9.836484062,14.72352594,17.1804546,18.00485339,15.61890002,13.9478747,12.25710857,5.884356407,10.52058178,9.325556586,14.19611432,16.29393371,16.57150033,14.05801276,12.73803514,11.57992501,0.659274195,1,0.882113053,1,1,1,1,0.976890029,42.06582876,-94.72050129,2017,IAH2
2369/LH123HT,SCH1_2018,N,14.96,731.1212129,0,2,209,118.5,63,64,5.509375073,3.372500002,5.775327928,7.728127661,4.71095229,3.130603142,3.123485158,2.01328566,5.79306447,176.3000023,26.98000002,97.60999952,245.6735731,5.415714213,31.8442854,83.93428482,10.53785687,179.5849986,18.64772365,19.28692877,21.1730546,18.16318131,18.84742333,19.2548603,19.994513,19.31783344,16.30139442,22.53906247,22.53374982,23.09020479,27.61870045,28.0654766,28.90856809,32.58479132,33.48333298,31.1168664,9.301562469,9.311250091,8.762400081,17.50665347,16.7615475,18.38295894,21.20797915,21.67128537,20.80767273,9.591191253,9.400074843,9.574505228,14.76793775,14.51962258,15.72381397,18.86169653,19.45105318,17.96288574,0.951841518,1,0.982626499,0.991514695,1,1,1,1,34.6223015,-82.7364835,2018,SCH1
2369/LH123HT,TXH1-Dry_2018,N,11.45,741.4186947,0,2,254,91.5,73,73,2.442333295,0.87833333,4.91741256,2.91095925,1.112321411,5.987347663,3.094033648,2.445309502,2.573656677,73.26999886,5.269999981,55.2178573,113.3721426,4.449285643,64.36357035,86.72785865,13.67714274,77.357857,13.4988633,14.49154552,13.92485348,19.6618496,19.390827,19.64184359,19.38410293,21.21373351,18.01258323,19.68933331,26.95833333,25.66614373,26.56996845,30.24238085,29.14372996,31.91805433,33.2644762,34.51160554,6.357666679,15.03999996,15.13755815,13.69055459,18.24071415,16.44843436,20.63070323,20.50154739,23.97494014,7.613570572,13.40715604,12.87528071,12.79536137,16.34410207,15.0664779,18.21233438,18.75919739,20.40606275,0.821476194,1,0.991620595,0.99408643,1,1,1,0.999013392,30.546318,-96.4329965,2018,TXH1-Dry
B73/PHN82,OHH1_2017,Y,18,753.0033618,0,2,229,110,65,64,4.401935447,12.29571451,4.299880116,6.252045262,18.36299991,4.892395558,3.195317293,3.431958172,3.794688752,136.4599988,86.0700016,53.63949916,223.8204996,40.86499989,50.26800107,124.097,30.99400014,115.4320013,19.0647902,19.03427505,21.00226491,20.15032754,19.69555429,18.89580098,18.69837911,16.0400155,13.85510684,20.47903239,25.43142836,25.24002704,27.25803818,28.09541678,28.73270468,26.30456447,24.69395371,24.25720733,8.011935501,13.44999967,12.59882409,15.91673102,16.75358336,18.39824095,14.97688189,13.11535887,11.81284403,8.407228033,12.106522,11.63721293,13.8931373,14.6377479,15.63224373,13.07252875,11.66012039,11.13333271,0.85352535,1,1,1,1,0.996926048,1,0.96495674,39.855785,-83.66477375,2017,OHH1
PHB47/PHZ51,NEH1_2015,N,14.05,794.1932893,0,2,270,140,65,52,2.959062506,0.753999996,4.745632833,2.187040691,0.179999996,3.601448917,1.548000793,0.057812502,1.589214364,94.69000018,3.769999981,46.84999943,63.50812512,0.239999995,39.12187557,55.49499987,0.586250016,47.85812447,19.07194562,25.84699936,20.00593662,19.96245842,20.96463704,17.86296284,18.31175333,17.30405645,12.3794141,23.74906254,30.51399994,29.13009987,30.74148671,30.73750019,28.43858622,29.13031746,26.88374984,20.12342532,13.19218739,15.46999989,18.04036499,19.18092822,19.11281252,17.33248289,15.92131484,11.1533021,6.525200269,11.64481375,15.25955733,15.68336601,16.96891106,16.93845514,15.07345461,14.95183393,12.01070089,8.15887847,0.924598212,1,1,1,1,0.96969665,0.982957588,0.758540943,41.290979,-96.41664325,2015,NEH1
W10005_0107/PHB47,IAH1_2017,Y,15.55,740.7751021,2,1.5,184.5,73.5,65,64,3.40562493,4.965384584,4.756276119,1.833606587,3.814090996,2.221484887,3.670808328,1.81325484,2.347473118,108.9799978,64.54999959,71.28272616,63.78727258,4.177727374,22.83863677,118.9068186,13.7622725,72.03681816,16.19865167,17.41178014,18.84198651,22.07722619,19.57094626,20.6423577,19.65334879,19.12382584,16.87809105,17.11343735,15.37846162,22.95951679,28.09807267,26.50742381,30.27960591,29.79948923,26.92834941,26.37674051,5.413125027,4.923076978,11.46549016,14.16962528,11.61757578,16.65775237,16.66504091,13.38757222,12.41510662,6.530778339,5.768563812,10.45370215,13.71965113,11.94783378,15.64262598,15.39964617,12.71239892,12.1737806,0.629988832,0.555054952,0.946458762,1,1,1,1,0.998130952,41.19924609,-91.49402296,2017,IAH1
CG119/CG108,NEH4_2015,N,14.7,792.9061041,0,2,210,120,65,49,2.821875036,0,3.668207424,2.0125769,1.951249957,2.654893884,1.684158262,0.190010425,1.166079967,90.30000114,0,33.89000034,59.04687595,1.951249957,28.04999942,59.1787506,1.401875056,35.09749981,18.84220009,27.31064491,20.41342533,20.52862815,19.03072298,18.81303122,18.33826559,17.15407273,12.68489203,24.01437524,30.79399948,29.66091772,30.90712841,30.81250072,28.65153035,29.50292414,26.73776808,20.93262179,13.35843744,15.59799976,18.4981335,19.26878801,20.26031268,17.34358901,16.24316685,11.04417556,7.09840123,11.80342709,15.44887437,16.14310254,17.09436255,17.53736601,15.18702607,15.25106182,11.88303257,8.618375536,0.931774556,1,1,1,1,0.97284651,0.984144349,0.784438609,41.16732275,-96.41663225,2015,NEH4
PHG39/TX205,WIH2_2017,Y,23,751.7161766,0,2,275.5,144,79.5,80.5,5.048709616,4.636666616,1.142383575,5.763857885,8.001590729,6.160048604,1.607776433,1.167726513,2.257555268,156.5099981,41.72999954,17.5799998,219.3963643,12.14409065,74.04090792,72.28863683,15.04409093,68.0204557,18.1690344,19.72049554,20.64727683,20.23287988,19.13163679,19.37493243,18.51401576,14.93340477,10.89478233,16.03129027,21.86555545,22.15746071,26.59689143,27.90045501,26.76799254,24.73062069,22.38533393,20.51274781,3.24419354,8.791111098,9.553497601,14.54337319,16.81037892,15.37831158,12.19271258,9.193202486,7.868866577,5.438218202,9.209131236,9.451203107,13.05708411,14.51682301,13.37610723,11.31306373,9.686333754,8.853113959,0.624158991,0.847976183,0.950288768,1,1,0.998699911,0.954544862,0.834596302,43.3246415,-89.33688775,2017,WIH2
LH198/PHZ51,NEH1_2015,Y,14.1,795.4804746,0,2,265,125,65,54.5,2.959062506,0.753999996,4.745632833,2.187040691,0.179999996,3.601448917,1.548000793,0.057812502,1.589214364,94.69000018,3.769999981,46.84999943,63.50812512,0.239999995,39.12187557,55.49499987,0.586250016,47.85812447,19.07194562,25.84699936,20.00593662,19.96245842,20.96463704,17.86296284,18.31175333,17.30405645,12.3794141,23.74906254,30.51399994,29.13009987,30.74148671,30.73750019,28.43858622,29.13031746,26.88374984,20.12342532,13.19218739,15.46999989,18.04036499,19.18092822,19.11281252,17.33248289,15.92131484,11.1533021,6.525200269,11.64481375,15.25955733,15.68336601,16.96891106,16.93845514,15.07345461,14.95183393,12.01070089,8.15887847,0.924598212,1,1,1,1,0.96969665,0.982957588,0.758540943,41.290979,-96.41664325,2015,NEH1
B14A/H95,DEH1_2015,Y,18.2,680.9209887,0,3,248,124,68,62,2.877187484,6.848000002,1.658122271,2.899811139,0.533124998,6.398055441,4.542065261,4.666333417,5.694818618,92.06999949,68.48000002,26.86312445,94.40374921,0.778750002,57.58249897,115.8581242,26.73625046,176.5393772,18.09789148,17.20138936,20.11151884,21.0089777,21.53492481,19.24730516,17.70191113,15.05628078,15.14846735,16.82656264,19.24400005,20.72376954,27.68890342,31.56656283,31.86354174,32.09465687,30.43364003,29.09395151,6.265937505,9.858999991,10.7453803,17.67876376,20.38750017,21.35659703,22.77220607,22.28250884,20.56647162,6.521960329,8.412914767,9.229957748,14.85993723,17.9770315,18.58170739,19.36170697,18.35807444,16.86736745,0.750435273,0.870857151,0.962682184,1,1,1,1,1,38.62935675,-75.4656925,2015,DEH1
F42/H95,GAH1_2019,N,15.38,742.3840837,5.5,0.5,182.5,90,63,61.5,4.224827643,1.980000006,1.908236784,2.106472486,0,0.090714284,5.691865924,1.473428559,3.045620547,122.5200016,17.82000005,22.37999977,72.04999958,0,0.725714275,156.5528547,7.367142797,92.8692846,16.4500471,17.48633936,17.40259385,20.9384506,22.51147406,21.84430948,17.66714436,19.76491442,19.71139218,21.20655165,22.58666695,26.81574745,29.5228407,35.04273814,35.70196446,32.62270198,33.62814315,33.36893722,7.214827602,8.595555623,14.04498416,14.47543411,19.21654783,20.58464301,20.89661115,21.78014287,21.253149,8.370628681,9.274220075,12.91642218,14.40044999,18.67726543,19.28313207,18.63395398,19.63555568,19.18049021,0.90216748,0.984365085,1,1,1,1,1,1,31.50582525,-83.55515025,2019,GAH1
B73/TX779,TXH1_2020,Y,13.075,799.020234,0,2,221.615,76.835,70.75,69.5,2.284333333,0,4.613530444,2.949806388,1.362941181,6.741056464,2.844869093,3.829088224,2.301094231,68.53,0,55.97058804,110.7988238,1.362941181,71.52235312,82.32059028,18.97352936,69.29117607,13.91343843,13.3863348,15.08816438,19.79337859,19.48130546,19.24170726,19.77113757,20.7945973,17.91495332,20.02266652,27.17999992,26.60815942,26.52479293,29.39617636,29.12989124,32.2266946,33.03076485,34.59511331,6.794333295,17.20400028,15.2455437,13.65359797,17.29686298,16.61337131,20.73348334,20.06167624,24.24037069,7.901247141,14.27292515,13.38037585,12.76738989,15.58009007,15.11126374,18.39892159,18.53701373,20.50202011,0.821357143,1,0.99243504,0.993791594,1,1,1,0.999042533,30.53781575,-96.4283715,2020,TXH1
TX951/LH195,IAH4_2015,Y,24.8,719.5365458,36,0,284,156.5,65,64,1.42451612,4.854615514,2.513668144,6.351127419,5.46999979,2.154687441,1.85099418,0.335758934,4.064770202,44.15999973,63.11000168,35.58999979,218.2399999,10.93999958,20.30812445,58.48687407,2.377500039,125.1143763,19.83997888,19.28772805,16.02270398,20.69822917,17.27718186,21.35831173,20.17303565,19.59360772,15.6142427,15.83032262,16.78769229,22.26164163,27.88725423,29.37999988,31.52784708,28.69895342,30.18404469,25.46833276,2.473548389,5.024615425,13.48280789,16.59868734,20.37374985,19.78628468,17.37298211,16.89515858,12.68514048,5.318693913,6.228847238,10.78291245,14.47529064,16.87687486,17.66054739,15.18141656,15.71210426,12.05907357,0.585391697,0.659230777,0.98994413,1,1,1,1,0.952600636,41.19970961,-91.49362406,2015,IAH4
CG119/CG108,NYH2_2016,N,16.35,731.1212129,6.5,2.5,135,71,61.5,60.5,2.034516133,1.030000001,1.88805842,0.867300396,1.140952366,2.326450204,3.376451109,4.287746575,3.208572451,63.07000011,12.36000001,22.4085716,34.4438095,2.622857094,25.59095225,116.65619,31.75809508,97.82571426,19.21240982,23.35584625,23.40556822,22.17883586,23.94456446,21.25361649,17.18897092,16.17245816,13.35906413,14.04935483,18.68749992,27.50851283,26.23633728,28.78071431,29.31692664,28.41638555,26.44500865,23.15297547,1.686774175,4.439999988,12.92699036,12.85534504,13.89476193,15.65588736,16.863818,13.58818034,10.55762265,4.511298309,6.607155497,12.88765676,12.33330427,13.7996272,14.74166699,14.82295673,12.66050813,10.26842414,0.447315667,0.804761906,0.999400038,0.994542932,1,0.999880088,0.994843294,0.949842165,42.726117,-76.655339,2016,NYH2
B37/OH43,IAH2_2017,Y,17.7,731.1212129,0,2,229,110,65,64,2.991935476,4.003749907,5.594154361,1.824159742,2.965909053,1.138616173,3.544395797,5.525860929,3.224964342,92.74999976,32.02999926,86.83999968,64.74363607,5.880909015,11.03545466,133.6850016,39.36636487,98.02272796,18.91811151,22.03083944,18.39067038,21.91300981,21.59707026,21.00058551,18.76246256,16.50136756,14.56336975,16.70258062,25.25375009,21.16444029,28.78792803,31.34295403,31.03890899,27.79230679,26.54138994,25.01808603,3.836129038,9.060000002,9.836484062,14.72352594,17.1804546,18.00485339,15.61890002,13.9478747,12.25710857,5.884356407,10.52058178,9.325556586,14.19611432,16.29393371,16.57150033,14.05801276,12.73803514,11.57992501,0.659274195,1,0.882113053,1,1,1,1,0.976890029,42.06582876,-94.72050129,2017,IAH2
B73/PHZ51,WIH2_2016,Y,19.8,816.7190309,0,9.5,285,140,61,61,2.185483832,6.563333432,3.447094458,4.124693788,6.707159024,6.158880111,5.945293137,1.654273513,4.758742445,67.74999878,39.38000059,44.45545418,149.2718189,18.91272705,63.86318129,228.7613642,17.11772738,143.1609097,20.07161814,17.64681498,20.48120554,20.03716075,21.00097141,18.73971629,16.31911952,14.94670844,10.3303759,18.34677419,27.65666644,25.59626749,27.3504729,29.44640147,29.15349181,26.70938079,24.21329019,20.37268081,4.840000014,15.2516667,12.43660419,15.21846351,16.18390156,17.81047537,15.29826924,12.0891497,9.537770322,6.76617685,13.67923016,11.77429452,13.6256578,15.0809804,15.56950508,13.35737665,11.10536848,8.849967039,0.729688939,1,1,1,1,0.998061418,0.979766622,0.886131912,43.32649075,-89.33882925,2016,WIH2
LH74/PHN82,MIH1_2020,N,21.5,706.0211008,0,8,228.25,109,58.5,58,4.984838709,2.447142908,2.78018427,2.64718347,5.506875038,1.476884461,2.688717092,6.006552647,2.65185957,154.53,17.13000035,30.43499947,89.07562375,6.053750038,16.17374991,112.2143753,49.72375022,79.8756258,20.40588462,19.28742858,24.32683064,21.06964646,18.47526628,19.40802789,18.05267967,13.18055513,11.8632568,17.75483874,24.12857165,28.18736501,29.25734834,30.47187495,29.12451894,27.19720882,23.65947149,18.53645566,5.91032262,13.18571418,13.36449351,15.87753885,17.57625037,17.40439215,14.2199518,12.09430501,6.603961046,6.886871568,11.64218502,13.33305563,14.86544572,16.04104967,15.33737973,13.2580117,11.17810785,7.349100415,0.70564517,0.993469382,1,1,1,0.990981538,0.929873564,0.775463757,42.7085775,-84.4705825,2020,MIH1
F42/H95,WIH1_2018,N,20.755,795.6091931,0,2,252.25,114.25,69.25,67.5,1.609999989,7.097692302,4.543300024,5.384655594,12.90857152,6.684415526,1.835393967,1.490247701,3.282350194,49.90999967,92.26999992,56.1414287,188.537143,17.774286,73.52857079,76.14071582,18.50214262,100.642856,20.21844376,17.61529163,19.67186989,21.74517717,19.19342093,18.08513378,19.62003162,16.98075827,12.74863056,13.31193533,16.25923072,24.73561688,28.00164855,31.39095186,28.11097395,26.99453296,26.15077082,19.9357303,1.183225821,5.521538512,13.28283365,14.89542408,18.89249983,17.62870117,14.61713968,12.9208708,8.385953947,4.208379921,6.163069931,11.75441076,13.86262536,17.16453014,14.91796624,13.29691021,12.54059059,8.511099252,0.430714275,0.66777473,1,1,1,0.987929958,0.939058758,0.805939432,43.0544,-89.5317,2018,WIH1
PHB47/PHN82,NYS1_2020,N,15.8,734.339176,0,3.5,226,99.5,65.5,66.5,4.422257993,0,1.465106888,3.112730419,5.226388772,3.791500035,2.252145842,1.205606062,2.258500008,137.0899978,0,18.69000064,111.7083327,11.12166643,40.23500037,81.04333365,12.37166667,67.75500025,20.93932216,21.78258165,21.50902141,20.73125831,19.36904918,18.75308368,18.06102422,15.18229782,12.07034185,14.51129027,27.91833337,23.80048522,27.65661692,28.12555557,28.75518193,26.95460769,22.41267031,19.20822226,2.574516131,15.64333328,11.50500006,15.28648379,16.42583349,17.59142435,15.02631586,10.71009203,7.777611178,4.955392842,14.00347271,10.82536169,13.9247866,14.40689442,15.2259098,13.37336426,9.961154016,7.871549184,0.467914747,1,0.970676975,0.994134504,1,0.998779762,0.945742115,0.836474207,42.7322645,-76.651743,2020,NYS1
TX714/TX779,NYH2_2020,N,16.55,676.4158404,0,4,257.5,149,81,78,4.422257993,0,1.391731236,3.182357247,6.170888774,3.507901041,2.283490724,1.426918664,2.172175634,137.0899978,0,18.68266731,113.2706661,12.6093331,36.98266699,88.46933366,18.14666667,65.61600019,20.94267544,21.78244971,21.55666085,20.64321436,19.27786447,18.92984529,17.76882093,13.77968924,11.70490539,14.55447306,27.94977782,23.62933928,27.86541297,27.88688897,28.78672537,26.53302948,21.56675493,18.20507674,2.61195699,15.66431106,11.35573055,15.51025755,16.31100023,17.48208292,14.53826355,10.86377734,6.879177126,4.979415324,14.02697238,10.70801105,14.09392345,14.22879085,15.20067311,13.04971037,9.749522427,7.387680802,0.470065285,1,0.969822941,0.995242037,1,0.988859641,0.904446401,0.765938608,42.73230075,-76.65036275,2020,NYH2
PHN11_PHW65_0323/LH195,MIH1_2016,N,18.55,714.3878048,0,1.5,221,110.5,65.5,63.5,3.213870927,0.372000003,1.277668238,2.072144594,0.204761899,2.382636341,6.277866916,3.129595251,4.115734243,99.62999874,1.860000014,16.77857134,74.4033328,0.614285696,24.34142835,217.3680916,23.88571438,123.5814282,20.04481233,22.69628944,22.57460654,21.19066928,19.62511718,19.41470496,17.43536011,14.16523572,12.41239439,17.74322581,29.20999985,25.57947765,28.1508514,27.23547651,30.32783564,28.27294529,26.6388532,22.50219404,5.299677434,16.33600006,11.90361174,14.70447611,15.74579377,17.52671,16.25511672,15.58650841,10.86825081,6.615827776,14.89908974,11.62365975,13.82943527,13.70908531,16.01583991,14.48649579,13.48265,10.09129455,0.734400922,1,1,1,1,0.999987733,0.99326559,0.936590208,42.41206675,-84.2952625,2016,MIH1
B37/MO17,WIH1_2017,Y,17.7,731.1212129,0,2,229,110,65,64,3.894838602,1.694000003,3.49156578,6.251914317,26.29780264,12.3515148,1.782621048,1.031219451,2.019413967,120.7399967,16.94000003,60.77000046,238.2086357,55.48409002,148.2181776,77.27181808,11.13545426,60.74545419,17.96009764,21.56986256,18.71582301,20.73316127,19.69440102,19.58726141,19.1692292,15.69151392,12.21998586,16.03451621,20.2119998,20.22998088,26.71060266,27.00553033,27.16428033,24.80808837,24.03641879,21.845045,3.37838715,6.260000002,9.268565708,14.6662765,15.35575767,16.21109857,13.17589581,11.52521119,9.509429623,5.507434962,7.720411242,8.664602637,13.14891279,13.46068042,13.9043846,11.67856357,10.90146065,9.608265423,0.606900932,0.8735357,0.867893568,1,1,0.998220242,0.971647403,0.89569217,43.05668125,-89.5308135,2017,WIH1
F42/MO17,ILH1_2019,Y,17.85,772.954733,0,0,247,141.5,61.5,60,3.922903261,5.481666605,1.00366755,4.244691953,0.864761892,1.289377346,1.227411081,2.864647074,2.116070648,121.6100011,32.88999963,10.01785682,147.0385723,1.34571428,11.77428573,45.42428628,20.70571404,64.49999962,18.80145381,19.65322081,22.67392072,19.84274881,20.61125065,20.0231267,19.28032854,15.59344345,14.97056188,19.78774188,27.49499989,27.66771062,28.39175175,31.90428638,30.86753304,28.53869606,27.75133519,26.64299619,8.822580737,16.11666648,15.73801632,17.44140675,20.6435711,19.81749468,16.71837596,16.74759351,14.38373492,8.392897398,14.01107102,13.933587,15.08804109,18.28423173,17.40393302,14.78980986,14.45116262,13.1086535,0.871382484,1,1,1,1,1,1,0.979387755,40.0587105,-88.2298385,2019,ILH1
W10005_0107/PHB47,NYH2_2017,Y,15.4,732.4083981,0,6.5,230,103,71.5,71,4.985806354,2.593333337,3.453715005,5.89688957,0.948070192,3.208418109,2.379655727,2.694333021,3.397972982,154.559997,23.34000003,55.2357889,222.9889478,1.763157895,41.81263091,117.7794744,23.637895,104.1910535,18.91896409,18.22902181,21.62310913,19.28169434,21.2024166,18.91678159,16.97406986,13.88043676,9.439494818,16.54903238,19.80111122,22.34881997,25.65461899,27.16105275,25.3148988,23.28803047,24.25146582,18.24460841,5.239677404,10.2422222,10.55939387,15.21770316,15.87359667,14.84504335,11.5614249,11.15398494,7.352427253,6.267898103,8.570747831,9.793885142,12.80097944,13.68904673,12.46138399,10.55155578,10.87663924,7.688896934,0.638917053,1,1,1,1,0.981507475,0.966916282,0.722284214,42.73248125,-76.65275025,2017,NYH2
PHN11_PHG47_0251/PHB47,NEH3_2015,N,14.25,771.6675477,0,1,229,110,62,62,3.231250057,0.918000031,0.565093977,1.286692195,3.19749999,1.391136354,0.258061221,1.474667183,0.155891338,103.4000018,4.590000153,6.150000095,39.04749978,4.720000029,15.30249989,11.17999983,14.52874985,4.648125023,21.79127574,25.69442635,22.86725485,21.82271665,15.26317632,20.59079,20.06412842,16.27968968,13.53861776,24.28750017,32.64599991,30.58771447,32.67731329,28.91593772,29.87238656,30.80707127,25.39031645,21.32018275,9.278749934,13.0079998,13.8828633,15.7826582,17.05531204,14.62710229,13.18313307,8.87540479,3.334017086,10.46257825,15.28330691,14.45465852,16.22005678,15.0938879,14.496454,14.53020136,10.90039565,7.851747396,0.909587052,1,1,1,1,0.965712824,0.862507779,0.80953931,41.15824525,-101.9872958,2015,NEH3
B14A/H95,NEH3_2015,Y,15,763.3008437,0,2,229,110,65,62,3.231250057,0.918000031,0.565093977,1.286692195,3.19749999,1.391136354,0.258061221,1.474667183,0.155891338,103.4000018,4.590000153,6.150000095,39.04749978,4.720000029,15.30249989,11.17999983,14.52874985,4.648125023,21.79127574,25.69442635,22.86725485,21.82271665,15.26317632,20.59079,20.06412842,16.27968968,13.53861776,24.28750017,32.64599991,30.58771447,32.67731329,28.91593772,29.87238656,30.80707127,25.39031645,21.32018275,9.278749934,13.0079998,13.8828633,15.7826582,17.05531204,14.62710229,13.18313307,8.87540479,3.334017086,10.46257825,15.28330691,14.45465852,16.22005678,15.0938879,14.496454,14.53020136,10.90039565,7.851747396,0.909587052,1,1,1,1,0.965712824,0.862507779,0.80953931,41.15824525,-101.9872958,2015,NEH3
B37/H95,TXH1_2019,Y,12.05,855.3345879,0,0,185.5,62.5,72,69.5,1.71448275,0.072857141,3.656594302,9.095434564,0.409285716,1.207678571,5.355850783,1.246142852,1.574419343,49.71999974,0.50999999,52.00785631,328.2121388,0.592857139,9.661428571,146.4478573,6.531428533,47.51499965,15.42805705,20.52131135,18.76898834,18.57032559,21.42349659,18.85281525,20.14881361,21.03072751,19.84089234,18.45000007,25.76428577,24.43254944,27.27586732,31.09000002,32.37866099,32.72435205,34.04471448,34.98200776,6.826206914,10.35000004,10.67963154,14.78766739,18.65857179,21.85071427,21.02442735,21.79614282,22.6049739,7.457816468,11.1589152,10.85119479,13.46630403,16.91193677,19.11412105,18.84765314,19.77807102,20.01419559,0.749667494,1,0.945308164,1,1,1,1,0.999698925,30.546318,-96.4329965,2019,TXH1
PHG39/PHN82,WIH2_2019,N,30.15,668.0491364,0,0,269.1666665,127.9166668,67,67.25,5.084687524,1.186666648,3.682690384,5.868440751,0.695238091,4.73009737,4.315774648,4.395502279,4.547947068,162.7100008,7.119999886,58.08928529,183.8007161,1.222857135,55.05428533,207.5435701,59.53000056,136.8792876,20.51840827,23.10255337,19.84622659,19.54978709,22.13574316,19.04821964,14.90817086,12.98397937,9.337872891,18.93468753,26.85500018,22.80729416,28.92841129,27.86750015,27.53142967,23.33864799,22.30785619,12.19546616,7.173437506,12.79833317,11.75963315,17.3057567,14.67845241,15.42498763,12.56161555,11.34993986,2.687473085,7.568173943,12.44054354,10.32084191,15.24419851,13.63574066,13.78240318,10.8770868,10.55092288,4.713570865,0.808549105,1,0.995612408,1,1,0.966295589,0.875965566,0.450550638,43.320768,-89.33189475,2019,WIH2
W10005_0107/PHB47,NYH2_2015,N,16.3,731.1212129,3,7,213,90,79,79,3.814193487,2.822857129,1.806874641,1.427310218,14.28882354,6.323155046,2.553769654,1.263651931,1.70374005,118.2399981,39.5199998,23.5252947,50.99705838,17.86235295,65.18176435,90.43176518,10.71352917,51.74117684,19.21827184,21.58410556,20.44972798,21.8367517,17.34067749,18.34945618,18.49425604,17.55625849,13.84215422,11.26903224,15.86071418,24.70888252,27.12764594,29.5805878,28.55383422,27.75922879,25.11594081,20.73318661,0.676451599,3.065714287,12.68317757,14.19692254,19.48862723,17.66257776,16.12899413,12.03346763,8.797239788,3.458861152,5.522653893,11.65565145,13.2498794,16.56577659,15.18766176,14.16580901,11.53845799,8.731216192,0.261509218,0.568112238,0.971160735,0.994106254,1,0.999864887,0.980226591,0.898542131,42.7324825,-76.65277775,2015,NYH2
F42/H95,OHH1_2016,N,18.25,763.9444363,0,9.5,270.5,128,65,64,4.328064465,1.776000023,3.915145208,2.580740659,3.890757626,4.17049496,5.079069289,3.957741935,3.614594814,134.1699984,8.880000114,44.70363614,85.9177286,9.330454675,39.94818193,160.1854537,27.69772666,110.1186362,18.3437644,22.24283047,20.73146956,20.35982518,19.15233416,18.82824642,16.72048491,17.98730955,14.71797893,19.63580645,29.63200035,26.56953589,28.59263588,29.59106055,30.69283836,29.21689182,28.27188687,26.30588322,8.120967747,16.89599972,14.9739129,16.70528562,18.30318191,19.74443426,18.9160149,15.44500838,13.40262461,8.117657052,15.32722009,13.17028057,14.81678154,15.96857054,17.23303236,16.11713161,14.21502474,12.5845871,0.859331788,1,1,1,1,1,0.999172078,0.989049277,39.860924,-83.6755995,2016,OHH1
2369/LH123HT,MOH1_2_2020,N,16.38,731.1212129,0.2,0.4,259.4,123,56,55.8,2.765624954,8.119999743,10.23533287,1.900197364,6.862941181,7.496322061,3.61617108,2.901626778,3.303786197,88.49999854,40.59999871,96.12411712,56.39411764,8.455882353,68.01117661,117.8082348,21.52705885,101.3270584,18.75466287,21.25211372,22.58999711,20.28617166,20.64270943,17.48834951,18.15902921,17.2011884,14.69335169,22.18656257,30.76999931,28.84882905,30.74339714,30.90558787,31.2308437,28.74780649,29.21697892,24.17436303,12.23093753,19.21800041,17.30516703,20.0610583,19.70343171,21.50444419,18.15153395,17.40346693,12.7162556,10.41798935,16.99399986,15.18178367,17.42227064,17.30450979,18.37429674,15.5665539,15.53509051,11.41105442,0.936383936,1,1,1,1,1,0.996694042,0.965786214,38.8958275,-92.2071575,2020,MOH1
W10001_0022/PHB47,ONH2_2016,N,17.65,729.190435,0,7.5,238,100.5,71.5,65.5,1.435483875,1.740833327,1.463802716,3.022687524,0.150999999,1.134659085,3.046446673,1.693503778,2.765116665,44.50000012,20.88999993,18.84600039,117.1590009,0.150999999,12.25349994,101.0444998,13.16149993,84.26899996,19.72563927,22.19747464,21.68954048,21.77365896,18.98664827,19.92678304,16.69906166,15.68152671,12.9072029,14.10741935,17.58083336,26.00758685,26.04894451,27.78099985,28.79287246,28.2480382,25.9224786,23.75348014,4.257419363,7.13166666,15.03828811,14.1477789,17.72699971,17.33924119,18.24672102,15.95494667,14.17526013,5.131346137,6.986841243,12.85116395,12.65171997,14.84296497,15.26027205,15.31782021,13.26534606,11.67621189,0.511244241,0.799851209,1,1,1,1,1,0.975829282,42.4530035,-81.88279875,2016,ONH2
LH195/PHN37,ARH2_2017,N,17.75,731.1212129,0,2,193,83,65.5,64,2.789999995,15.83285686,4.776016413,2.853949028,1.142500003,5.651818152,3.905948255,2.4430325,4.688621725,89.27999985,110.829998,61.6427269,88.95863769,3.003181826,52.42863608,105.2449988,13.33772746,145.3472735,17.14489296,19.09436907,20.93439511,19.65670258,19.84409681,19.1211903,18.81176407,19.65259997,17.546866,23.65656266,24.55142866,25.38541455,28.9612549,32.40098458,30.84565692,31.84241473,32.83627249,30.20087953,12.07343751,12.16142872,12.7110645,18.0477898,21.78734854,20.24410098,21.87781566,22.25639174,20.26112908,10.83878158,11.22094165,11.88579938,15.62584547,19.09416656,17.54487895,18.8103181,19.27693671,17.25265116,0.991674107,1,0.97315368,1,1,1,1,1,35.67418125,-90.0752695,2017,ARH2
CG44/CGR01,ONH2_2019,Y,21.55,680.6635517,0,2,240.5,98,51.5,49.5,3.148749955,1.707142813,2.884788786,4.447732757,0.559615387,2.381315681,1.591062148,2.963873616,2.693056068,100.7599986,11.94999969,28.24076917,155.5976948,1.398461539,27.51692318,83.67846091,41.8892306,82.50307587,19.66548085,22.32332843,21.1459014,19.53903082,19.21471346,16.24443645,13.80926932,11.15414419,7.415876262,21.25437486,24.3300002,28.12065395,27.65940311,26.58807711,26.0777262,22.19925608,19.8977064,9.549499144,11.33624993,14.43999985,17.94791472,17.45486711,16.31807709,16.95925516,13.13253797,10.95349597,1.834706344,9.515816833,11.92539607,15.12217856,14.69848405,13.62366511,13.69445237,10.64536319,9.344594814,3.453371008,0.985803572,1,1,1,1,0.93986372,0.838029257,0.289255913,42.45221275,-81.881844,2019,ONH2
LH74/PHN82,NYH2_2018,N,18.92,696.3243054,0,2,181.3333333,92,67.66666667,66.66666667,4.152903213,0.855714253,1.31693108,2.056877316,18.60714291,4.17142208,1.796460541,3.71345921,2.001911684,128.7399996,5.989999771,17.50499944,73.5107149,37.6500001,45.13714288,70.0178584,34.82000022,60.53000028,20.64383799,23.73438372,20.97980276,21.28373647,15.72294375,18.26843876,18.50915054,13.77481919,12.83457813,12.82806446,24.72714315,24.76775456,27.60101009,28.96428537,28.5122727,26.91050025,24.01606741,19.66558606,1.452258048,10.48999977,13.07559666,14.8719081,19.08642861,17.4819286,14.95013511,12.80738491,7.865124395,4.113027627,10.74522894,11.82847182,13.74928068,16.05096628,15.06575239,13.37181447,11.42873851,8.144119245,0.351670502,1,0.973410204,0.99504728,1,0.991140913,0.940533101,0.821942422,42.72611075,-76.65530175,2018,NYH2
LH74/PHN82,ONH2_2019,N,33.4,673.9701885,4,6.5,225.5,97,58,55,3.148749955,1.707142813,2.884788786,4.447732757,0.559615387,2.381315681,1.591062148,2.963873616,2.693056068,100.7599986,11.94999969,28.24076917,155.5976948,1.398461539,27.51692318,83.67846091,41.8892306,82.50307587,19.66548085,22.32332843,21.1459014,19.53903082,19.21471346,16.24443645,13.80926932,11.15414419,7.415876262,21.25437486,24.3300002,28.12065395,27.65940311,26.58807711,26.0777262,22.19925608,19.8977064,9.549499144,11.33624993,14.43999985,17.94791472,17.45486711,16.31807709,16.95925516,13.13253797,10.95349597,1.834706344,9.515816833,11.92539607,15.12217856,14.69848405,13.62366511,13.69445237,10.64536319,9.344594814,3.453371008,0.985803572,1,1,1,1,0.93986372,0.838029257,0.289255913,42.45221275,-81.881844,2019,ONH2
PHG80/PHZ51,TXH1_2016,N,10,692.5056558,0,2,204.5,67.5,71.5,71,1.633666698,16.13999993,0.99702422,4.719865603,0.129393939,3.277272727,13.06232457,0.703636358,1.017125621,49.01000094,112.9799995,14.5313639,177.3549991,0.33090909,36.05,378.0672674,3.179999969,30.53454577,13.9726292,10.72874144,17.88940951,17.80076093,20.55685321,19.77792414,17.90480363,20.8338604,20.14326093,22.32500016,23.95000022,24.48309256,26.40498513,28.5388636,28.63545455,30.12870319,34.35404525,35.58838723,6.034666632,13.33571414,9.675379644,13.12758779,15.78530267,16.33764454,20.13902853,23.08186362,24.00118421,8.473379033,11.29783551,10.5045992,12.46111665,14.43681279,14.72204148,17.12368238,20.53225114,20.87599038,0.915869048,1,0.972225207,1,1,1,1,1,30.54708625,-96.43393475,2016,TXH1
LH82/PHB47,COH1_2017,N,20.6625,654.8554878,2.875,12.125,200.25,75,68.75,67.5,3.393124943,0,0.001708684,0.360843908,0.891428554,3.560382097,1.42287895,1.565670675,1.770870451,108.5799982,0,0.02904762,12.29476177,1.600476163,43.78523833,56.48285717,21.02523811,53.20285701,22.26802993,25.65694836,25.9931063,24.2875628,21.26982858,19.37652668,19.65631787,15.92591012,11.99136935,20.38624986,26.27857154,29.00990249,30.95750085,32.84396765,29.24597739,27.87075516,24.49812031,17.64004964,4.676250031,9.955714362,11.44166305,13.33492254,15.64190474,14.2894836,11.55992968,8.650869984,2.505724526,7.387813889,11.22152513,12.97827389,14.53136664,16.23032426,14.11586508,12.58015619,10.40568176,6.007000116,0.859799101,1,1,1,1,0.978368119,0.882220332,0.653649732,40.64850025,-104.9997825,2017,COH1
F42/H95,TXH1_2019,Y,11.88,882.3075545,0,0,209.5,75,69,67.5,1.71448275,0.072857141,3.656594302,9.095434564,0.409285716,1.207678571,5.355850783,1.246142852,1.574419343,49.71999974,0.50999999,52.00785631,328.2121388,0.592857139,9.661428571,146.4478573,6.531428533,47.51499965,15.42805705,20.52131135,18.76898834,18.57032559,21.42349659,18.85281525,20.14881361,21.03072751,19.84089234,18.45000007,25.76428577,24.43254944,27.27586732,31.09000002,32.37866099,32.72435205,34.04471448,34.98200776,6.826206914,10.35000004,10.67963154,14.78766739,18.65857179,21.85071427,21.02442735,21.79614282,22.6049739,7.457816468,11.1589152,10.85119479,13.46630403,16.91193677,19.11412105,18.84765314,19.77807102,20.01419559,0.749667494,1,0.945308164,1,1,1,1,0.999698925,30.546318,-96.4329965,2019,TXH1
LH195/PHN37,IAH1_2017,Y,16.85,759.7610843,0.5,1.5,211.75,97.75,65,64,3.40562493,4.965384584,4.756276119,1.833606587,3.814090996,2.221484887,3.670808328,1.81325484,2.347473118,108.9799978,64.54999959,71.28272616,63.78727258,4.177727374,22.83863677,118.9068186,13.7622725,72.03681816,16.19865167,17.41178014,18.84198651,22.07722619,19.57094626,20.6423577,19.65334879,19.12382584,16.87809105,17.11343735,15.37846162,22.95951679,28.09807267,26.50742381,30.27960591,29.79948923,26.92834941,26.37674051,5.413125027,4.923076978,11.46549016,14.16962528,11.61757578,16.65775237,16.66504091,13.38757222,12.41510662,6.530778339,5.768563812,10.45370215,13.71965113,11.94783378,15.64262598,15.39964617,12.71239892,12.1737806,0.629988832,0.555054952,0.946458762,1,1,1,1,0.998130952,41.19924609,-91.49402296,2017,IAH1
TX714/PHZ51,GAH1_2016,N,14.1,794.8368819,0,14.5,215,110,61.5,59,6.466250051,4.395000041,0.566421492,2.549627568,3.17469698,5.859943136,4.096967014,2.330999996,2.476261007,206.9200016,35.16000032,6.21000006,86.0200003,9.52409094,52.42727233,105.6731797,11.65499998,76.76409122,15.95696127,18.25385642,20.33100053,20.74024209,20.01064868,19.54302735,19.38198769,19.26953352,18.21451922,23.62687498,22.98249984,28.56134937,29.4983659,33.37075638,32.62719045,33.25026907,34.51499955,33.94928126,11.29749997,10.47000009,15.64744728,16.2846205,20.78287862,20.61269551,21.56927107,22.51809092,22.40467728,10.53971422,9.962440438,14.36481163,15.11313475,19.02952924,18.56859265,19.26668195,20.34390963,19.99415841,0.993928569,1,1,1,1,1,1,1,31.5079175,-83.55854775,2016,GAH1
B14A/MO17,TXH3_2020,N,10.5275,1267.233863,0,2,233.68,102.87,60,59.5,3.45875001,5.345714297,0.996479651,4.090893152,11.37176514,0.055555557,3.334418123,0.880352915,2.226110039,110.6800003,37.42000008,12.08058808,124.9758839,22.74353027,0.450000013,88.32823513,3.714117541,69.00941121,15.8034201,18.34009743,21.30541133,19.40762275,20.16580067,20.62125497,19.02899565,16.94703156,18.75160362,25.77062485,24.00285694,27.63577502,29.95402965,30.19186265,32.38063702,33.36328143,35.03835301,35.63206825,14.19906271,12.24428552,13.92062761,17.60156859,18.33921522,21.14142164,21.88591696,25.71364726,24.34760913,12.60372436,11.20425028,13.29865333,15.96364287,16.27361839,18.69618421,19.4144726,21.47019646,20.81901077,0.989866069,1,1,1,1,0.99995416,0.999321567,0.998827006,30.53869475,-96.4274175,2020,TXH3
B97/PHB47,ONH2_2015,Y,19.75,773.5983256,0,1,267.5,126,77.5,74.5,1.876451608,4.282666683,1.928005431,1.58261263,10.80264742,1.923208582,3.114388399,4.294901914,2.356388962,58.16999984,64.24000025,23.61999965,57.22470651,21.60529484,21.1552944,115.5017658,31.56294079,72.1164696,18.95380112,18.76709785,21.17743809,22.45418875,20.04103015,18.4543581,18.45373918,15.80078253,13.34539525,11.17387095,14.38466663,23.91200153,26.61279381,30.15176526,27.65053462,26.77986929,25.87464046,20.7920557,2.006774224,5.636000033,13.64950245,15.64688346,19.32647026,18.51812829,16.74694623,15.4972221,11.03054456,3.742938436,5.617129505,11.53065914,13.52353119,16.78542678,15.13421866,13.95153495,13.1846932,9.37660249,0.276970043,0.589690475,0.985132406,1,1,1,0.993019959,0.931831119,42.45408625,-81.8816065,2015,ONH2
B73/PHZ51,ARH1_2017,N,16.8,713.7442122,0,2,205.75,119.4,71,68,3.058125025,3.532857077,9.871688678,6.405160528,0.516363615,5.988171668,5.119232493,3.102318153,5.34158356,97.86000079,24.72999954,132.0327285,211.6218184,0.569545432,54.36818138,136.8913653,16.08272713,165.5890903,17.13974981,16.55343887,20.38424011,18.76225527,22.81364793,19.06964508,19.53553475,19.77193111,17.12972935,24.60906261,23.96000045,24.77057006,28.06605652,30.35469691,31.5146664,31.30577636,32.78459133,30.91587993,11.9175,14.17857156,11.8445801,17.60850246,18.97249995,21.30615642,21.39979275,22.50533316,21.62237538,11.1639709,11.77578055,11.22655186,14.97537354,16.74359516,18.41041141,18.33049426,19.54768126,18.22457608,1,1,1,1,1,1,1,1,34.7272515,-90.76032575,2017,ARH1
B14A/MO17,WIH1_2017,Y,20.3,679.6338035,0,2,270,138,80,80,3.894838602,1.694000003,3.49156578,6.251914317,26.29780264,12.3515148,1.782621048,1.031219451,2.019413967,120.7399967,16.94000003,60.77000046,238.2086357,55.48409002,148.2181776,77.27181808,11.13545426,60.74545419,17.96009764,21.56986256,18.71582301,20.73316127,19.69440102,19.58726141,19.1692292,15.69151392,12.21998586,16.03451621,20.2119998,20.22998088,26.71060266,27.00553033,27.16428033,24.80808837,24.03641879,21.845045,3.37838715,6.260000002,9.268565708,14.6662765,15.35575767,16.21109857,13.17589581,11.52521119,9.509429623,5.507434962,7.720411242,8.664602637,13.14891279,13.46068042,13.9043846,11.67856357,10.90146065,9.608265423,0.606900932,0.8735357,0.867893568,1,1,0.998220242,0.971647403,0.89569217,43.05668125,-89.5308135,2017,WIH1
F42/H95,GAH2_2016,N,12.9,731.1212129,0,2,243,203.5,53.5,51.5,1.486129045,0,7.316392826,2.079782856,1.718421064,1.264671045,2.43256314,4.61773679,3.235456168,46.07000041,0,60.50999928,55.97210474,3.436842128,10.11736836,67.31736801,23.15894711,100.2847377,20.21189387,22.87583466,19.10112302,21.34036575,17.85876091,19.83818451,18.50479945,15.9975398,17.29687983,27.80677426,30.50400009,32.06010812,34.2138269,34.93842035,34.86282896,34.62455114,33.33373696,32.80003392,13.8351613,16.55600014,19.35906305,20.32019684,22.9621054,21.76434208,22.04984942,22.29670187,20.14649938,13.32566871,15.60302283,17.72531793,18.78372546,20.36638125,19.89190838,19.9091667,19.70080105,18.42340329,1,1,1,1,1,1,1,1,33.717295,-83.3110275,2016,GAH2
PHG29/PHG47,GAH1_2017,N,12.6,732.4083981,0,1.5,160,75,56,56,1.929687474,5.730000019,0.343252103,3.449286585,2.107618968,4.586772466,5.884115127,3.462793619,5.790337869,61.74999917,45.84000015,4.185237975,115.4628578,3.161428452,44.24761888,164.3961923,18.00285697,179.500474,16.80249013,20.13732326,20.17342047,19.27076224,21.20480144,16.6798163,18.15858085,19.37517402,17.73704587,23.5584375,24.76124978,28.73884546,29.02932191,29.79031757,30.11825943,30.88468736,33.04158726,32.39466959,8.654999979,9.073749959,13.81601286,15.94569083,16.85142871,20.07059283,21.0580027,22.24365102,22.03411694,9.935165979,10.3201674,13.6844889,14.81363998,15.5596332,17.10789698,17.95959829,19.61349988,19.1980032,0.8834375,1,1,1,1,1,1,1,31.50794425,-83.55854475,2017,GAH1
B37/H95,TXH3_2020,N,10.1725,1780.820771,0,2,233.045,94.615,63.75,61.5,3.45875001,5.345714297,0.996479651,4.090893152,11.37176514,0.055555557,3.334418123,0.880352915,2.226110039,110.6800003,37.42000008,12.08058808,124.9758839,22.74353027,0.450000013,88.32823513,3.714117541,69.00941121,15.8034201,18.34009743,21.30541133,19.40762275,20.16580067,20.62125497,19.02899565,16.94703156,18.75160362,25.77062485,24.00285694,27.63577502,29.95402965,30.19186265,32.38063702,33.36328143,35.03835301,35.63206825,14.19906271,12.24428552,13.92062761,17.60156859,18.33921522,21.14142164,21.88591696,25.71364726,24.34760913,12.60372436,11.20425028,13.29865333,15.96364287,16.27361839,18.69618421,19.4144726,21.47019646,20.81901077,0.989866069,1,1,1,1,0.99995416,0.999321567,0.998827006,30.53869475,-96.4274175,2020,TXH3
WF9/H95,NEH4_2015,N,15,787.7573632,0,2,250,110,65,58,2.821875036,0,3.668207424,2.0125769,1.951249957,2.654893884,1.684158262,0.190010425,1.166079967,90.30000114,0,33.89000034,59.04687595,1.951249957,28.04999942,59.1787506,1.401875056,35.09749981,18.84220009,27.31064491,20.41342533,20.52862815,19.03072298,18.81303122,18.33826559,17.15407273,12.68489203,24.01437524,30.79399948,29.66091772,30.90712841,30.81250072,28.65153035,29.50292414,26.73776808,20.93262179,13.35843744,15.59799976,18.4981335,19.26878801,20.26031268,17.34358901,16.24316685,11.04417556,7.09840123,11.80342709,15.44887437,16.14310254,17.09436255,17.53736601,15.18702607,15.25106182,11.88303257,8.618375536,0.931774556,1,1,1,1,0.97284651,0.984144349,0.784438609,41.16732275,-96.41663225,2015,NEH4
B14A/OH43,TXH1-Late_2018,N,11,739.4879169,0,2,244,90,59.5,59,3.579375003,7.22999986,0.880950212,3.393996506,5.74642872,3.619146949,3.455600496,0.428285708,2.278709721,114.5400001,43.37999916,11.7107143,109.309285,11.49285744,35.41714406,87.15857094,2.141428539,70.64000136,15.18905504,16.98149872,20.4111462,19.99876216,15.81608334,20.1152116,19.58230121,16.39417859,18.61523184,25.42156261,25.48166672,24.9240565,29.86096768,30.55928573,31.11103384,33.47173554,33.67857067,35.62923946,13.73406251,14.7233332,12.14174484,16.97683375,21.17380969,19.92907914,21.60030195,24.8844286,24.53525352,12.24876106,12.9546326,11.47321097,15.6369769,17.86869493,17.49319399,19.34856645,20.63058471,20.90474588,0.995234379,0.961607144,1,1,1,0.999944236,0.999152383,0.999033412,30.546318,-96.4329965,2018,TXH1-Late
PHW52/PHN82,ARH2_2017,N,15.975,731.1212129,0,2,166,61.25,65,61.5,2.789999995,15.83285686,4.776016413,2.853949028,1.142500003,5.651818152,3.905948255,2.4430325,4.688621725,89.27999985,110.829998,61.6427269,88.95863769,3.003181826,52.42863608,105.2449988,13.33772746,145.3472735,17.14489296,19.09436907,20.93439511,19.65670258,19.84409681,19.1211903,18.81176407,19.65259997,17.546866,23.65656266,24.55142866,25.38541455,28.9612549,32.40098458,30.84565692,31.84241473,32.83627249,30.20087953,12.07343751,12.16142872,12.7110645,18.0477898,21.78734854,20.24410098,21.87781566,22.25639174,20.26112908,10.83878158,11.22094165,11.88579938,15.62584547,19.09416656,17.54487895,18.8103181,19.27693671,17.25265116,0.991674107,1,0.97315368,1,1,1,1,1,35.67418125,-90.0752695,2017,ARH2
CG108/CGR03,WIH2_2017,Y,18.1,778.1034739,0,2,237.5,133.5,70,70,5.048709616,4.636666616,1.142383575,5.763857885,8.001590729,6.160048604,1.607776433,1.167726513,2.257555268,156.5099981,41.72999954,17.5799998,219.3963643,12.14409065,74.04090792,72.28863683,15.04409093,68.0204557,18.1690344,19.72049554,20.64727683,20.23287988,19.13163679,19.37493243,18.51401576,14.93340477,10.89478233,16.03129027,21.86555545,22.15746071,26.59689143,27.90045501,26.76799254,24.73062069,22.38533393,20.51274781,3.24419354,8.791111098,9.553497601,14.54337319,16.81037892,15.37831158,12.19271258,9.193202486,7.868866577,5.438218202,9.209131236,9.451203107,13.05708411,14.51682301,13.37610723,11.31306373,9.686333754,8.853113959,0.624158991,0.847976183,0.950288768,1,1,0.998699911,0.954544862,0.834596302,43.3246415,-89.33688775,2017,WIH2
F42/OH43,KSH1_2015,N,16.75,733.6955833,0,2,229,110,85,82,0.688124985,3.518749885,2.537239536,4.634326915,6.340784251,4.013516285,5.753010874,3.95559662,1.81791271,22.01999953,28.14999908,47.40176476,147.1705882,9.165882307,38.18235242,161.646473,23.74705871,56.35529401,19.48910828,20.34062409,19.21958791,21.30664108,18.00351726,18.80818483,18.60066932,17.86718078,18.78253622,17.69406253,22.96750021,19.85221485,29.31892792,29.11705877,31.41670577,31.16760655,30.50505886,29.96204923,3.297187492,8.938749969,8.792561365,16.998743,18.09705929,19.84989561,20.1377744,20.03282345,17.06836811,6.184738542,9.476230158,8.381520189,15.38816616,15.61697663,17.65547515,17.65556265,17.32458654,15.75670183,0.6778125,1,0.850138809,1,1,1,1,0.98304554,39.21641775,-96.60482225,2015,KSH1
TX779/LH195,INH1_2020,N,34.32166667,702.0522797,0,2,223.5833333,112.35,75.66666667,72.16666667,2.63064515,6.092222161,2.380905542,2.638028789,0.629411796,2.977235278,3.349803369,1.095052516,1.575144189,81.54999965,54.82999945,26.35000017,86.90176377,0.755294155,29.77235278,114.9176474,7.60117643,48.41470517,19.12040675,14.46862051,21.68340347,21.75389977,20.24839053,19.66959435,18.78188958,18.00828299,15.45076636,15.20677414,20.6899999,27.1104927,29.42650107,32.0752936,30.36388222,28.15834081,28.66782236,25.41333794,2.934193564,11.51555562,15.17811918,16.46944194,19.37588254,18.23752946,16.66734055,16.5683672,12.52337519,5.193705795,9.337664252,13.54219901,15.16026165,17.73146127,16.3694037,14.61167179,14.83949529,11.90095499,0.576025338,0.994801587,1,1,1,1,1,0.975702381,40.4787965,-86.9895995,2020,INH1
B37/H95,NYH2_2016,N,20.7,731.1212129,12.5,2,180.5,78,79,74,2.034516133,1.030000001,1.88805842,0.867300396,1.140952366,2.326450204,3.376451109,4.287746575,3.208572451,63.07000011,12.36000001,22.4085716,34.4438095,2.622857094,25.59095225,116.65619,31.75809508,97.82571426,19.21240982,23.35584625,23.40556822,22.17883586,23.94456446,21.25361649,17.18897092,16.17245816,13.35906413,14.04935483,18.68749992,27.50851283,26.23633728,28.78071431,29.31692664,28.41638555,26.44500865,23.15297547,1.686774175,4.439999988,12.92699036,12.85534504,13.89476193,15.65588736,16.863818,13.58818034,10.55762265,4.511298309,6.607155497,12.88765676,12.33330427,13.7996272,14.74166699,14.82295673,12.66050813,10.26842414,0.447315667,0.804761906,0.999400038,0.994542932,1,0.999880088,0.994843294,0.949842165,42.726117,-76.655339,2016,NYH2
B97/PHB47,NYH2_2015,N,17.5,731.1212129,1.5,2,229.5,101,84,83.5,3.814193487,2.822857129,1.806874641,1.427310218,14.28882354,6.323155046,2.553769654,1.263651931,1.70374005,118.2399981,39.5199998,23.5252947,50.99705838,17.86235295,65.18176435,90.43176518,10.71352917,51.74117684,19.21827184,21.58410556,20.44972798,21.8367517,17.34067749,18.34945618,18.49425604,17.55625849,13.84215422,11.26903224,15.86071418,24.70888252,27.12764594,29.5805878,28.55383422,27.75922879,25.11594081,20.73318661,0.676451599,3.065714287,12.68317757,14.19692254,19.48862723,17.66257776,16.12899413,12.03346763,8.797239788,3.458861152,5.522653893,11.65565145,13.2498794,16.56577659,15.18766176,14.16580901,11.53845799,8.731216192,0.261509218,0.568112238,0.971160735,0.994106254,1,0.999864887,0.980226591,0.898542131,42.7324825,-76.65277775,2015,NYH2
TX714/PHZ51,WIH2_2015,N,36.8,827.0165128,0,0,261,160,65,64,3.126774188,2.655000041,4.103605878,5.336067251,1.868823528,3.142847566,3.066358713,6.463272165,3.426278957,96.92999983,15.93000025,53.58117651,186.0694135,5.435882344,36.03705852,132.4747064,52.80117733,103.4994124,19.63646212,20.57311455,21.5892617,21.07111177,18.36300238,19.20517036,18.54583572,13.68038168,11.37476292,15.6409678,24.97666677,26.11823115,28.09529077,27.51588227,27.91298604,26.4469062,23.95331443,17.63645543,3.355806466,13.62666686,13.88922494,15.17788174,17.2276475,16.92946091,13.73434519,12.63733902,6.343913375,5.370860554,11.93138906,12.65256426,14.04290221,14.43586033,14.57588984,12.76646014,11.49482956,7.023163717,0.588214292,1,1,1,1,0.979783322,0.914260835,0.715230077,43.3264485,-89.33359975,2015,WIH2
B73/PHZ51,WIH2_2015,Y,34.15,812.2138826,0,0,277.5,155,65,64,3.126774188,2.655000041,4.103605878,5.336067251,1.868823528,3.142847566,3.066358713,6.463272165,3.426278957,96.92999983,15.93000025,53.58117651,186.0694135,5.435882344,36.03705852,132.4747064,52.80117733,103.4994124,19.63646212,20.57311455,21.5892617,21.07111177,18.36300238,19.20517036,18.54583572,13.68038168,11.37476292,15.6409678,24.97666677,26.11823115,28.09529077,27.51588227,27.91298604,26.4469062,23.95331443,17.63645543,3.355806466,13.62666686,13.88922494,15.17788174,17.2276475,16.92946091,13.73434519,12.63733902,6.343913375,5.370860554,11.93138906,12.65256426,14.04290221,14.43586033,14.57588984,12.76646014,11.49482956,7.023163717,0.588214292,1,1,1,1,0.979783322,0.914260835,0.715230077,43.3264485,-89.33359975,2015,WIH2
LH195/PHZ51,MOH1_2016,N,16.95,731.1212129,0,2,255,117.5,57.5,56.5,2.465483877,8.058000231,0.264259377,6.282521268,1.94553035,9.25680559,4.358907121,3.354664451,5.453130527,76.43000019,40.29000115,2.879999995,172.8372758,4.262727369,83.20363667,125.2090916,21.13363606,168.2240918,20.2309363,16.93509369,22.49829557,20.20959989,18.68177986,19.21408964,18.0090922,17.17714413,15.87534947,21.83193548,27.56600037,27.88644765,31.21215235,30.25795442,31.2505745,30.57423065,29.80077912,28.25339236,10.073871,16.74400005,16.26474463,19.86215984,19.98371223,20.49117413,20.76153791,19.91431794,17.56318368,9.497798547,14.24343349,14.21296425,17.47336946,17.12232598,17.8699151,17.65104862,16.90998551,15.09561117,0.937315665,1,1,1,1,1,1,0.999442641,38.8955475,-92.2072025,2016,MOH1
B14A/H95,MOH1_2017,Y,18.4,731.1212129,1,6.5,245.5,134.5,64.5,64,8.937741737,9.40166688,2.512230721,3.318030003,5.035714369,1.794490762,1.996986524,1.220079397,1.67255761,277.0699939,56.41000128,33.26619119,103.9014299,11.93095259,15.87761924,65.30142803,7.334762096,51.25476209,18.72482054,18.08832916,22.62422694,21.00800173,18.77514496,19.93438148,19.70533138,19.36646121,17.34329115,21.92032254,25.32999992,25.47495036,29.30087203,30.46650729,32.25412016,29.92026774,28.22145964,28.04827898,10.06000005,15.27666648,12.99827088,17.39768618,19.78222205,21.21359122,18.70404881,16.33857143,14.9717184,9.612847321,12.76903024,11.94928206,15.49761919,17.12130987,18.67277384,16.20463701,14.48208578,13.92850008,0.915472353,1,1,1,1,1,1,0.999239796,38.89264,-92.2057525,2017,MOH1
W10004_0216/PHZ51,NEH4_2017,N,15.85,780.6778444,6,5,170,72.5,65,64,4.590322548,9.024000108,0.479867887,3.811963874,0.538484848,1.684924238,2.267850047,4.65714279,3.86350146,142.299999,90.24000108,5.110000134,117.465454,1.615454544,15.13454541,79.63181698,32.59999953,117.4254543,19.43913734,17.21531701,24.1724839,20.95919975,19.50871722,19.21508163,18.90739129,17.69743939,15.39985704,20.62225799,19.52599983,28.59420128,30.06742287,31.22545445,32.42712118,28.61649727,28.47933405,26.83248677,7.519354824,9.509000063,13.57084537,16.75424147,19.44181835,20.40977276,17.16375472,15.74751643,13.71007622,8.50655754,8.450389052,13.62685976,15.58817353,17.34314748,18.36849178,14.97842881,14.34457974,12.87682879,0.797626729,0.881249991,1,1,1,1,1,0.994264069,41.162,-96.409,2017,NEH4
CG60/LH162,DEH1_2016,N,15.4,754.9341397,2,31,204,80.5,69,69,2.701875035,7.431818214,3.891344367,3.01543569,5.358105985,2.453055546,7.028031294,2.624318106,3.1968602,86.46000111,81.75000036,66.39499953,101.6163622,13.33454524,24.02227264,188.3231781,15.05272682,98.58045408,18.33047433,10.1000462,19.40971708,21.02938559,18.25055452,17.64652011,18.94468483,17.7865103,16.44449792,18.09,16.60090897,19.90208421,27.67646738,27.79681775,28.9030859,31.91379825,31.21812112,30.57169607,5.529687506,9.93090907,10.11289786,16.8589893,18.02106052,19.78800518,21.90881045,21.62957593,20.16127331,6.825577378,7.645605865,8.606637786,14.43603228,14.98401645,16.37610101,18.85541374,18.37748956,17.3477875,0.726328134,0.729318176,0.990929859,1,1,1,1,1,38.6482025,-75.44606,2016,DEH1
B37/OH43,GAH1_2015,N,14.1,795.4804746,0,40,195,90,60.5,58.5,4.231249915,0,5.95843649,3.852603143,2.594000032,2.429925956,4.217759372,2.225466652,2.667397826,135.3999973,0,82.56599903,137.5619979,4.851333332,21.8693336,117.5779999,11.12733326,82.68933261,16.59936112,21.58269278,19.11661296,20.61616366,14.5260024,17.86473659,19.792993,19.1551459,18.46432438,25.43281227,26.81500022,26.00854227,27.82657943,29.9603331,30.57562955,31.8228303,33.58693334,33.75221527,12.50374998,10.5999999,12.24448314,13.90452364,20.76811106,20.25348139,20.64254904,22.17719986,22.29090342,11.85447967,11.72664631,11.94062668,13.41492991,17.36422208,17.41455547,18.23714923,19.83066815,19.89653894,0.988973219,1,1,1,1,1,1,1,31.505771,-83.555095,2015,GAH1
CG60/LH162,ILH1_2015,N,11.45,711.1698417,1.5,8,202.5,92.5,61,60,4.343437491,1.296153843,7.654899739,5.34311295,3.674999952,2.467291633,4.647268051,0.712819956,1.951907909,138.9899997,16.84999996,99.86750055,177.342501,7.349999905,22.2056247,144.0256246,5.039375113,60.06187434,19.4076893,20.21820178,17.58012378,22.59231729,17.35775694,20.12242863,18.79551315,20.37165926,16.80998738,15.69375022,16.27615364,23.81483975,28.77428317,30.28249967,31.91701372,28.65899596,28.4854072,27.09877011,2.916875011,4.602307732,13.93389792,16.26044709,20.47749984,20.41381959,17.79543547,15.77196732,14.62672175,5.339800043,5.921635642,11.53105666,14.7484369,17.37999976,18.17178164,15.31569586,14.44648847,13.36421336,0.599162964,0.636840646,1,1,1,1,1,0.99828125,40.05982425,-88.23397575,2015,ILH1
TX714/PHZ51,IAH4_2015,Y,16.4,742.70588,0,5,284,135,65,64,1.42451612,4.854615514,2.513668144,6.351127419,5.46999979,2.154687441,1.85099418,0.335758934,4.064770202,44.15999973,63.11000168,35.58999979,218.2399999,10.93999958,20.30812445,58.48687407,2.377500039,125.1143763,19.83997888,19.28772805,16.02270398,20.69822917,17.27718186,21.35831173,20.17303565,19.59360772,15.6142427,15.83032262,16.78769229,22.26164163,27.88725423,29.37999988,31.52784708,28.69895342,30.18404469,25.46833276,2.473548389,5.024615425,13.48280789,16.59868734,20.37374985,19.78628468,17.37298211,16.89515858,12.68514048,5.318693913,6.228847238,10.78291245,14.47529064,16.87687486,17.66054739,15.18141656,15.71210426,12.05907357,0.585391697,0.659230777,0.98994413,1,1,1,1,0.952600636,41.19970961,-91.49362406,2015,IAH4
CG119/CG108,ONH2_2019,N,17.05,507.6658563,3,19,206.5,82.5,52,49,3.148749955,1.707142813,2.884788786,4.447732757,0.559615387,2.381315681,1.591062148,2.963873616,2.693056068,100.7599986,11.94999969,28.24076917,155.5976948,1.398461539,27.51692318,83.67846091,41.8892306,82.50307587,19.66548085,22.32332843,21.1459014,19.53903082,19.21471346,16.24443645,13.80926932,11.15414419,7.415876262,21.25437486,24.3300002,28.12065395,27.65940311,26.58807711,26.0777262,22.19925608,19.8977064,9.549499144,11.33624993,14.43999985,17.94791472,17.45486711,16.31807709,16.95925516,13.13253797,10.95349597,1.834706344,9.515816833,11.92539607,15.12217856,14.69848405,13.62366511,13.69445237,10.64536319,9.344594814,3.453371008,0.985803572,1,1,1,1,0.93986372,0.838029257,0.289255913,42.45221275,-81.881844,2019,ONH2
LH195/PHZ51,WIH1_2016,Y,19.75,840.5319577,0,10.5,263.5,138.5,73.5,74,2.076129018,1.94750002,4.430291291,4.068377178,0.606590927,8.204471101,6.520888551,7.285801826,4.413191112,64.35999957,23.37000024,50.66818307,153.9786358,1.017727305,87.41727302,222.4604529,58.95590957,134.9268184,19.92805462,20.9108026,19.53546339,20.65690042,18.97296773,19.76360502,17.50876714,15.21370917,12.23883056,16.70258062,17.57583312,27.08182728,26.49130857,27.22159082,28.35833875,27.6700069,25.1458901,22.98674642,3.327419363,4.990833327,14.04723809,14.47423798,17.58636334,16.7186736,17.17399145,14.32051147,12.5735533,5.875866612,6.419508974,12.98865398,12.92924289,14.50224274,14.72651534,14.55658067,12.23924581,10.7486024,0.621198161,0.7653869,1,1,1,0.999967803,0.998306277,0.970976554,43.05632525,-89.53194975,2016,WIH1
CG44/CGR01,MIH1_2016,N,14.125,727.5814535,0,3,204.5,111.25,56.75,56,3.213870927,0.372000003,1.277668238,2.072144594,0.204761899,2.382636341,6.277866916,3.129595251,4.115734243,99.62999874,1.860000014,16.77857134,74.4033328,0.614285696,24.34142835,217.3680916,23.88571438,123.5814282,20.04481233,22.69628944,22.57460654,21.19066928,19.62511718,19.41470496,17.43536011,14.16523572,12.41239439,17.74322581,29.20999985,25.57947765,28.1508514,27.23547651,30.32783564,28.27294529,26.6388532,22.50219404,5.299677434,16.33600006,11.90361174,14.70447611,15.74579377,17.52671,16.25511672,15.58650841,10.86825081,6.615827776,14.89908974,11.62365975,13.82943527,13.70908531,16.01583991,14.48649579,13.48265,10.09129455,0.734400922,1,1,1,1,0.999987733,0.99326559,0.936590208,42.41206675,-84.2952625,2016,MIH1
PHW52/PHM49,WIH2_2018,N,24.56666667,749.1418061,9.666666667,2,261,132.1666667,70,68.83333333,3.144193572,1.768571428,3.785071194,5.164846227,1.715952385,3.402224049,3.044948822,9.615599338,3.371772616,97.47000074,12.38,46.28142902,179.8699983,4.560714279,37.70642883,131.4821453,73.47714479,101.7171416,19.25733411,21.12108299,21.47525877,21.2745393,18.31717262,18.53021556,18.66070884,13.62580315,11.37185475,15.52870961,24.66571426,26.09170284,28.23486864,27.86595249,27.65838755,26.70641136,24.92152362,17.96867439,3.195161297,12.95000008,13.88902894,15.13385395,17.40500012,17.0648215,13.77097062,13.5657747,6.887165117,5.289841082,11.57195132,12.6458491,14.08946858,14.71699087,14.50107081,12.89356629,12.23397282,7.279203781,0.580092163,1,1,1,1,0.981419113,0.932006969,0.73866365,43.38075,-89.38645,2018,WIH2
PHP02/PHB47,IAH1_2015,Y,16.7,711.8134344,1,7,246,129,65,64,1.566451638,2.213076954,8.402418557,1.323463692,0.084411761,2.297359398,2.93999255,2.37101191,2.732793763,48.56000078,28.7700004,122.1399999,43.52999979,0.168823523,22.82352863,100.1182349,16.67000003,83.81294001,20.43214903,18.85811498,14.63317728,22.31276759,19.14227258,22.20806523,19.83862588,18.33763158,15.0581957,16.08774191,16.64538457,21.84697853,28.7334183,30.26852911,31.30747052,29.05105531,29.39636272,24.66946357,1.839032284,4.865384661,13.12892854,16.86768962,20.05941139,18.05705196,16.3929614,15.43749916,11.17229855,5.447129731,6.098188577,10.48240964,14.99632473,17.16639266,16.72884186,14.96924927,14.77137221,11.30644361,0.593087559,0.682994502,0.988452545,1,1,0.997626801,1,0.896934674,41.9980952,-93.69336973,2015,IAH1
PHB47/PHN82,MOH1_2017,Y,16.55,731.1212129,0,2,217,93,62.5,60.5,8.937741737,9.40166688,2.512230721,3.318030003,5.035714369,1.794490762,1.996986524,1.220079397,1.67255761,277.0699939,56.41000128,33.26619119,103.9014299,11.93095259,15.87761924,65.30142803,7.334762096,51.25476209,18.72482054,18.08832916,22.62422694,21.00800173,18.77514496,19.93438148,19.70533138,19.36646121,17.34329115,21.92032254,25.32999992,25.47495036,29.30087203,30.46650729,32.25412016,29.92026774,28.22145964,28.04827898,10.06000005,15.27666648,12.99827088,17.39768618,19.78222205,21.21359122,18.70404881,16.33857143,14.9717184,9.612847321,12.76903024,11.94928206,15.49761919,17.12130987,18.67277384,16.20463701,14.48208578,13.92850008,0.915472353,1,1,1,1,1,1,0.999239796,38.89264,-92.2057525,2017,MOH1
PHB47/PHN82,IAH4_2015,N,16.6,733.6955833,0,8,206,98,65,64,1.42451612,4.854615514,2.513668144,6.351127419,5.46999979,2.154687441,1.85099418,0.335758934,4.064770202,44.15999973,63.11000168,35.58999979,218.2399999,10.93999958,20.30812445,58.48687407,2.377500039,125.1143763,19.83997888,19.28772805,16.02270398,20.69822917,17.27718186,21.35831173,20.17303565,19.59360772,15.6142427,15.83032262,16.78769229,22.26164163,27.88725423,29.37999988,31.52784708,28.69895342,30.18404469,25.46833276,2.473548389,5.024615425,13.48280789,16.59868734,20.37374985,19.78628468,17.37298211,16.89515858,12.68514048,5.318693913,6.228847238,10.78291245,14.47529064,16.87687486,17.66054739,15.18141656,15.71210426,12.05907357,0.585391697,0.659230777,0.98994413,1,1,1,1,0.952600636,41.19970961,-91.49362406,2015,IAH4
B73/PHM49,GAH2_2017,N,15.4,734.339176,0,2,221.5,109,55.5,55.5,5.215806507,2.59000005,0.877047008,6.976424555,36.66571527,11.68990473,2.766634194,6.717714339,5.237281131,161.6900017,18.13000035,10.98809533,219.4985743,69.630002,116.6428568,77.55666748,33.5885717,162.3557151,18.59375843,20.97986943,21.98193589,18.54567619,14.33990901,17.7663424,19.78523868,18.86354985,17.57616326,25.93516134,24.17571449,30.47339418,29.31252372,29.52904774,29.72980419,32.72601502,32.10511542,30.76784952,12.17225799,9.938571385,16.15324828,18.06353156,20.43476164,19.51114297,21.20992787,20.86352373,19.95543778,11.90954616,10.38538115,15.45655397,15.75249851,16.98190469,16.63412837,18.90169131,18.47155665,17.41241638,0.999631335,0.985714285,1,1,1,1,1,1,33.727145,-83.29821525,2017,GAH2
B37/H95,WIH1_2019,Y,22.35,691.2184706,0,0,245.835,133.335,80,80,3.104193578,4.990909143,3.989206625,5.063632664,7.174102343,5.657788874,3.979490855,4.117971668,7.043559998,96.23000091,54.90000057,56.46538491,184.9676922,7.656153606,56.9199983,170.6046141,43.34153838,211.8461548,19.32800511,20.47989629,21.14585761,19.94081469,20.4834897,19.00171798,17.70480678,14.70759561,11.13260624,14.4303226,19.6027272,23.71186264,26.54399323,29.1737175,29.51828996,25.99775321,22.10125555,19.22207941,3.044193574,6.375454621,11.90649765,15.02653282,17.46782019,18.4264638,14.78313726,11.24849031,9.42963116,4.974875238,7.497369644,10.75801096,13.26663909,15.42227287,16.03343447,12.80151602,10.12875121,8.730340077,0.520449311,0.882272729,0.994529143,0.999440504,1,0.998245342,0.92932789,0.792629622,43.060857,-89.494068,2019,WIH1
B37/OH43,DEH1_2020,N,24.8125,644.8798022,4.125,5.125,246.375,128.5,62.75,61.375,3.884838689,2.918749928,0.484801506,3.712682555,3.963928495,10.54878945,3.680508849,4.08975176,5.319973187,120.4299994,23.34999943,5.74999997,113.1935704,6.565714155,94.92928366,102.5935729,23.16642891,164.6128593,19.34389959,17.33862388,21.23126246,20.37262205,20.84469896,18.13380163,16.82964191,15.50064315,15.14081803,17.43483888,21.1624999,25.02143811,29.01024665,32.25440507,31.30417669,31.95048154,29.3682824,28.21514964,6.792903194,12.85250008,15.40184434,18.86790491,21.28607132,21.93053571,22.84339264,21.06525136,19.30786859,6.86665098,10.04482466,12.64072343,16.02028347,18.72161765,18.60397455,19.32804006,17.22313801,15.91003144,0.79362904,0.982098209,1,1,1,1,1,1,38.628981,-75.46566025,2020,DEH1
2369/LH123HT,MOH1_2017,Y,16.75,731.1212129,0,3.5,280.5,148.5,65.5,64.5,8.937741737,9.40166688,2.512230721,3.318030003,5.035714369,1.794490762,1.996986524,1.220079397,1.67255761,277.0699939,56.41000128,33.26619119,103.9014299,11.93095259,15.87761924,65.30142803,7.334762096,51.25476209,18.72482054,18.08832916,22.62422694,21.00800173,18.77514496,19.93438148,19.70533138,19.36646121,17.34329115,21.92032254,25.32999992,25.47495036,29.30087203,30.46650729,32.25412016,29.92026774,28.22145964,28.04827898,10.06000005,15.27666648,12.99827088,17.39768618,19.78222205,21.21359122,18.70404881,16.33857143,14.9717184,9.612847321,12.76903024,11.94928206,15.49761919,17.12130987,18.67277384,16.20463701,14.48208578,13.92850008,0.915472353,1,1,1,1,1,1,0.999239796,38.89264,-92.2057525,2017,MOH1
F42/MO17,TXH1-Dry_2018,N,8.9,687.3569149,0,2,231,85,72,71.5,2.442333295,0.87833333,4.91741256,2.91095925,1.112321411,5.987347663,3.094033648,2.445309502,2.573656677,73.26999886,5.269999981,55.2178573,113.3721426,4.449285643,64.36357035,86.72785865,13.67714274,77.357857,13.4988633,14.49154552,13.92485348,19.6618496,19.390827,19.64184359,19.38410293,21.21373351,18.01258323,19.68933331,26.95833333,25.66614373,26.56996845,30.24238085,29.14372996,31.91805433,33.2644762,34.51160554,6.357666679,15.03999996,15.13755815,13.69055459,18.24071415,16.44843436,20.63070323,20.50154739,23.97494014,7.613570572,13.40715604,12.87528071,12.79536137,16.34410207,15.0664779,18.21233438,18.75919739,20.40606275,0.821476194,1,0.991620595,0.99408643,1,1,1,0.999013392,30.546318,-96.4329965,2018,TXH1-Dry
PHP02/PHB47,TXH1_2016,N,13.7,716.9621753,0,2,181.5,59.5,67,66.5,1.633666698,16.13999993,0.99702422,4.719865603,0.129393939,3.277272727,13.06232457,0.703636358,1.017125621,49.01000094,112.9799995,14.5313639,177.3549991,0.33090909,36.05,378.0672674,3.179999969,30.53454577,13.9726292,10.72874144,17.88940951,17.80076093,20.55685321,19.77792414,17.90480363,20.8338604,20.14326093,22.32500016,23.95000022,24.48309256,26.40498513,28.5388636,28.63545455,30.12870319,34.35404525,35.58838723,6.034666632,13.33571414,9.675379644,13.12758779,15.78530267,16.33764454,20.13902853,23.08186362,24.00118421,8.473379033,11.29783551,10.5045992,12.46111665,14.43681279,14.72204148,17.12368238,20.53225114,20.87599038,0.915869048,1,0.972225207,1,1,1,1,1,30.54708625,-96.43393475,2016,TXH1
LH74/PHN82,IAH2_2017,Y,15.3,754.2905471,0,5.5,198.5,93.5,65,64,2.991935476,4.003749907,5.594154361,1.824159742,2.965909053,1.138616173,3.544395797,5.525860929,3.224964342,92.74999976,32.02999926,86.83999968,64.74363607,5.880909015,11.03545466,133.6850016,39.36636487,98.02272796,18.91811151,22.03083944,18.39067038,21.91300981,21.59707026,21.00058551,18.76246256,16.50136756,14.56336975,16.70258062,25.25375009,21.16444029,28.78792803,31.34295403,31.03890899,27.79230679,26.54138994,25.01808603,3.836129038,9.060000002,9.836484062,14.72352594,17.1804546,18.00485339,15.61890002,13.9478747,12.25710857,5.884356407,10.52058178,9.325556586,14.19611432,16.29393371,16.57150033,14.05801276,12.73803514,11.57992501,0.659274195,1,0.882113053,1,1,1,1,0.976890029,42.06582876,-94.72050129,2017,IAH2
PHW52/PHN82,SCH1_2020,N,14.05,731.1212129,4,2.5,102.5,34,60.5,59.5,6.726129055,12.61950016,14.6709951,2.000047064,2.505749965,4.425319405,2.268462711,6.18714998,5.023091868,208.5100007,84.13000107,163.6860008,61.50999924,5.011499929,39.68149965,62.57699943,33.64599986,155.4654979,20.36817608,19.66978326,14.75526058,19.85961082,19.96014466,19.24465486,19.87809105,16.40752662,15.64625104,22.32567731,25.33999968,25.31846332,29.19710574,32.4110003,31.66961065,33.32032281,31.92909988,30.24042268,7.936741977,12.70899997,16.31955663,18.65521183,21.09725013,21.1736526,21.46883008,21.19136654,20.48826235,8.963701593,11.76593586,13.23428606,15.98846211,18.75412521,18.42141037,19.32426,18.56023321,17.40294316,0.984170504,1,0.973950938,1,1,1,1,1,34.62225,-82.736661,2020,SCH1
TX714/TX779,GAH2_2018,Y,21.5,738.2007317,6.5,2,242,137.5,63,62.5,4.849677459,0.472857135,6.389842835,2.50728713,2.625000003,3.795198411,2.499668454,2.828785729,3.724124467,150.3400012,3.309999943,84.90856965,76.95785742,5.387857173,33.84785713,66.14142865,15.06428581,115.4478585,20.49558812,21.88511535,20.33298503,19.15998772,23.51626716,19.70790798,20.02489003,19.42019064,16.00793598,23.5748387,25.80428559,25.09824669,29.4338755,32.57678595,32.30446448,33.95531338,34.12885699,31.99587548,8.787742034,10.57714278,11.20780819,18.18961495,18.46904782,20.57888879,21.25284753,21.08492862,21.01629033,9.717543295,11.3392147,11.23425566,15.89113211,17.53376954,18.44167663,19.31882395,19.47290933,18.49284767,0.993778801,1,1,1,1,1,1,1,33.71560925,-83.30894675,2018,GAH2
TX777/LH195,SCH1_2018,N,19.37,731.1212129,0,2,178.5,100,64,65,5.509375073,3.372500002,5.775327928,7.728127661,4.71095229,3.130603142,3.123485158,2.01328566,5.79306447,176.3000023,26.98000002,97.60999952,245.6735731,5.415714213,31.8442854,83.93428482,10.53785687,179.5849986,18.64772365,19.28692877,21.1730546,18.16318131,18.84742333,19.2548603,19.994513,19.31783344,16.30139442,22.53906247,22.53374982,23.09020479,27.61870045,28.0654766,28.90856809,32.58479132,33.48333298,31.1168664,9.301562469,9.311250091,8.762400081,17.50665347,16.7615475,18.38295894,21.20797915,21.67128537,20.80767273,9.591191253,9.400074843,9.574505228,14.76793775,14.51962258,15.72381397,18.86169653,19.45105318,17.96288574,0.951841518,1,0.982626499,0.991514695,1,1,1,1,34.6223015,-82.7364835,2018,SCH1
CG44/CGR01,ONH2_2015,Y,15.15,774.8855108,0,0,257.5,117.5,72,70.5,1.876451608,4.282666683,1.928005431,1.58261263,10.80264742,1.923208582,3.114388399,4.294901914,2.356388962,58.16999984,64.24000025,23.61999965,57.22470651,21.60529484,21.1552944,115.5017658,31.56294079,72.1164696,18.95380112,18.76709785,21.17743809,22.45418875,20.04103015,18.4543581,18.45373918,15.80078253,13.34539525,11.17387095,14.38466663,23.91200153,26.61279381,30.15176526,27.65053462,26.77986929,25.87464046,20.7920557,2.006774224,5.636000033,13.64950245,15.64688346,19.32647026,18.51812829,16.74694623,15.4972221,11.03054456,3.742938436,5.617129505,11.53065914,13.52353119,16.78542678,15.13421866,13.95153495,13.1846932,9.37660249,0.276970043,0.589690475,0.985132406,1,1,1,0.993019959,0.931831119,42.45408625,-81.8816065,2015,ONH2
B14A/MO17,NYH2_2017,N,22.9,664.8311733,1,18,266,139,76.5,75.5,4.985806354,2.593333337,3.453715005,5.89688957,0.948070192,3.208418109,2.379655727,2.694333021,3.397972982,154.559997,23.34000003,55.2357889,222.9889478,1.763157895,41.81263091,117.7794744,23.637895,104.1910535,18.91896409,18.22902181,21.62310913,19.28169434,21.2024166,18.91678159,16.97406986,13.88043676,9.439494818,16.54903238,19.80111122,22.34881997,25.65461899,27.16105275,25.3148988,23.28803047,24.25146582,18.24460841,5.239677404,10.2422222,10.55939387,15.21770316,15.87359667,14.84504335,11.5614249,11.15398494,7.352427253,6.267898103,8.570747831,9.793885142,12.80097944,13.68904673,12.46138399,10.55155578,10.87663924,7.688896934,0.638917053,1,1,1,1,0.981507475,0.966916282,0.722284214,42.73248125,-76.65275025,2017,NYH2
LH74/PHN82,IAH1_2019,Y,23.45,699.5851746,0,1.5,180,86.5,65,64,8.157187574,0.75333335,7.315577374,1.144389074,0.212857144,0.731688293,3.103679801,5.185721735,4.918979992,261.0300024,4.5200001,87.30642721,32.26642813,0.212857144,8.04857122,121.5035704,46.39999972,147.9399989,18.01904646,22.72114833,18.53868323,20.84617194,19.20093738,21.91428985,16.4832458,14.23349405,11.00878768,22.30999994,27.52999973,24.52617789,31.4481278,28.63047609,29.47870132,27.11002697,25.00731411,20.46577188,10.93062501,14.96333329,14.91684483,20.02766766,18.36452364,16.34071412,15.67686671,13.06746994,9.592819484,10.11779152,13.58137929,12.09039624,17.73903178,15.5681627,15.08353594,13.70818638,12.14295105,9.387875541,0.879263394,1,1,1,1,0.994329881,0.928985237,0.797752907,41.1992562,-91.4941418,2019,IAH1
B37/OH43,DEH1_2019,Y,20.95,699.9069709,0,2,235.25,107.75,60,58.25,4.885483834,0.129999995,2.22754366,2.838879743,7.092619056,13.09007943,2.376059147,7.246095167,5.291338731,151.4499989,1.169999957,29.41999924,87.75142762,13.32785715,117.8107149,70.17642808,38.82285679,163.7607149,18.09422633,22.52754413,19.09832956,21.10549391,16.87992425,18.38683534,17.43790908,14.47643482,15.18822094,17.49129031,20.55777783,23.08374535,28.61102885,30.70333358,31.53571423,31.96636291,30.10673826,28.44137569,7.04516129,9.184444467,14.30050877,18.34149326,20.74333359,21.70119062,22.68293302,22.03347627,19.57253904,6.992168387,8.735510177,11.41430501,15.6056687,17.71122979,18.59296506,19.259015,18.07354239,16.13042035,0.769815656,0.948412699,0.988507504,1,1,1,1,1,38.670675,-75.433225,2019,DEH1
PHW52/PHM49,WIH1_2019,Y,17.7,731.1212129,0,0,247.5,138.335,80,80,3.104193578,4.990909143,3.989206625,5.063632664,7.174102343,5.657788874,3.979490855,4.117971668,7.043559998,96.23000091,54.90000057,56.46538491,184.9676922,7.656153606,56.9199983,170.6046141,43.34153838,211.8461548,19.32800511,20.47989629,21.14585761,19.94081469,20.4834897,19.00171798,17.70480678,14.70759561,11.13260624,14.4303226,19.6027272,23.71186264,26.54399323,29.1737175,29.51828996,25.99775321,22.10125555,19.22207941,3.044193574,6.375454621,11.90649765,15.02653282,17.46782019,18.4264638,14.78313726,11.24849031,9.42963116,4.974875238,7.497369644,10.75801096,13.26663909,15.42227287,16.03343447,12.80151602,10.12875121,8.730340077,0.520449311,0.882272729,0.994529143,0.999440504,1,0.998245342,0.92932789,0.792629622,43.060857,-89.494068,2019,WIH1
B14A/H95,WIH1_2016,N,21.45,777.4598813,0,3.5,247.5,141.5,74.5,74.5,2.076129018,1.94750002,4.430291291,4.068377178,0.606590927,8.204471101,6.520888551,7.285801826,4.413191112,64.35999957,23.37000024,50.66818307,153.9786358,1.017727305,87.41727302,222.4604529,58.95590957,134.9268184,19.92805462,20.9108026,19.53546339,20.65690042,18.97296773,19.76360502,17.50876714,15.21370917,12.23883056,16.70258062,17.57583312,27.08182728,26.49130857,27.22159082,28.35833875,27.6700069,25.1458901,22.98674642,3.327419363,4.990833327,14.04723809,14.47423798,17.58636334,16.7186736,17.17399145,14.32051147,12.5735533,5.875866612,6.419508974,12.98865398,12.92924289,14.50224274,14.72651534,14.55658067,12.23924581,10.7486024,0.621198161,0.7653869,1,1,1,0.999967803,0.998306277,0.970976554,43.05632525,-89.53194975,2016,WIH1
PHP02/PHB47,NEH2_2015,N,12.8,774.2419182,0,1,229,110,90,90,1.358750008,3.755999994,3.031264216,1.286090902,0.286666671,1.657187527,3.751759362,0.157499999,0.616713691,43.48000026,37.55999994,66.29000026,43.49999976,0.860000014,16.57187527,117.6431233,0.944999993,18.99062441,19.53783247,19.98656282,18.8528682,23.65152674,23.21232343,22.7312118,19.62767813,21.61948185,18.20728239,15.03874992,23.15200024,18.66927583,30.14561768,32.37510385,32.60862507,30.36489819,32.31320816,28.31448706,-2.426562488,5.230999994,5.264051067,13.5723423,16.5714581,16.13087479,15.9646131,15.56819047,11.19634675,4.192485347,8.478296732,6.894904354,14.37610508,16.560328,16.47008009,15.3434088,16.05261291,12.83173005,0.519497764,0.97653572,0.809891265,1,1,1,1,0.922021698,41.0514495,-100.7471915,2015,NEH2
PHB47/PHN82,MOH1_2015,N,15,731.1212129,0,0,195,70,73,71,3.914838722,3.002727248,2.7038834,5.646226268,2.268750012,1.183333344,4.736744086,1.740401796,3.666491943,121.3600004,33.02999973,34.41999933,178.8712478,5.868750036,10.6500001,140.2618746,11.88312507,113.6612502,18.81846694,18.88703156,16.92919735,21.70591481,15.72154266,19.94530069,18.47422179,20.12873028,17.02653892,18.28451609,18.00181831,23.77805456,28.93028285,29.85593748,31.76118019,30.42140763,28.58050013,28.43143147,5.857096827,7.500000065,15.21487777,17.6487962,21.67281234,21.45979159,20.28182538,17.09899995,17.28669369,7.068544315,7.302193139,11.97142579,15.39796361,17.76437491,18.61048589,17.380694,14.99182695,15.05317439,0.723283405,0.814935086,1,1,1,1,1,1,38.8965375,-92.20800417,2015,MOH1
CG44/CGR01,IAH1_2019,N,17.8,715.6749901,0,0.5,164,79.5,65,64,8.157187574,0.75333335,7.315577374,1.144389074,0.212857144,0.731688293,3.103679801,5.185721735,4.918979992,261.0300024,4.5200001,87.30642721,32.26642813,0.212857144,8.04857122,121.5035704,46.39999972,147.9399989,18.01904646,22.72114833,18.53868323,20.84617194,19.20093738,21.91428985,16.4832458,14.23349405,11.00878768,22.30999994,27.52999973,24.52617789,31.4481278,28.63047609,29.47870132,27.11002697,25.00731411,20.46577188,10.93062501,14.96333329,14.91684483,20.02766766,18.36452364,16.34071412,15.67686671,13.06746994,9.592819484,10.11779152,13.58137929,12.09039624,17.73903178,15.5681627,15.08353594,13.70818638,12.14295105,9.387875541,0.879263394,1,1,1,1,0.994329881,0.928985237,0.797752907,41.1992562,-91.4941418,2019,IAH1
CG44/CGR01,COH1_2017,N,19.325,702.8031377,1,14.25,199,84.25,63.75,62.75,3.393124943,0,0.001708684,0.360843908,0.891428554,3.560382097,1.42287895,1.565670675,1.770870451,108.5799982,0,0.02904762,12.29476177,1.600476163,43.78523833,56.48285717,21.02523811,53.20285701,22.26802993,25.65694836,25.9931063,24.2875628,21.26982858,19.37652668,19.65631787,15.92591012,11.99136935,20.38624986,26.27857154,29.00990249,30.95750085,32.84396765,29.24597739,27.87075516,24.49812031,17.64004964,4.676250031,9.955714362,11.44166305,13.33492254,15.64190474,14.2894836,11.55992968,8.650869984,2.505724526,7.387813889,11.22152513,12.97827389,14.53136664,16.23032426,14.11586508,12.58015619,10.40568176,6.007000116,0.859799101,1,1,1,1,0.978368119,0.882220332,0.653649732,40.64850025,-104.9997825,2017,COH1
B73/PHN82,ARH1_2016,N,17.5,782.6086222,0,1.5,199,121.5,72.5,70.5,12.62656226,6.052222146,7.859593922,4.411032368,3.769999921,0.095833332,1.834913509,2.950363528,2.931715563,404.0499923,54.46999931,101.1431819,160.496816,7.539999843,0.824999988,46.86636396,14.75181764,90.88318244,16.40757677,14.40289243,17.41332625,19.31399891,17.48165414,22.15918181,19.7781726,18.25208951,17.22596404,20.37124979,20.08666674,25.25253507,26.30445415,29.50681779,32.27019592,33.22074717,33.17606868,32.75999986,8.53968759,10.04999993,14.84655054,15.67568893,20.10318184,20.90335237,23.01320039,23.46584116,23.35664232,8.376579132,8.623890092,12.4075181,13.38568101,16.80499981,18.57005087,20.09384313,20.24603027,19.89808151,0.932198657,0.999841266,1,1,1,1,1,1,34.72952,-90.7603555,2016,ARH1
B73/PHN82,WIH1_2018,Y,19.196,792.7516419,0,2,259.8,121,68.8,66.8,1.609999989,7.097692302,4.543300024,5.384655594,12.90857152,6.684415526,1.835393967,1.490247701,3.282350194,49.90999967,92.26999992,56.1414287,188.537143,17.774286,73.52857079,76.14071582,18.50214262,100.642856,20.21844376,17.61529163,19.67186989,21.74517717,19.19342093,18.08513378,19.62003162,16.98075827,12.74863056,13.31193533,16.25923072,24.73561688,28.00164855,31.39095186,28.11097395,26.99453296,26.15077082,19.9357303,1.183225821,5.521538512,13.28283365,14.89542408,18.89249983,17.62870117,14.61713968,12.9208708,8.385953947,4.208379921,6.163069931,11.75441076,13.86262536,17.16453014,14.91796624,13.29691021,12.54059059,8.511099252,0.430714275,0.66777473,1,1,1,0.987929958,0.939058758,0.805939432,43.0544,-89.5317,2018,WIH1
PHG80/PHZ51,OHH1_2016,Y,20.4,691.8620632,0,10.5,287,126,65,64,4.328064465,1.776000023,3.915145208,2.580740659,3.890757626,4.17049496,5.079069289,3.957741935,3.614594814,134.1699984,8.880000114,44.70363614,85.9177286,9.330454675,39.94818193,160.1854537,27.69772666,110.1186362,18.3437644,22.24283047,20.73146956,20.35982518,19.15233416,18.82824642,16.72048491,17.98730955,14.71797893,19.63580645,29.63200035,26.56953589,28.59263588,29.59106055,30.69283836,29.21689182,28.27188687,26.30588322,8.120967747,16.89599972,14.9739129,16.70528562,18.30318191,19.74443426,18.9160149,15.44500838,13.40262461,8.117657052,15.32722009,13.17028057,14.81678154,15.96857054,17.23303236,16.11713161,14.21502474,12.5845871,0.859331788,1,1,1,1,1,0.999172078,0.989049277,39.860924,-83.6755995,2016,OHH1
LH82/PHB47,NEH2_2015,N,14.3,763.3008437,0,1,229,110,88,88,1.358750008,3.755999994,3.031264216,1.286090902,0.286666671,1.657187527,3.751759362,0.157499999,0.616713691,43.48000026,37.55999994,66.29000026,43.49999976,0.860000014,16.57187527,117.6431233,0.944999993,18.99062441,19.53783247,19.98656282,18.8528682,23.65152674,23.21232343,22.7312118,19.62767813,21.61948185,18.20728239,15.03874992,23.15200024,18.66927583,30.14561768,32.37510385,32.60862507,30.36489819,32.31320816,28.31448706,-2.426562488,5.230999994,5.264051067,13.5723423,16.5714581,16.13087479,15.9646131,15.56819047,11.19634675,4.192485347,8.478296732,6.894904354,14.37610508,16.560328,16.47008009,15.3434088,16.05261291,12.83173005,0.519497764,0.97653572,0.809891265,1,1,1,1,0.922021698,41.0514495,-100.7471915,2015,NEH2
TX777/LH195,ONH2_2015,Y,22.25,778.7470665,0,0,261.5,129.5,80.5,81.5,1.876451608,4.282666683,1.928005431,1.58261263,10.80264742,1.923208582,3.114388399,4.294901914,2.356388962,58.16999984,64.24000025,23.61999965,57.22470651,21.60529484,21.1552944,115.5017658,31.56294079,72.1164696,18.95380112,18.76709785,21.17743809,22.45418875,20.04103015,18.4543581,18.45373918,15.80078253,13.34539525,11.17387095,14.38466663,23.91200153,26.61279381,30.15176526,27.65053462,26.77986929,25.87464046,20.7920557,2.006774224,5.636000033,13.64950245,15.64688346,19.32647026,18.51812829,16.74694623,15.4972221,11.03054456,3.742938436,5.617129505,11.53065914,13.52353119,16.78542678,15.13421866,13.95153495,13.1846932,9.37660249,0.276970043,0.589690475,0.985132406,1,1,1,0.993019959,0.931831119,42.45408625,-81.8816065,2015,ONH2
TX951/LH195,NCH1_2020,N,21.525,710.2044528,8.25,0,217.8125,108.75,65,64,3.811250031,6.583749771,1.870150701,7.593384547,0.8842857,2.636686467,3.330713381,6.121142871,7.323433169,121.960001,52.66999817,29.28357046,255.9407139,2.652857099,23.48571392,94.03142862,30.32857149,227.0264283,17.79310012,18.2030313,21.90311614,16.62410426,22.73441878,20.97653859,20.54309533,18.15988809,15.65141399,21.6678125,23.21999979,23.34870433,27.04964214,28.2173808,30.95634976,33.07043217,33.2972859,31.24656685,8.082812505,11.53125006,9.51933213,18.09668861,18.19142909,20.58560522,22.1124513,22.85800005,21.91055295,8.88590596,10.34544598,9.896418393,14.69404398,15.249625,17.76881847,19.50312724,19.99035698,18.5620876,0.935200903,1,0.995619773,1,1,1,1,1,35.30009892,-77.57131746,2020,NCH1
B73/MO17,OHH1_2020,Y,20.75,675.7722478,0,2.5,229,110,62.5,60,4.175312527,1.24000001,2.003453903,2.609830299,3.238461531,4.458868342,3.000365612,1.621237519,2.44580479,133.6100008,6.200000048,24.41307693,78.60461595,5.612307695,46.13538504,105.0992289,18.40384625,73.98230748,19.06994028,20.34349766,22.26062964,20.30125672,18.94980258,17.72364635,17.47781057,14.69815231,13.31876726,20.75593752,29.31000023,26.9862925,30.26951119,31.92230738,29.63458284,27.3548547,24.45496262,20.91339716,9.301875014,17.61400032,14.18652547,18.22082699,19.47423084,18.74255468,15.66305293,13.07056974,8.164555027,9.098127154,15.53923951,13.05396234,16.29356655,17.69826911,16.21360084,13.84725457,11.75523116,8.713632263,0.810993302,1,1,1,1,0.998602591,0.941606618,0.857376019,39.85643475,-83.67288725,2020,OHH1
PB80/PHZ51,ARH1_2016,N,17.2,786.4701779,0,2.5,205.5,111.5,70,69,12.62656226,6.052222146,7.859593922,4.411032368,3.769999921,0.095833332,1.834913509,2.950363528,2.931715563,404.0499923,54.46999931,101.1431819,160.496816,7.539999843,0.824999988,46.86636396,14.75181764,90.88318244,16.40757677,14.40289243,17.41332625,19.31399891,17.48165414,22.15918181,19.7781726,18.25208951,17.22596404,20.37124979,20.08666674,25.25253507,26.30445415,29.50681779,32.27019592,33.22074717,33.17606868,32.75999986,8.53968759,10.04999993,14.84655054,15.67568893,20.10318184,20.90335237,23.01320039,23.46584116,23.35664232,8.376579132,8.623890092,12.4075181,13.38568101,16.80499981,18.57005087,20.09384313,20.24603027,19.89808151,0.932198657,0.999841266,1,1,1,1,1,1,34.72952,-90.7603555,2016,ARH1
PHW52/PHN82,GAH2_2017,N,16.45,750.4289914,1.5,2,209.5,106,55.5,56,5.215806507,2.59000005,0.877047008,6.976424555,36.66571527,11.68990473,2.766634194,6.717714339,5.237281131,161.6900017,18.13000035,10.98809533,219.4985743,69.630002,116.6428568,77.55666748,33.5885717,162.3557151,18.59375843,20.97986943,21.98193589,18.54567619,14.33990901,17.7663424,19.78523868,18.86354985,17.57616326,25.93516134,24.17571449,30.47339418,29.31252372,29.52904774,29.72980419,32.72601502,32.10511542,30.76784952,12.17225799,9.938571385,16.15324828,18.06353156,20.43476164,19.51114297,21.20992787,20.86352373,19.95543778,11.90954616,10.38538115,15.45655397,15.75249851,16.98190469,16.63412837,18.90169131,18.47155665,17.41241638,0.999631335,0.985714285,1,1,1,1,1,1,33.727145,-83.29821525,2017,GAH2
LH195/PHZ51,IAH3_2017,Y,19.68333333,774.0273873,0,2,229,110,65,64,4.153750014,4.476666673,3.404720357,2.207347727,0.783636364,2.628276904,1.892687593,2.328876272,1.794257086,132.9200004,67.1500001,54.03954627,78.33863542,1.567272728,28.02681865,71.85545488,19.05045461,54.69545453,16.14493189,17.75127989,18.89303832,22.07985964,20.54923199,20.99384486,19.81852315,17.22919489,15.64326955,15.84312499,15.5066665,21.42652578,27.714982,28.45522753,29.90074383,27.6545798,25.64720852,25.13760955,4.41906251,4.141333344,9.782295063,13.56526933,16.05901469,16.6123348,14.8096002,12.74600627,11.28191352,5.818880471,5.62230391,9.387130072,13.2881535,14.4256186,15.3843105,13.65871261,11.89796048,11.29223634,0.568604913,0.570380948,0.879734313,1,1,1,1,0.979205627,41.9758706,-92.24318881,2017,IAH3
B97/PHB47,SDH1_2015,N,15.9,722.7545088,0,4,169.5,74,67.5,67,1.890000034,2.68444448,2.847212523,0.928406021,1.08916667,1.213193166,1.12388612,3.994558873,0.570569385,58.59000105,24.16000032,33.86000057,31.14874977,1.720000006,12.77624983,39.02562428,27.90249949,17.65812508,21.16446504,23.3864585,24.03054242,23.94878495,21.74335716,21.42490048,20.60212775,16.27746828,15.18579983,19.04290341,22.5888888,27.20826416,30.46229654,29.54760476,31.86073879,31.47770382,29.48664523,24.89733582,4.208709664,8.468888919,11.69082143,14.25969647,14.29062517,16.06534098,14.02269822,14.11578116,6.942900096,6.807516906,9.210660666,12.27390437,14.67606113,14.18888263,15.81431879,15.00552731,14.17539039,9.834808296,0.77025346,0.983690483,1,1,1,0.983472358,0.961069402,0.950039755,44.208745,-102.928745,2015,SDH1
PHN11_OH43_0001/PHB47,TXH1_2016,N,13.65,713.1006196,0,2,136,48.5,68,66,1.633666698,16.13999993,0.99702422,4.719865603,0.129393939,3.277272727,13.06232457,0.703636358,1.017125621,49.01000094,112.9799995,14.5313639,177.3549991,0.33090909,36.05,378.0672674,3.179999969,30.53454577,13.9726292,10.72874144,17.88940951,17.80076093,20.55685321,19.77792414,17.90480363,20.8338604,20.14326093,22.32500016,23.95000022,24.48309256,26.40498513,28.5388636,28.63545455,30.12870319,34.35404525,35.58838723,6.034666632,13.33571414,9.675379644,13.12758779,15.78530267,16.33764454,20.13902853,23.08186362,24.00118421,8.473379033,11.29783551,10.5045992,12.46111665,14.43681279,14.72204148,17.12368238,20.53225114,20.87599038,0.915869048,1,0.972225207,1,1,1,1,1,30.54708625,-96.43393475,2016,TXH1
F42/OH43,OHH1_2018,Y,19.4,724.6852867,0,2.5,263,133.5,57.5,58.5,3.056774178,9.537500136,1.922452157,2.385565957,3.342142727,1.8544286,3.625787622,3.100846839,2.007798001,94.75999951,76.30000108,21.73714328,80.43785755,3.342142727,18.544286,121.7649994,22.15357072,61.29071423,19.31095449,14.64635724,20.72885596,20.94366931,19.27592959,20.95649317,17.99811894,17.37176276,15.4204415,15.33419351,20.99500024,26.65036435,28.81994394,32.41071347,30.66092864,28.53085842,26.94730604,24.73435724,3.376129027,12.14624989,14.55931522,16.57316253,19.49428545,18.47499986,17.24720124,15.03980618,12.05347394,5.35712311,9.832246518,13.13485159,14.9051591,17.95401161,16.59941793,15.03822312,13.39555861,11.48513665,0.534285712,0.926785712,1,1,1,1,0.999125,0.970735544,39.85688825,-83.671225,2018,OHH1
CG60/LH162,NYH3_2015,N,16.05,731.1212129,0,12,199,89,65.5,66,4.268387075,0,1.234803629,3.315485905,3.744705864,3.708743319,2.034738589,2.091907533,2.160160663,132.3199993,0,17.66999944,111.4647067,9.843529393,38.42352946,75.35117763,21.49235322,65.37235311,20.95885717,21.76160183,22.01003167,20.47654391,19.37507164,18.84800849,18.09954582,14.25866518,12.17165493,15.21516129,28.41399994,23.9726608,27.94852153,28.22411762,29.00645443,26.88612691,22.65429039,19.02039094,3.206451565,16.00799999,11.62235867,15.61032629,16.7502941,17.72633694,14.88804443,11.60832066,7.356588233,5.349626667,14.38734971,10.95773449,14.17183136,14.61937489,15.41213998,13.31670354,10.34569698,7.707711279,0.504331792,1,0.97267375,0.996219796,1,0.995345527,0.95775528,0.812032548,42.7233625,-76.6555945,2015,NYH3
PB80/PHZ51,TXH1_2016,N,10.05,722.1109162,0,2,222.5,88,69.5,69.5,1.633666698,16.13999993,0.99702422,4.719865603,0.129393939,3.277272727,13.06232457,0.703636358,1.017125621,49.01000094,112.9799995,14.5313639,177.3549991,0.33090909,36.05,378.0672674,3.179999969,30.53454577,13.9726292,10.72874144,17.88940951,17.80076093,20.55685321,19.77792414,17.90480363,20.8338604,20.14326093,22.32500016,23.95000022,24.48309256,26.40498513,28.5388636,28.63545455,30.12870319,34.35404525,35.58838723,6.034666632,13.33571414,9.675379644,13.12758779,15.78530267,16.33764454,20.13902853,23.08186362,24.00118421,8.473379033,11.29783551,10.5045992,12.46111665,14.43681279,14.72204148,17.12368238,20.53225114,20.87599038,0.915869048,1,0.972225207,1,1,1,1,1,30.54708625,-96.43393475,2016,TXH1
F42/H95,NYH3_2019,Y,24.2,725.9724719,1,4.5,250,128.5,75.5,74,3.722580618,3.873333404,3.769554008,3.757958966,6.56821411,3.88506864,3.604603585,1.929858492,3.709694332,115.3999992,34.86000064,61.04857108,135.2235714,13.13642822,47.6607138,172.5314276,35.27499978,112.0914282,17.9818517,20.79040337,20.53458356,20.20586531,15.56107187,20.47665645,15.7702462,13.42945136,8.802352299,16.21290321,21.91111098,21.5613082,26.8770008,26.27928579,27.19863099,23.33754175,19.77308355,13.39834902,5.322258069,10.30000003,10.31609792,15.50927174,17.62488075,14.92700095,12.00041282,8.027538821,3.378330702,6.134411308,9.414033746,9.318517767,13.52970479,14.11503311,13.40897889,10.69134109,8.327220554,5.109082433,0.665391704,1,0.983452189,1,1,0.970435943,0.837841689,0.510564168,42.7321756,-76.65345463,2019,NYH3
B73/PHM49,WIH2_2016,Y,19.95,837.9575873,0,2,286,153.5,64,64,2.185483832,6.563333432,3.447094458,4.124693788,6.707159024,6.158880111,5.945293137,1.654273513,4.758742445,67.74999878,39.38000059,44.45545418,149.2718189,18.91272705,63.86318129,228.7613642,17.11772738,143.1609097,20.07161814,17.64681498,20.48120554,20.03716075,21.00097141,18.73971629,16.31911952,14.94670844,10.3303759,18.34677419,27.65666644,25.59626749,27.3504729,29.44640147,29.15349181,26.70938079,24.21329019,20.37268081,4.840000014,15.2516667,12.43660419,15.21846351,16.18390156,17.81047537,15.29826924,12.0891497,9.537770322,6.76617685,13.67923016,11.77429452,13.6256578,15.0809804,15.56950508,13.35737665,11.10536848,8.849967039,0.729688939,1,1,1,1,0.998061418,0.979766622,0.886131912,43.32649075,-89.33882925,2016,WIH2
B37/MO17,TXH2_2019,N,10.705,781.7204644,0,0,189.5,57,70,68.5,1.71448275,0.072857141,3.656594302,9.095434564,0.409285716,1.207678571,5.355850783,1.246142852,1.574419343,49.71999974,0.50999999,52.00785631,328.2121388,0.592857139,9.661428571,146.4478573,6.531428533,47.51499965,15.42805705,20.52131135,18.76898834,18.57032559,21.42349659,18.85281525,20.14881361,21.03072751,19.84089234,18.45000007,25.76428577,24.43254944,27.27586732,31.09000002,32.37866099,32.72435205,34.04471448,34.98200776,6.826206914,10.35000004,10.67963154,14.78766739,18.65857179,21.85071427,21.02442735,21.79614282,22.6049739,7.457816468,11.1589152,10.85119479,13.46630403,16.91193677,19.11412105,18.84765314,19.77807102,20.01419559,0.749667494,1,0.945308164,1,1,1,1,0.999698925,30.546318,-96.4329965,2019,TXH2
B37/MO17,GAH2_2019,Y,12.1,720.823731,0.166666667,1.5,241,113.6666667,61.83333333,61.66666667,1.545000002,4.557500124,0.250380961,1.26115813,2.257142884,9.485350662,1.336144097,0.813952387,3.350460841,49.44000006,36.46000099,3.755714417,38.36428595,2.257142884,98.62571442,36.52428579,4.78428575,103.8642861,18.18435833,18.19265985,22.8847832,21.24247432,23.3434718,16.19739035,20.40643492,19.78647718,19.94823177,21.36937484,23.13125002,27.34691779,30.77499698,32.53285762,28.60028574,32.70957317,33.58714258,33.18838734,7.029687526,9.771250069,11.28150206,17.20030934,17.5714283,19.08651926,20.35438482,22.40104739,20.7990781,8.377064876,9.945548605,12.20340126,16.01551644,17.09277291,15.89283108,18.47046504,19.81563867,18.90725155,0.94271205,0.94334821,1,1,1,1,1,1,33.7204165,-83.308125,2019,GAH2
W10004_0216/PHZ51,MNH1_2016,Y,18.45,731.1212129,0,2,229,110,67,65.5,2.893225764,0.170000008,5.030425272,6.121705224,6.438583227,6.210954471,8.179238718,7.617170889,9.394742846,89.68999869,1.190000057,67.79499967,212.8530004,13.67999972,65.11499918,295.599999,62.20750045,287.315495,17.89673604,26.28611401,18.122652,20.29948324,15.80941307,17.87578139,16.93568638,15.29315111,12.15008877,17.5148386,25.45428576,24.53269911,27.63337014,28.14450006,28.70269129,27.15887183,24.8505404,22.53032632,6.338387108,9.824285678,13.68155402,15.81410535,17.82425013,18.42635015,16.92976579,13.57123889,11.50456607,6.871134867,10.90204251,11.6566452,13.98369248,15.05511886,15.68076391,14.22086787,11.86153057,10.26982602,0.734527645,1,1,1,1,0.999952477,0.98729881,0.936092645,44.06646925,-93.533648,2016,MNH1
W10001_0022/PHB47,INH1_2015,Y,13.45,749.7853988,1.5,7.5,206,80,67,66,2.968064535,5.608750075,2.401797478,2.620596579,1.049062505,3.048312443,3.454130844,1.332533481,1.484370975,92.01000059,44.8700006,26.44312483,85.12437463,1.715625018,30.48312443,116.5724995,9.316249996,45.68062523,19.44608656,13.59046638,21.88315593,21.65689439,20.60130358,19.73326552,18.77560381,17.99738388,15.64927463,15.67580632,21.0562501,27.44396829,29.52449332,32.66781175,30.16981242,28.17317586,28.46934151,25.5406298,3.004516139,13.05249977,15.22068343,16.62214482,19.56843758,18.02818774,16.71489706,16.46563638,12.56847521,5.360930658,9.9438759,13.725819,15.26696414,18.11812466,16.1828721,14.63810214,14.67667849,11.95902497,0.609504607,1,1,1,1,1,1,0.986081101,40.477075,-87.000205,2015,INH1
B73/PHM49,TXH1-Early_2018,N,10.2,742.0622874,0,2,237.5,94,72,71,2.442333295,0.87833333,4.91741256,2.91095925,1.112321411,5.987347663,3.094033648,2.445309502,2.573656677,73.26999886,5.269999981,55.2178573,113.3721426,4.449285643,64.36357035,86.72785865,13.67714274,77.357857,13.4988633,14.49154552,13.92485348,19.6618496,19.390827,19.64184359,19.38410293,21.21373351,18.01258323,19.68933331,26.95833333,25.66614373,26.56996845,30.24238085,29.14372996,31.91805433,33.2644762,34.51160554,6.357666679,15.03999996,15.13755815,13.69055459,18.24071415,16.44843436,20.63070323,20.50154739,23.97494014,7.613570572,13.40715604,12.87528071,12.79536137,16.34410207,15.0664779,18.21233438,18.75919739,20.40606275,0.821476194,1,0.991620595,0.99408643,1,1,1,0.999013392,30.546318,-96.4329965,2018,TXH1-Early
PHG39/PHN82,ARH2_2016,N,13.15,731.1212129,0,2,185,110,66.5,65,5.780937422,12.26500018,3.712120208,7.0222886,1.105000019,0.295568184,1.931287914,1.454696927,6.280835692,184.9899975,73.59000111,50.67409075,233.2059098,2.210000038,2.364545475,51.29727264,7.656817956,194.7059064,17.76457119,17.22719622,20.14058537,19.80644481,18.88262117,19.79738723,18.69440654,19.88854878,15.60714355,21.02781257,25.69833342,24.88224707,27.55747889,33.1628785,33.38017045,32.40728063,33.71248445,31.37684753,8.517187547,14.13833332,13.26693003,16.75834882,22.79151535,23.21522755,22.56353312,22.95024234,22.3752492,8.626308124,12.37618007,11.75818796,14.46644855,19.89189903,20.24263088,19.43024202,20.23735303,18.81126952,0.958649555,1,1,1,1,1,1,1,35.838614,-90.66530155,2016,ARH2
W10005_0107/PHB47,ONH2_2017,N,18.9,899.0988859,1,4.5,229,100.5,38,36,3.566774253,5.816000056,0.640467161,2.602850346,0.276190468,0.553043346,1.774150425,1.832219351,2.40528059,110.5700018,58.16000056,8.999047586,96.02571482,0.552380936,6.918571438,78.70857161,24.06619065,72.98142847,18.8542372,16.74867072,24.21291039,19.37094181,21.19715784,20.84705237,17.61151759,14.253685,9.927824707,15.7532257,18.68899984,23.40262829,26.34974997,26.59380949,26.86065013,24.57225317,22.91748616,20.00596815,5.764838726,10.96000004,12.03359118,16.18007827,16.63301581,15.91920336,13.14574071,11.27177775,10.10650586,6.141928302,8.38660306,10.68394655,13.52521671,13.7753985,13.64998718,11.58821465,10.41552723,9.107414304,0.598502303,0.966571423,1,1,1,0.999084662,0.956230826,0.8300025,42.45293025,-81.8827315,2017,ONH2
2369/LH123HT,MNH1_2018,N,21.12230769,706.0706079,0,2,271.5384615,127.6923077,65.38461538,63.61538462,2.793871032,5.664285694,1.881383508,4.66962568,0.280777779,5.314848416,5.503097756,4.902593174,1.744490341,86.61000198,39.64999986,19.66333312,156.0266671,0.653333338,61.18466587,207.3246693,42.5680015,52.61600056,18.68617175,18.6483766,23.22190313,20.23498137,21.88409551,21.20453879,17.43849101,14.02805899,11.47763682,18.24580648,23.51142883,30.49568208,28.40295697,27.67288871,27.88288382,26.24424925,23.489937,17.2954947,6.62290317,13.35285704,16.1020056,17.07111629,16.25377796,15.7901465,14.83515609,12.42970144,6.347470975,7.12789267,11.15082684,15.42136783,14.91719499,14.1582049,14.10491894,13.08066536,11.20324133,7.126560519,0.79756912,1,1,1,1,0.978734696,0.910102722,0.699884152,44.07044721,-93.53494127,2018,MNH1
CG44/CGR01,TXH1_2019,N,8.69,798.054845,0,0,158.5,43,63,61.5,1.71448275,0.072857141,3.656594302,9.095434564,0.409285716,1.207678571,5.355850783,1.246142852,1.574419343,49.71999974,0.50999999,52.00785631,328.2121388,0.592857139,9.661428571,146.4478573,6.531428533,47.51499965,15.42805705,20.52131135,18.76898834,18.57032559,21.42349659,18.85281525,20.14881361,21.03072751,19.84089234,18.45000007,25.76428577,24.43254944,27.27586732,31.09000002,32.37866099,32.72435205,34.04471448,34.98200776,6.826206914,10.35000004,10.67963154,14.78766739,18.65857179,21.85071427,21.02442735,21.79614282,22.6049739,7.457816468,11.1589152,10.85119479,13.46630403,16.91193677,19.11412105,18.84765314,19.77807102,20.01419559,0.749667494,1,0.945308164,1,1,1,1,0.999698925,30.546318,-96.4329965,2019,TXH1
PHW52/PHM49,IAH2_2017,Y,17.7,731.1212129,0,2,229,110,65,64,2.991935476,4.003749907,5.594154361,1.824159742,2.965909053,1.138616173,3.544395797,5.525860929,3.224964342,92.74999976,32.02999926,86.83999968,64.74363607,5.880909015,11.03545466,133.6850016,39.36636487,98.02272796,18.91811151,22.03083944,18.39067038,21.91300981,21.59707026,21.00058551,18.76246256,16.50136756,14.56336975,16.70258062,25.25375009,21.16444029,28.78792803,31.34295403,31.03890899,27.79230679,26.54138994,25.01808603,3.836129038,9.060000002,9.836484062,14.72352594,17.1804546,18.00485339,15.61890002,13.9478747,12.25710857,5.884356407,10.52058178,9.325556586,14.19611432,16.29393371,16.57150033,14.05801276,12.73803514,11.57992501,0.659274195,1,0.882113053,1,1,1,1,0.976890029,42.06582876,-94.72050129,2017,IAH2
PHG39/TX205,IAH2_2017,N,16.2,716.9621753,0,24.5,227,124,65,64,2.991935476,4.003749907,5.594154361,1.824159742,2.965909053,1.138616173,3.544395797,5.525860929,3.224964342,92.74999976,32.02999926,86.83999968,64.74363607,5.880909015,11.03545466,133.6850016,39.36636487,98.02272796,18.91811151,22.03083944,18.39067038,21.91300981,21.59707026,21.00058551,18.76246256,16.50136756,14.56336975,16.70258062,25.25375009,21.16444029,28.78792803,31.34295403,31.03890899,27.79230679,26.54138994,25.01808603,3.836129038,9.060000002,9.836484062,14.72352594,17.1804546,18.00485339,15.61890002,13.9478747,12.25710857,5.884356407,10.52058178,9.325556586,14.19611432,16.29393371,16.57150033,14.05801276,12.73803514,11.57992501,0.659274195,1,0.882113053,1,1,1,1,0.976890029,42.06582876,-94.72050129,2017,IAH2
B14A/OH43,NYH2_2017,Y,17.7,731.1212129,0,2,229,110,65,64,4.985806354,2.593333337,3.453715005,5.89688957,0.948070192,3.208418109,2.379655727,2.694333021,3.397972982,154.559997,23.34000003,55.2357889,222.9889478,1.763157895,41.81263091,117.7794744,23.637895,104.1910535,18.91896409,18.22902181,21.62310913,19.28169434,21.2024166,18.91678159,16.97406986,13.88043676,9.439494818,16.54903238,19.80111122,22.34881997,25.65461899,27.16105275,25.3148988,23.28803047,24.25146582,18.24460841,5.239677404,10.2422222,10.55939387,15.21770316,15.87359667,14.84504335,11.5614249,11.15398494,7.352427253,6.267898103,8.570747831,9.793885142,12.80097944,13.68904673,12.46138399,10.55155578,10.87663924,7.688896934,0.638917053,1,1,1,1,0.981507475,0.966916282,0.722284214,42.73248125,-76.65275025,2017,NYH2
B73/PHM49,DEH1_2016,Y,21.55,707.9518787,0,2,272.5,135.5,75.5,75.5,2.701875035,7.431818214,3.891344367,3.01543569,5.358105985,2.453055546,7.028031294,2.624318106,3.1968602,86.46000111,81.75000036,66.39499953,101.6163622,13.33454524,24.02227264,188.3231781,15.05272682,98.58045408,18.33047433,10.1000462,19.40971708,21.02938559,18.25055452,17.64652011,18.94468483,17.7865103,16.44449792,18.09,16.60090897,19.90208421,27.67646738,27.79681775,28.9030859,31.91379825,31.21812112,30.57169607,5.529687506,9.93090907,10.11289786,16.8589893,18.02106052,19.78800518,21.90881045,21.62957593,20.16127331,6.825577378,7.645605865,8.606637786,14.43603228,14.98401645,16.37610101,18.85541374,18.37748956,17.3477875,0.726328134,0.729318176,0.990929859,1,1,1,1,1,38.6482025,-75.44606,2016,DEH1
W10001_0022/PHB47,ONH1_2015,Y,29.6,683.4953592,0,0,230,105,88,88,1.605625002,2.296315821,1.411426091,1.973297954,0.512941169,3.436769168,2.641035405,1.799953816,2.360571209,51.38000005,43.63000059,20.30117703,73.50294104,0.81882352,40.73352947,103.9364728,19.58470627,71.14882509,18.02169462,20.4737019,23.34007091,22.64543997,20.24065375,18.07254412,18.60447299,14.22755231,12.21920895,9.771562532,12.63473691,23.7578119,26.83441686,29.90941261,27.46928249,26.11972075,22.82201755,18.35250846,-0.327500018,2.045263152,11.01347606,13.31919887,17.43313718,16.50329302,14.06775752,11.69572195,7.013714688,2.851211725,4.201400589,10.67713105,12.77399982,15.76589753,14.15032606,12.63577386,10.48249806,7.379159901,0.167098218,0.403345874,0.957007131,0.991950294,1,0.994472794,0.939113043,0.772366561,43.49741975,-80.44806025,2015,ONH1
CG44/CGR01,IAH2_2019,Y,17.7,724.0416941,2.5,0,190.5,96.5,65,64,1.624999978,4.994666719,7.633826981,4.023414549,10.53523836,1.22350002,2.763567443,7.261517829,4.773321835,51.99999928,74.92000079,126.7292866,144.3807149,31.60571507,12.2350002,103.2057142,58.23357121,145.3535721,19.40078695,15.59915857,17.73377221,20.37141966,18.69170743,21.11460887,19.04896103,16.46108124,13.94542613,15.78031255,14.78666655,21.30773964,26.90560141,30.4667857,29.3667858,27.70213024,26.0789087,24.69893011,1.823749996,4.276000045,9.222208134,15.06467224,19.71440506,18.17542877,16.74212177,15.32632928,13.45358666,5.188982368,5.371381143,9.150668224,13.41851256,17.10626668,15.79657396,14.44283917,13.04517908,11.92357614,0.546495539,0.532857125,0.866155154,0.998157434,1,1,1,0.956872449,42.06583499,-94.72067796,2019,IAH2
LH195/LH82,NEH4_2015,N,15.2,787.7573632,0,2,225,105,65,57.5,2.821875036,0,3.668207424,2.0125769,1.951249957,2.654893884,1.684158262,0.190010425,1.166079967,90.30000114,0,33.89000034,59.04687595,1.951249957,28.04999942,59.1787506,1.401875056,35.09749981,18.84220009,27.31064491,20.41342533,20.52862815,19.03072298,18.81303122,18.33826559,17.15407273,12.68489203,24.01437524,30.79399948,29.66091772,30.90712841,30.81250072,28.65153035,29.50292414,26.73776808,20.93262179,13.35843744,15.59799976,18.4981335,19.26878801,20.26031268,17.34358901,16.24316685,11.04417556,7.09840123,11.80342709,15.44887437,16.14310254,17.09436255,17.53736601,15.18702607,15.25106182,11.88303257,8.618375536,0.931774556,1,1,1,1,0.97284651,0.984144349,0.784438609,41.16732275,-96.41663225,2015,NEH4
B37/OH43,MOH1_2_2020,N,18.4,731.1212129,0.4,0.4,240.4,100.8,56,54.2,2.765624954,8.119999743,10.23533287,1.900197364,6.862941181,7.496322061,3.61617108,2.901626778,3.303786197,88.49999854,40.59999871,96.12411712,56.39411764,8.455882353,68.01117661,117.8082348,21.52705885,101.3270584,18.75466287,21.25211372,22.58999711,20.28617166,20.64270943,17.48834951,18.15902921,17.2011884,14.69335169,22.18656257,30.76999931,28.84882905,30.74339714,30.90558787,31.2308437,28.74780649,29.21697892,24.17436303,12.23093753,19.21800041,17.30516703,20.0610583,19.70343171,21.50444419,18.15153395,17.40346693,12.7162556,10.41798935,16.99399986,15.18178367,17.42227064,17.30450979,18.37429674,15.5665539,15.53509051,11.41105442,0.936383936,1,1,1,1,1,0.996694042,0.965786214,38.8958275,-92.2071575,2020,MOH1
PHN11_OH43_0001/PHB47,GAH1_2017,N,12.6,690.574878,0,1.5,180,65,56,56,1.929687474,5.730000019,0.343252103,3.449286585,2.107618968,4.586772466,5.884115127,3.462793619,5.790337869,61.74999917,45.84000015,4.185237975,115.4628578,3.161428452,44.24761888,164.3961923,18.00285697,179.500474,16.80249013,20.13732326,20.17342047,19.27076224,21.20480144,16.6798163,18.15858085,19.37517402,17.73704587,23.5584375,24.76124978,28.73884546,29.02932191,29.79031757,30.11825943,30.88468736,33.04158726,32.39466959,8.654999979,9.073749959,13.81601286,15.94569083,16.85142871,20.07059283,21.0580027,22.24365102,22.03411694,9.935165979,10.3201674,13.6844889,14.81363998,15.5596332,17.10789698,17.95959829,19.61349988,19.1980032,0.8834375,1,1,1,1,1,1,1,31.50794425,-83.55854475,2017,GAH1
B73/MO17,NCH1_2016,N,14.4,731.1212129,6.5,9,233.5,138.5,65,64,2.901562452,3.125714166,7.137907935,4.683034439,4.3177271,0.863030289,5.226283407,5.104181825,4.507668668,92.84999847,21.87999916,91.86318315,160.7736342,8.497726928,8.495454409,139.9318182,26.12772732,139.7377287,16.36857818,22.27138465,15.49498623,18.72849078,21.8793198,21.8664799,18.529992,18.05675722,17.32656161,20.86125001,25.58571407,25.68946269,27.1054564,30.20318166,31.0559697,32.42423852,33.59766701,33.26035177,7.692187494,8.212857212,14.27003911,16.07300028,18.02681784,18.80169681,21.2796372,22.62190931,22.7218182,8.383421821,10.43985322,12.46468669,13.95599298,16.17160042,16.99727481,18.83160592,19.980567,19.86697781,0.913761163,1,1,1,1,1,1,1,35.30015175,-77.57127825,2016,NCH1
B14A/OH43,INH1_2016,N,22.55,625.5720237,4,24,293,157.5,63,63,3.034516148,1.382857186,3.106568823,3.966270256,3.500454469,6.752636371,3.451172643,3.198528118,3.024422797,94.07000059,9.680000305,31.26000059,138.8759105,3.500454469,67.52636371,113.8927274,21.6654544,92.62590972,17.63328649,23.97511796,20.66441577,20.1236558,19.9706746,19.39149484,18.14527656,15.98533716,14.62820237,18.74516109,26.31142807,27.84898846,28.12893417,28.20272714,29.14504538,29.16779001,27.95564941,27.07739093,7.950322636,11.69428553,16.31817922,16.10606538,16.8522731,18.34872752,18.58889605,17.50284626,15.03841012,7.677100472,11.91689015,14.24288378,14.4184555,14.68521604,15.7994256,15.9329094,14.92238151,13.51734692,0.852649763,1,1,1,1,1,1,0.996102814,40.4787595,-86.98982,2016,INH1
B37/H95,TXH1-Late_2018,N,11.55,763.3008437,0,2,248,105.5,63,62,3.579375003,7.22999986,0.880950212,3.393996506,5.74642872,3.619146949,3.455600496,0.428285708,2.278709721,114.5400001,43.37999916,11.7107143,109.309285,11.49285744,35.41714406,87.15857094,2.141428539,70.64000136,15.18905504,16.98149872,20.4111462,19.99876216,15.81608334,20.1152116,19.58230121,16.39417859,18.61523184,25.42156261,25.48166672,24.9240565,29.86096768,30.55928573,31.11103384,33.47173554,33.67857067,35.62923946,13.73406251,14.7233332,12.14174484,16.97683375,21.17380969,19.92907914,21.60030195,24.8844286,24.53525352,12.24876106,12.9546326,11.47321097,15.6369769,17.86869493,17.49319399,19.34856645,20.63058471,20.90474588,0.995234379,0.961607144,1,1,1,0.999944236,0.999152383,0.999033412,30.546318,-96.4329965,2018,TXH1-Late
CG119/CG108,TXH1_2020,N,9.515,654.2118951,0,2,126.365,40.64,62.25,62,2.284333333,0,4.613530444,2.949806388,1.362941181,6.741056464,2.844869093,3.829088224,2.301094231,68.53,0,55.97058804,110.7988238,1.362941181,71.52235312,82.32059028,18.97352936,69.29117607,13.91343843,13.3863348,15.08816438,19.79337859,19.48130546,19.24170726,19.77113757,20.7945973,17.91495332,20.02266652,27.17999992,26.60815942,26.52479293,29.39617636,29.12989124,32.2266946,33.03076485,34.59511331,6.794333295,17.20400028,15.2455437,13.65359797,17.29686298,16.61337131,20.73348334,20.06167624,24.24037069,7.901247141,14.27292515,13.38037585,12.76738989,15.58009007,15.11126374,18.39892159,18.53701373,20.50202011,0.821357143,1,0.99243504,0.993791594,1,1,1,0.999042533,30.53781575,-96.4283715,2020,TXH1
LH195/PHN37,WIH2_2017,Y,20.85,759.7610843,0,2,259.5,120.75,76.5,77.25,5.048709616,4.636666616,1.142383575,5.763857885,8.001590729,6.160048604,1.607776433,1.167726513,2.257555268,156.5099981,41.72999954,17.5799998,219.3963643,12.14409065,74.04090792,72.28863683,15.04409093,68.0204557,18.1690344,19.72049554,20.64727683,20.23287988,19.13163679,19.37493243,18.51401576,14.93340477,10.89478233,16.03129027,21.86555545,22.15746071,26.59689143,27.90045501,26.76799254,24.73062069,22.38533393,20.51274781,3.24419354,8.791111098,9.553497601,14.54337319,16.81037892,15.37831158,12.19271258,9.193202486,7.868866577,5.438218202,9.209131236,9.451203107,13.05708411,14.51682301,13.37610723,11.31306373,9.686333754,8.853113959,0.624158991,0.847976183,0.950288768,1,1,0.998699911,0.954544862,0.834596302,43.3246415,-89.33688775,2017,WIH2
LH195/LH82,NYH2_2015,N,17.8,731.1212129,0,0,186.5,83,84,84,3.814193487,2.822857129,1.806874641,1.427310218,14.28882354,6.323155046,2.553769654,1.263651931,1.70374005,118.2399981,39.5199998,23.5252947,50.99705838,17.86235295,65.18176435,90.43176518,10.71352917,51.74117684,19.21827184,21.58410556,20.44972798,21.8367517,17.34067749,18.34945618,18.49425604,17.55625849,13.84215422,11.26903224,15.86071418,24.70888252,27.12764594,29.5805878,28.55383422,27.75922879,25.11594081,20.73318661,0.676451599,3.065714287,12.68317757,14.19692254,19.48862723,17.66257776,16.12899413,12.03346763,8.797239788,3.458861152,5.522653893,11.65565145,13.2498794,16.56577659,15.18766176,14.16580901,11.53845799,8.731216192,0.261509218,0.568112238,0.971160735,0.994106254,1,0.999864887,0.980226591,0.898542131,42.7324825,-76.65277775,2015,NYH2
B73/PHM49,WIH1_2016,N,20.45,743.9930652,0,3.5,226,120,73,74,2.076129018,1.94750002,4.430291291,4.068377178,0.606590927,8.204471101,6.520888551,7.285801826,4.413191112,64.35999957,23.37000024,50.66818307,153.9786358,1.017727305,87.41727302,222.4604529,58.95590957,134.9268184,19.92805462,20.9108026,19.53546339,20.65690042,18.97296773,19.76360502,17.50876714,15.21370917,12.23883056,16.70258062,17.57583312,27.08182728,26.49130857,27.22159082,28.35833875,27.6700069,25.1458901,22.98674642,3.327419363,4.990833327,14.04723809,14.47423798,17.58636334,16.7186736,17.17399145,14.32051147,12.5735533,5.875866612,6.419508974,12.98865398,12.92924289,14.50224274,14.72651534,14.55658067,12.23924581,10.7486024,0.621198161,0.7653869,1,1,1,0.999967803,0.998306277,0.970976554,43.05632525,-89.53194975,2016,WIH1
PHG39/PHN82,OHH1_2020,Y,22.95,709.2390639,0,0.5,229,110,61.5,58.5,4.175312527,1.24000001,2.003453903,2.609830299,3.238461531,4.458868342,3.000365612,1.621237519,2.44580479,133.6100008,6.200000048,24.41307693,78.60461595,5.612307695,46.13538504,105.0992289,18.40384625,73.98230748,19.06994028,20.34349766,22.26062964,20.30125672,18.94980258,17.72364635,17.47781057,14.69815231,13.31876726,20.75593752,29.31000023,26.9862925,30.26951119,31.92230738,29.63458284,27.3548547,24.45496262,20.91339716,9.301875014,17.61400032,14.18652547,18.22082699,19.47423084,18.74255468,15.66305293,13.07056974,8.164555027,9.098127154,15.53923951,13.05396234,16.29356655,17.69826911,16.21360084,13.84725457,11.75523116,8.713632263,0.810993302,1,1,1,1,0.998602591,0.941606618,0.857376019,39.85643475,-83.67288725,2020,OHH1
B37/MO17,IAH2_2017,Y,17.7,731.1212129,0,2,229,110,65,64,2.991935476,4.003749907,5.594154361,1.824159742,2.965909053,1.138616173,3.544395797,5.525860929,3.224964342,92.74999976,32.02999926,86.83999968,64.74363607,5.880909015,11.03545466,133.6850016,39.36636487,98.02272796,18.91811151,22.03083944,18.39067038,21.91300981,21.59707026,21.00058551,18.76246256,16.50136756,14.56336975,16.70258062,25.25375009,21.16444029,28.78792803,31.34295403,31.03890899,27.79230679,26.54138994,25.01808603,3.836129038,9.060000002,9.836484062,14.72352594,17.1804546,18.00485339,15.61890002,13.9478747,12.25710857,5.884356407,10.52058178,9.325556586,14.19611432,16.29393371,16.57150033,14.05801276,12.73803514,11.57992501,0.659274195,1,0.882113053,1,1,1,1,0.976890029,42.06582876,-94.72050129,2017,IAH2
LH198/PHZ51,NYH2_2017,N,20.4,750.4289914,0,3,271,144,78,77,4.985806354,2.593333337,3.453715005,5.89688957,0.948070192,3.208418109,2.379655727,2.694333021,3.397972982,154.559997,23.34000003,55.2357889,222.9889478,1.763157895,41.81263091,117.7794744,23.637895,104.1910535,18.91896409,18.22902181,21.62310913,19.28169434,21.2024166,18.91678159,16.97406986,13.88043676,9.439494818,16.54903238,19.80111122,22.34881997,25.65461899,27.16105275,25.3148988,23.28803047,24.25146582,18.24460841,5.239677404,10.2422222,10.55939387,15.21770316,15.87359667,14.84504335,11.5614249,11.15398494,7.352427253,6.267898103,8.570747831,9.793885142,12.80097944,13.68904673,12.46138399,10.55155578,10.87663924,7.688896934,0.638917053,1,1,1,1,0.981507475,0.966916282,0.722284214,42.73248125,-76.65275025,2017,NYH2
LH195/LH82,COH1_2017,N,23.25,671.749794,0,3.75,214.5,96.5,70.25,69.125,3.393124943,0,0.001708684,0.360843908,0.891428554,3.560382097,1.42287895,1.565670675,1.770870451,108.5799982,0,0.02904762,12.29476177,1.600476163,43.78523833,56.48285717,21.02523811,53.20285701,22.26802993,25.65694836,25.9931063,24.2875628,21.26982858,19.37652668,19.65631787,15.92591012,11.99136935,20.38624986,26.27857154,29.00990249,30.95750085,32.84396765,29.24597739,27.87075516,24.49812031,17.64004964,4.676250031,9.955714362,11.44166305,13.33492254,15.64190474,14.2894836,11.55992968,8.650869984,2.505724526,7.387813889,11.22152513,12.97827389,14.53136664,16.23032426,14.11586508,12.58015619,10.40568176,6.007000116,0.859799101,1,1,1,1,0.978368119,0.882220332,0.653649732,40.64850025,-104.9997825,2017,COH1
B14A/OH43,ILH1_2015,N,10.7,659.6824324,0,4,227.5,110,72.5,69,4.343437491,1.296153843,7.654899739,5.34311295,3.674999952,2.467291633,4.647268051,0.712819956,1.951907909,138.9899997,16.84999996,99.86750055,177.342501,7.349999905,22.2056247,144.0256246,5.039375113,60.06187434,19.4076893,20.21820178,17.58012378,22.59231729,17.35775694,20.12242863,18.79551315,20.37165926,16.80998738,15.69375022,16.27615364,23.81483975,28.77428317,30.28249967,31.91701372,28.65899596,28.4854072,27.09877011,2.916875011,4.602307732,13.93389792,16.26044709,20.47749984,20.41381959,17.79543547,15.77196732,14.62672175,5.339800043,5.921635642,11.53105666,14.7484369,17.37999976,18.17178164,15.31569586,14.44648847,13.36421336,0.599162964,0.636840646,1,1,1,1,1,0.99828125,40.05982425,-88.23397575,2015,ILH1
W10005_0107/PHB47,MOH1_2016,N,15.65,731.1212129,2,1.5,235,97.5,54.5,54,2.465483877,8.058000231,0.264259377,6.282521268,1.94553035,9.25680559,4.358907121,3.354664451,5.453130527,76.43000019,40.29000115,2.879999995,172.8372758,4.262727369,83.20363667,125.2090916,21.13363606,168.2240918,20.2309363,16.93509369,22.49829557,20.20959989,18.68177986,19.21408964,18.0090922,17.17714413,15.87534947,21.83193548,27.56600037,27.88644765,31.21215235,30.25795442,31.2505745,30.57423065,29.80077912,28.25339236,10.073871,16.74400005,16.26474463,19.86215984,19.98371223,20.49117413,20.76153791,19.91431794,17.56318368,9.497798547,14.24343349,14.21296425,17.47336946,17.12232598,17.8699151,17.65104862,16.90998551,15.09561117,0.937315665,1,1,1,1,1,1,0.999442641,38.8955475,-92.2072025,2016,MOH1
PHW52/PHM49,GAH1_2019,Y,16.08,732.0222425,0,0,195,92.5,61.5,60.5,4.224827643,1.980000006,1.908236784,2.106472486,0,0.090714284,5.691865924,1.473428559,3.045620547,122.5200016,17.82000005,22.37999977,72.04999958,0,0.725714275,156.5528547,7.367142797,92.8692846,16.4500471,17.48633936,17.40259385,20.9384506,22.51147406,21.84430948,17.66714436,19.76491442,19.71139218,21.20655165,22.58666695,26.81574745,29.5228407,35.04273814,35.70196446,32.62270198,33.62814315,33.36893722,7.214827602,8.595555623,14.04498416,14.47543411,19.21654783,20.58464301,20.89661115,21.78014287,21.253149,8.370628681,9.274220075,12.91642218,14.40044999,18.67726543,19.28313207,18.63395398,19.63555568,19.18049021,0.90216748,0.984365085,1,1,1,1,1,1,31.50582525,-83.55515025,2019,GAH1
PHW52/PHM49,WIH1_2020,N,30.6,680.2773961,0,0,253.5,127.5,79.5,78.5,1.598387111,6.507143004,4.413520471,5.455426438,9.576153682,6.848251811,1.847198819,1.302442385,3.233674973,49.55000043,91.10000205,54.05307698,191.9769218,14.76999958,75.33076992,75.52923148,17.19923096,99.29769339,20.3303612,17.70938441,19.63774696,21.71928057,19.47191414,18.08778093,19.52506722,17.02277317,12.74244368,13.80935484,15.78214281,24.71870171,28.0331271,31.3961547,28.17125902,26.95535567,26.2427393,20.06715065,1.332903252,5.150000061,13.25869882,14.90724568,18.80923077,17.63741262,14.66820073,13.00544381,8.429758508,4.404075426,5.920121855,11.73838603,13.88054584,17.12955683,14.95247276,13.30208011,12.63591888,8.588509069,0.46481566,0.623010193,1,1,1,0.987099279,0.934776512,0.808464704,43.05505505,-89.52853825,2020,WIH1
B73/TX779,ARH1_2018,N,32.4,791.6189189,0,2,187.5,101.5,69,66.5,6.807499945,4.709999936,2.627776375,4.735912158,3.619166647,6.960178526,4.330437569,0.796285741,3.374677434,217.8399982,32.96999955,35.48928591,145.2942843,5.831428528,62.51428531,109.7978577,4.003571561,104.6150005,17.99706709,21.70226043,20.05949982,19.52680112,21.59397623,17.99264813,18.0574776,19.33215022,18.30424355,21.07062507,24.31857109,24.02168934,29.45279857,31.73095224,30.70692423,32.5717108,33.29521443,31.83741963,10.26718749,12.03571429,12.70205088,18.67412083,19.99154783,20.64677572,22.90335213,23.23585706,21.28834102,9.223277534,11.01036775,11.27832322,16.11267445,17.86206546,17.6775748,19.72770382,20.19469271,18.54368809,0.945725441,1,1,1,1,1,1,1,34.729679,-90.7603455,2018,ARH1
PHB47/PHZ51,ILH1_2016,N,15,735.6263612,0.5,2,244,127,75.75,73.5,2.976905237,4.388409027,2.266536067,5.61207631,2.384848472,3.596551307,3.312350719,4.357499975,4.793790319,93.71999985,46.35499933,33.46068128,180.4177266,4.628863606,41.73386359,104.1413657,28.32431801,148.2020453,18.82488241,16.77241452,21.32061235,20.18653607,20.74234538,18.07981042,18.8666989,17.85818253,16.07680721,18.05081144,19.20204525,23.0422997,29.42292662,27.90308728,26.97317812,29.60218573,29.15938829,28.17592877,4.960040295,8.531272602,10.4507586,17.10049505,15.99717794,16.84881478,19.41054858,18.84383108,17.09740687,6.781235125,7.969267807,10.17119166,15.41614171,14.29579798,14.15384892,16.51995977,16.04951253,14.84458937,0.666766271,0.897956159,0.946860721,1,1,1,1,0.999883117,40.0607245,-88.2338815,2016,ILH1
CG44/CGR01,DEH1_2018,N,17.05,563.4653361,0,4.25,197.5,88.5,63,62.5,3.413225795,4.724545566,2.007753279,2.760624154,0.287142856,8.862777665,3.915865231,4.933581623,5.971971652,105.8099996,51.97000122,28.2621423,90.35856978,0.861428567,79.76499898,101.102142,26.37928568,184.7400021,18.24738333,20.30334785,18.96061465,21.19242313,20.3949075,18.85770366,17.73482038,14.47844699,15.08372737,17.38161278,18.28454564,22.01469092,28.14795471,32.28714262,31.68230149,32.09286912,30.42106803,28.79790015,6.703871004,7.41363637,12.85857977,17.97497576,22.0019049,21.31992057,22.76420594,22.26141136,20.21526036,6.825711165,7.366383816,10.38385741,15.21158117,19.10753111,18.47850441,19.35879976,18.34204267,16.58274325,0.781601378,0.839058448,0.989425295,1,1,1,1,1,38.65164475,-75.44913625,2018,DEH1
W10004_0216/PHZ51,WIH1_2017,Y,17.5,748.4982135,0,2,278.5,127.5,77,78.5,3.894838602,1.694000003,3.49156578,6.251914317,26.29780264,12.3515148,1.782621048,1.031219451,2.019413967,120.7399967,16.94000003,60.77000046,238.2086357,55.48409002,148.2181776,77.27181808,11.13545426,60.74545419,17.96009764,21.56986256,18.71582301,20.73316127,19.69440102,19.58726141,19.1692292,15.69151392,12.21998586,16.03451621,20.2119998,20.22998088,26.71060266,27.00553033,27.16428033,24.80808837,24.03641879,21.845045,3.37838715,6.260000002,9.268565708,14.6662765,15.35575767,16.21109857,13.17589581,11.52521119,9.509429623,5.507434962,7.720411242,8.664602637,13.14891279,13.46068042,13.9043846,11.67856357,10.90146065,9.608265423,0.606900932,0.8735357,0.867893568,1,1,0.998220242,0.971647403,0.89569217,43.05668125,-89.5308135,2017,WIH1
PHG39/TX205,NEH1_2015,N,15.3,786.4701779,0,2,265,130,65,60,2.959062506,0.753999996,4.745632833,2.187040691,0.179999996,3.601448917,1.548000793,0.057812502,1.589214364,94.69000018,3.769999981,46.84999943,63.50812512,0.239999995,39.12187557,55.49499987,0.586250016,47.85812447,19.07194562,25.84699936,20.00593662,19.96245842,20.96463704,17.86296284,18.31175333,17.30405645,12.3794141,23.74906254,30.51399994,29.13009987,30.74148671,30.73750019,28.43858622,29.13031746,26.88374984,20.12342532,13.19218739,15.46999989,18.04036499,19.18092822,19.11281252,17.33248289,15.92131484,11.1533021,6.525200269,11.64481375,15.25955733,15.68336601,16.96891106,16.93845514,15.07345461,14.95183393,12.01070089,8.15887847,0.924598212,1,1,1,1,0.96969665,0.982957588,0.758540943,41.290979,-96.41664325,2015,NEH1
PHG39/PHN82,NYH3_2015,N,21.5,731.1212129,0,1,221.5,108,80.5,80,4.268387075,0,1.234803629,3.315485905,3.744705864,3.708743319,2.034738589,2.091907533,2.160160663,132.3199993,0,17.66999944,111.4647067,9.843529393,38.42352946,75.35117763,21.49235322,65.37235311,20.95885717,21.76160183,22.01003167,20.47654391,19.37507164,18.84800849,18.09954582,14.25866518,12.17165493,15.21516129,28.41399994,23.9726608,27.94852153,28.22411762,29.00645443,26.88612691,22.65429039,19.02039094,3.206451565,16.00799999,11.62235867,15.61032629,16.7502941,17.72633694,14.88804443,11.60832066,7.356588233,5.349626667,14.38734971,10.95773449,14.17183136,14.61937489,15.41213998,13.31670354,10.34569698,7.707711279,0.504331792,1,0.97267375,0.996219796,1,0.995345527,0.95775528,0.812032548,42.7233625,-76.6555945,2015,NYH3
B37/H95,WIH1_2017,Y,22.4,729.8340276,15,2,255,127.5,80,80,3.894838602,1.694000003,3.49156578,6.251914317,26.29780264,12.3515148,1.782621048,1.031219451,2.019413967,120.7399967,16.94000003,60.77000046,238.2086357,55.48409002,148.2181776,77.27181808,11.13545426,60.74545419,17.96009764,21.56986256,18.71582301,20.73316127,19.69440102,19.58726141,19.1692292,15.69151392,12.21998586,16.03451621,20.2119998,20.22998088,26.71060266,27.00553033,27.16428033,24.80808837,24.03641879,21.845045,3.37838715,6.260000002,9.268565708,14.6662765,15.35575767,16.21109857,13.17589581,11.52521119,9.509429623,5.507434962,7.720411242,8.664602637,13.14891279,13.46068042,13.9043846,11.67856357,10.90146065,9.608265423,0.606900932,0.8735357,0.867893568,1,1,0.998220242,0.971647403,0.89569217,43.05668125,-89.5308135,2017,WIH1
B14A/MO17,WIH2_2019,N,31.425,619.4578938,0,12.5,264.5833333,125,66.5,65.25,5.084687524,1.186666648,3.682690384,5.868440751,0.695238091,4.73009737,4.315774648,4.395502279,4.547947068,162.7100008,7.119999886,58.08928529,183.8007161,1.222857135,55.05428533,207.5435701,59.53000056,136.8792876,20.51840827,23.10255337,19.84622659,19.54978709,22.13574316,19.04821964,14.90817086,12.98397937,9.337872891,18.93468753,26.85500018,22.80729416,28.92841129,27.86750015,27.53142967,23.33864799,22.30785619,12.19546616,7.173437506,12.79833317,11.75963315,17.3057567,14.67845241,15.42498763,12.56161555,11.34993986,2.687473085,7.568173943,12.44054354,10.32084191,15.24419851,13.63574066,13.78240318,10.8770868,10.55092288,4.713570865,0.808549105,1,0.995612408,1,1,0.966295589,0.875965566,0.450550638,43.320768,-89.33189475,2019,WIH2
TX951/LH195,MOH1_2_2020,N,21.66,731.1212129,0,0.2,239.8,127.2,61,59.6,2.765624954,8.119999743,10.23533287,1.900197364,6.862941181,7.496322061,3.61617108,2.901626778,3.303786197,88.49999854,40.59999871,96.12411712,56.39411764,8.455882353,68.01117661,117.8082348,21.52705885,101.3270584,18.75466287,21.25211372,22.58999711,20.28617166,20.64270943,17.48834951,18.15902921,17.2011884,14.69335169,22.18656257,30.76999931,28.84882905,30.74339714,30.90558787,31.2308437,28.74780649,29.21697892,24.17436303,12.23093753,19.21800041,17.30516703,20.0610583,19.70343171,21.50444419,18.15153395,17.40346693,12.7162556,10.41798935,16.99399986,15.18178367,17.42227064,17.30450979,18.37429674,15.5665539,15.53509051,11.41105442,0.936383936,1,1,1,1,1,0.996694042,0.965786214,38.8958275,-92.2071575,2020,MOH1
PHG39/TX205,MOH1_2017,N,17.6,731.1212129,0,2,239.5,131.5,66.5,65,8.937741737,9.40166688,2.512230721,3.318030003,5.035714369,1.794490762,1.996986524,1.220079397,1.67255761,277.0699939,56.41000128,33.26619119,103.9014299,11.93095259,15.87761924,65.30142803,7.334762096,51.25476209,18.72482054,18.08832916,22.62422694,21.00800173,18.77514496,19.93438148,19.70533138,19.36646121,17.34329115,21.92032254,25.32999992,25.47495036,29.30087203,30.46650729,32.25412016,29.92026774,28.22145964,28.04827898,10.06000005,15.27666648,12.99827088,17.39768618,19.78222205,21.21359122,18.70404881,16.33857143,14.9717184,9.612847321,12.76903024,11.94928206,15.49761919,17.12130987,18.67277384,16.20463701,14.48208578,13.92850008,0.915472353,1,1,1,1,1,1,0.999239796,38.89264,-92.2057525,2017,MOH1
B37/H95,OHH1_2015,Y,18.05,789.688141,0,2,252.5,125.5,67,67,4.820000016,2.056666652,1.801667061,2.430255425,2.070588264,2.75488235,3.664772063,1.623969288,1.874022108,149.4200005,12.33999991,20.27235275,82.00588303,2.23529414,26.29176468,128.0200007,12.16764697,57.18411674,17.71339239,20.831882,20.85048625,20.93566426,20.28419298,19.59839119,17.66236547,17.23782846,14.83481447,16.95064511,28.03666687,26.64173705,29.01382079,31.07970569,30.59522857,27.99762273,26.69097183,23.34659959,5.9283871,15.42166694,14.66308043,16.74801267,19.23764672,18.74322206,16.69895781,13.90980629,10.26308727,6.580773377,14.04730329,13.19467995,15.08203889,17.16864649,16.69143216,14.53513226,12.92347397,10.29932856,0.672569122,1,1,1,1,1,0.994932126,0.947361455,39.855785,-83.66477375,2015,OHH1
B14A/OH43,NYH1_2017,Y,17.7,731.1212129,0,2,229,110,65,64,4.758709581,4.139999986,2.953024942,5.715506232,4.320872878,2.701732063,2.616328443,1.022630585,3.614268439,147.519997,37.25999987,45.12618999,219.9223815,11.26857107,35.6957141,128.4247627,13.30476207,110.8900009,18.97444351,17.81005277,22.0763727,19.38397475,18.56141379,19.22534974,16.71382568,13.43506643,9.037548332,17.06967752,20.23333359,22.7745171,25.66488699,26.70396817,25.32691524,23.26007272,23.96840526,17.61119819,5.964193534,10.19,10.93717632,15.20362294,16.36293638,14.60656728,11.31793404,11.56685323,6.669544781,6.641127344,8.727253675,10.15270493,12.79474615,13.71935226,12.37567782,10.45035179,10.9124923,7.239151369,0.685760371,1,1,1,1,0.982493678,0.953634339,0.701363064,42.72880835,-76.6515625,2017,NYH1
CG44/CGR01,OHH1_2017,Y,14.35,719.5365458,0,2,229,110,65,64,4.401935447,12.29571451,4.299880116,6.252045262,18.36299991,4.892395558,3.195317293,3.431958172,3.794688752,136.4599988,86.0700016,53.63949916,223.8204996,40.86499989,50.26800107,124.097,30.99400014,115.4320013,19.0647902,19.03427505,21.00226491,20.15032754,19.69555429,18.89580098,18.69837911,16.0400155,13.85510684,20.47903239,25.43142836,25.24002704,27.25803818,28.09541678,28.73270468,26.30456447,24.69395371,24.25720733,8.011935501,13.44999967,12.59882409,15.91673102,16.75358336,18.39824095,14.97688189,13.11535887,11.81284403,8.407228033,12.106522,11.63721293,13.8931373,14.6377479,15.63224373,13.07252875,11.66012039,11.13333271,0.85352535,1,1,1,1,0.996926048,1,0.96495674,39.855785,-83.66477375,2017,OHH1
B73/MO17,NYH3_2019,N,20.2,689.9312854,1,2.5,262,161,77,76.5,3.722580618,3.873333404,3.769554008,3.757958966,6.56821411,3.88506864,3.604603585,1.929858492,3.709694332,115.3999992,34.86000064,61.04857108,135.2235714,13.13642822,47.6607138,172.5314276,35.27499978,112.0914282,17.9818517,20.79040337,20.53458356,20.20586531,15.56107187,20.47665645,15.7702462,13.42945136,8.802352299,16.21290321,21.91111098,21.5613082,26.8770008,26.27928579,27.19863099,23.33754175,19.77308355,13.39834902,5.322258069,10.30000003,10.31609792,15.50927174,17.62488075,14.92700095,12.00041282,8.027538821,3.378330702,6.134411308,9.414033746,9.318517767,13.52970479,14.11503311,13.40897889,10.69134109,8.327220554,5.109082433,0.665391704,1,0.983452189,1,1,0.970435943,0.837841689,0.510564168,42.7321756,-76.65345463,2019,NYH3
B73/PHM49,WIH1_2017,Y,20.6,707.308286,0,2,259,125,78.5,80,3.894838602,1.694000003,3.49156578,6.251914317,26.29780264,12.3515148,1.782621048,1.031219451,2.019413967,120.7399967,16.94000003,60.77000046,238.2086357,55.48409002,148.2181776,77.27181808,11.13545426,60.74545419,17.96009764,21.56986256,18.71582301,20.73316127,19.69440102,19.58726141,19.1692292,15.69151392,12.21998586,16.03451621,20.2119998,20.22998088,26.71060266,27.00553033,27.16428033,24.80808837,24.03641879,21.845045,3.37838715,6.260000002,9.268565708,14.6662765,15.35575767,16.21109857,13.17589581,11.52521119,9.509429623,5.507434962,7.720411242,8.664602637,13.14891279,13.46068042,13.9043846,11.67856357,10.90146065,9.608265423,0.606900932,0.8735357,0.867893568,1,1,0.998220242,0.971647403,0.89569217,43.05668125,-89.5308135,2017,WIH1
PHW52/PHN82,NYH1_2017,N,19.85,731.1212129,0,2,216.5,81.5,77,74.5,4.758709581,4.139999986,2.953024942,5.715506232,4.320872878,2.701732063,2.616328443,1.022630585,3.614268439,147.519997,37.25999987,45.12618999,219.9223815,11.26857107,35.6957141,128.4247627,13.30476207,110.8900009,18.97444351,17.81005277,22.0763727,19.38397475,18.56141379,19.22534974,16.71382568,13.43506643,9.037548332,17.06967752,20.23333359,22.7745171,25.66488699,26.70396817,25.32691524,23.26007272,23.96840526,17.61119819,5.964193534,10.19,10.93717632,15.20362294,16.36293638,14.60656728,11.31793404,11.56685323,6.669544781,6.641127344,8.727253675,10.15270493,12.79474615,13.71935226,12.37567782,10.45035179,10.9124923,7.239151369,0.685760371,1,1,1,1,0.982493678,0.953634339,0.701363064,42.72880835,-76.6515625,2017,NYH1
TX777/LH195,NEH2_2015,N,14.3,761.3700659,0,0,229,110,94,94,1.358750008,3.755999994,3.031264216,1.286090902,0.286666671,1.657187527,3.751759362,0.157499999,0.616713691,43.48000026,37.55999994,66.29000026,43.49999976,0.860000014,16.57187527,117.6431233,0.944999993,18.99062441,19.53783247,19.98656282,18.8528682,23.65152674,23.21232343,22.7312118,19.62767813,21.61948185,18.20728239,15.03874992,23.15200024,18.66927583,30.14561768,32.37510385,32.60862507,30.36489819,32.31320816,28.31448706,-2.426562488,5.230999994,5.264051067,13.5723423,16.5714581,16.13087479,15.9646131,15.56819047,11.19634675,4.192485347,8.478296732,6.894904354,14.37610508,16.560328,16.47008009,15.3434088,16.05261291,12.83173005,0.519497764,0.97653572,0.809891265,1,1,1,1,0.922021698,41.0514495,-100.7471915,2015,NEH2
B73/MO17,TXH1-Early_2018,Y,10.05,715.0313974,0,2,259,95.5,71.5,69,2.442333295,0.87833333,4.91741256,2.91095925,1.112321411,5.987347663,3.094033648,2.445309502,2.573656677,73.26999886,5.269999981,55.2178573,113.3721426,4.449285643,64.36357035,86.72785865,13.67714274,77.357857,13.4988633,14.49154552,13.92485348,19.6618496,19.390827,19.64184359,19.38410293,21.21373351,18.01258323,19.68933331,26.95833333,25.66614373,26.56996845,30.24238085,29.14372996,31.91805433,33.2644762,34.51160554,6.357666679,15.03999996,15.13755815,13.69055459,18.24071415,16.44843436,20.63070323,20.50154739,23.97494014,7.613570572,13.40715604,12.87528071,12.79536137,16.34410207,15.0664779,18.21233438,18.75919739,20.40606275,0.821476194,1,0.991620595,0.99408643,1,1,1,0.999013392,30.546318,-96.4329965,2018,TXH1-Early
TX714/PHZ51,WIH3_2020,N,22.7,688.0005075,0,0.5,282.5,160,74.5,72.5,2.733870995,5.446666638,6.112394342,4.74655674,3.655208389,1.04360979,2.527373572,3.69928986,2.61452892,84.75000083,32.67999983,82.9068754,167.6149986,8.003125131,12.58312517,113.8450009,40.74312496,78.93437568,20.41919384,18.2775027,21.33639865,20.40337995,19.49413761,18.99324058,17.80850823,14.15156863,10.1168501,15.48354838,26.52499994,25.39100386,27.30541678,28.00124967,27.24401428,25.77617537,21.78088819,14.67245705,3.106129019,15.18500026,12.31273591,15.12317531,16.14624966,16.31340126,13.17330579,9.92591724,4.431311843,5.287102842,13.2823578,11.70416503,13.61992535,14.28505882,13.97808988,12.29059579,9.657643491,5.630137727,0.571854837,1,1,1,1,0.965668942,0.879609054,0.560799012,44.115703,-89.54491325,2020,WIH3
B14A/OH43,MOH1_2017,Y,18.5,731.1212129,3,3.5,253,120.5,63,61.5,8.937741737,9.40166688,2.512230721,3.318030003,5.035714369,1.794490762,1.996986524,1.220079397,1.67255761,277.0699939,56.41000128,33.26619119,103.9014299,11.93095259,15.87761924,65.30142803,7.334762096,51.25476209,18.72482054,18.08832916,22.62422694,21.00800173,18.77514496,19.93438148,19.70533138,19.36646121,17.34329115,21.92032254,25.32999992,25.47495036,29.30087203,30.46650729,32.25412016,29.92026774,28.22145964,28.04827898,10.06000005,15.27666648,12.99827088,17.39768618,19.78222205,21.21359122,18.70404881,16.33857143,14.9717184,9.612847321,12.76903024,11.94928206,15.49761919,17.12130987,18.67277384,16.20463701,14.48208578,13.92850008,0.915472353,1,1,1,1,1,1,0.999239796,38.89264,-92.2057525,2017,MOH1
LH74/PHN82,NYH3_2015,N,19,731.1212129,0.5,1.5,215,109,77,77,4.268387075,0,1.234803629,3.315485905,3.744705864,3.708743319,2.034738589,2.091907533,2.160160663,132.3199993,0,17.66999944,111.4647067,9.843529393,38.42352946,75.35117763,21.49235322,65.37235311,20.95885717,21.76160183,22.01003167,20.47654391,19.37507164,18.84800849,18.09954582,14.25866518,12.17165493,15.21516129,28.41399994,23.9726608,27.94852153,28.22411762,29.00645443,26.88612691,22.65429039,19.02039094,3.206451565,16.00799999,11.62235867,15.61032629,16.7502941,17.72633694,14.88804443,11.60832066,7.356588233,5.349626667,14.38734971,10.95773449,14.17183136,14.61937489,15.41213998,13.31670354,10.34569698,7.707711279,0.504331792,1,0.97267375,0.996219796,1,0.995345527,0.95775528,0.812032548,42.7233625,-76.6555945,2015,NYH3
TX714/PHZ51,IAH1_2017,Y,17.7,731.1212129,0,2,229,110,65,64,3.40562493,4.965384584,4.756276119,1.833606587,3.814090996,2.221484887,3.670808328,1.81325484,2.347473118,108.9799978,64.54999959,71.28272616,63.78727258,4.177727374,22.83863677,118.9068186,13.7622725,72.03681816,16.19865167,17.41178014,18.84198651,22.07722619,19.57094626,20.6423577,19.65334879,19.12382584,16.87809105,17.11343735,15.37846162,22.95951679,28.09807267,26.50742381,30.27960591,29.79948923,26.92834941,26.37674051,5.413125027,4.923076978,11.46549016,14.16962528,11.61757578,16.65775237,16.66504091,13.38757222,12.41510662,6.530778339,5.768563812,10.45370215,13.71965113,11.94783378,15.64262598,15.39964617,12.71239892,12.1737806,0.629988832,0.555054952,0.946458762,1,1,1,1,0.998130952,41.19924609,-91.49402296,2017,IAH1
PHG39/PHN82,GAH1_2020,Y,19.96,696.4959301,0.5,0.5,192.5,95,68,68,4.279687563,0,6.08243138,3.811420537,2.267976227,2.530000055,3.98378478,1.741833346,2.910207357,136.950002,0,84.37571335,135.9278565,4.833571502,22.77000049,107.9378566,9.115000069,90.21642806,16.61263859,21.5972875,19.10636237,20.72286693,14.54687945,18.15584731,20.08605453,19.68634889,18.27781732,25.37343752,26.77166684,25.94144379,27.77824619,29.55357116,30.6518255,31.78195276,33.48178532,33.56322575,12.43875006,10.55666669,12.19035929,13.80720781,20.58059497,20.26111097,20.57386992,21.96838095,22.25456222,11.80508215,11.69113274,11.88989525,13.35432975,17.06708306,17.45646823,18.17996521,19.67032327,19.80166763,0.988537947,1,1,1,1,1,1,1,31.5079775,-83.558517,2020,GAH1
2369/LH123HT,IAH1_2017,Y,17.8,763.9444363,0,1.5,225.5,112.5,65,64,3.40562493,4.965384584,4.756276119,1.833606587,3.814090996,2.221484887,3.670808328,1.81325484,2.347473118,108.9799978,64.54999959,71.28272616,63.78727258,4.177727374,22.83863677,118.9068186,13.7622725,72.03681816,16.19865167,17.41178014,18.84198651,22.07722619,19.57094626,20.6423577,19.65334879,19.12382584,16.87809105,17.11343735,15.37846162,22.95951679,28.09807267,26.50742381,30.27960591,29.79948923,26.92834941,26.37674051,5.413125027,4.923076978,11.46549016,14.16962528,11.61757578,16.65775237,16.66504091,13.38757222,12.41510662,6.530778339,5.768563812,10.45370215,13.71965113,11.94783378,15.64262598,15.39964617,12.71239892,12.1737806,0.629988832,0.555054952,0.946458762,1,1,1,1,0.998130952,41.19924609,-91.49402296,2017,IAH1
B97/PHB47,NCH1_2015,Y,17.95,731.1212129,0,0,239,123,65,64,3.0140625,9.692856925,3.043308324,7.00027835,0,3.411347986,2.886716411,10.31533332,6.56176467,96.44999999,67.84999847,47.46470581,233.8535261,0,30.12176424,80.44058821,53.94764695,203.4147048,18.56641886,18.5514961,20.38733283,17.18369043,24.39251002,21.03629604,20.30189304,17.27178406,15.58503138,22.38312501,24.94999995,23.18034629,27.40244989,31.82117664,31.76743482,33.30845927,33.22968591,31.16039845,8.592187501,12.50999982,10.48535005,18.40286831,19.92058833,21.46261411,22.34001137,22.61282364,21.92468694,9.285127697,11.46773529,10.15801447,14.99239002,17.87088248,18.60652477,19.71826945,19.84422869,18.53531879,0.955334819,1,0.995809598,1,1,1,1,1,35.29657708,-77.5664625,2015,NCH1
F42/MO17,TXH3_2019,N,10.175,786.7404868,0,0,217,70,69.5,69.5,1.71448275,0.072857141,3.656594302,9.095434564,0.409285716,1.207678571,5.355850783,1.246142852,1.574419343,49.71999974,0.50999999,52.00785631,328.2121388,0.592857139,9.661428571,146.4478573,6.531428533,47.51499965,15.42805705,20.52131135,18.76898834,18.57032559,21.42349659,18.85281525,20.14881361,21.03072751,19.84089234,18.45000007,25.76428577,24.43254944,27.27586732,31.09000002,32.37866099,32.72435205,34.04471448,34.98200776,6.826206914,10.35000004,10.67963154,14.78766739,18.65857179,21.85071427,21.02442735,21.79614282,22.6049739,7.457816468,11.1589152,10.85119479,13.46630403,16.91193677,19.11412105,18.84765314,19.77807102,20.01419559,0.749667494,1,0.945308164,1,1,1,1,0.999698925,30.546318,-96.4329965,2019,TXH3
W10001_0022/PHB47,NCH1_2016,N,13.9,731.1212129,10,1.5,214,122.5,65,64,2.901562452,3.125714166,7.137907935,4.683034439,4.3177271,0.863030289,5.226283407,5.104181825,4.507668668,92.84999847,21.87999916,91.86318315,160.7736342,8.497726928,8.495454409,139.9318182,26.12772732,139.7377287,16.36857818,22.27138465,15.49498623,18.72849078,21.8793198,21.8664799,18.529992,18.05675722,17.32656161,20.86125001,25.58571407,25.68946269,27.1054564,30.20318166,31.0559697,32.42423852,33.59766701,33.26035177,7.692187494,8.212857212,14.27003911,16.07300028,18.02681784,18.80169681,21.2796372,22.62190931,22.7218182,8.383421821,10.43985322,12.46468669,13.95599298,16.17160042,16.99727481,18.83160592,19.980567,19.86697781,0.913761163,1,1,1,1,1,1,1,35.30015175,-77.57127825,2016,NCH1
B37/H95,TXH1-Early_2018,Y,11,771.6675477,0,2,231.5,90,72,71.5,2.442333295,0.87833333,4.91741256,2.91095925,1.112321411,5.987347663,3.094033648,2.445309502,2.573656677,73.26999886,5.269999981,55.2178573,113.3721426,4.449285643,64.36357035,86.72785865,13.67714274,77.357857,13.4988633,14.49154552,13.92485348,19.6618496,19.390827,19.64184359,19.38410293,21.21373351,18.01258323,19.68933331,26.95833333,25.66614373,26.56996845,30.24238085,29.14372996,31.91805433,33.2644762,34.51160554,6.357666679,15.03999996,15.13755815,13.69055459,18.24071415,16.44843436,20.63070323,20.50154739,23.97494014,7.613570572,13.40715604,12.87528071,12.79536137,16.34410207,15.0664779,18.21233438,18.75919739,20.40606275,0.821476194,1,0.991620595,0.99408643,1,1,1,0.999013392,30.546318,-96.4329965,2018,TXH1-Early
PHN11_PHW65_0323/LH195,GAH1_2019,Y,16.34,746.8248727,0,0,185,95,61,61,4.224827643,1.980000006,1.908236784,2.106472486,0,0.090714284,5.691865924,1.473428559,3.045620547,122.5200016,17.82000005,22.37999977,72.04999958,0,0.725714275,156.5528547,7.367142797,92.8692846,16.4500471,17.48633936,17.40259385,20.9384506,22.51147406,21.84430948,17.66714436,19.76491442,19.71139218,21.20655165,22.58666695,26.81574745,29.5228407,35.04273814,35.70196446,32.62270198,33.62814315,33.36893722,7.214827602,8.595555623,14.04498416,14.47543411,19.21654783,20.58464301,20.89661115,21.78014287,21.253149,8.370628681,9.274220075,12.91642218,14.40044999,18.67726543,19.28313207,18.63395398,19.63555568,19.18049021,0.90216748,0.984365085,1,1,1,1,1,1,31.50582525,-83.55515025,2019,GAH1
F42/H95,NYH3_2020,Y,12.3,759.439288,0,10.5,235,108,67.5,67,4.422257993,0,1.373865683,3.203515064,6.161458224,3.578657229,2.247619776,1.339995863,2.270768823,137.0899978,0,18.69000064,113.6731244,12.19749978,37.86125033,87.74812532,17.041875,68.54562519,20.94560956,21.78233427,21.55267425,20.63825651,19.18147684,18.87690393,17.75633085,13.93943947,11.5316014,14.59225801,27.97729172,23.60945411,27.89842024,28.17958339,28.76829368,26.51617347,21.47489044,18.12990527,2.644717742,15.68266662,11.3508871,15.53912014,16.43281273,17.50013456,14.53010818,10.52921434,6.891416056,5.000434995,14.04753459,10.70035646,14.11697706,14.42792892,15.19886376,13.03509367,9.604727821,7.356101809,0.471947005,1,0.969562211,0.99553941,1,0.989555914,0.903066166,0.764418635,42.73227475,-76.6513705,2020,NYH3
B37/MO17,OHH1_2017,N,19.1,726.9378609,0,12.25,229,110,65,64,4.401935447,12.29571451,4.299880116,6.252045262,18.36299991,4.892395558,3.195317293,3.431958172,3.794688752,136.4599988,86.0700016,53.63949916,223.8204996,40.86499989,50.26800107,124.097,30.99400014,115.4320013,19.0647902,19.03427505,21.00226491,20.15032754,19.69555429,18.89580098,18.69837911,16.0400155,13.85510684,20.47903239,25.43142836,25.24002704,27.25803818,28.09541678,28.73270468,26.30456447,24.69395371,24.25720733,8.011935501,13.44999967,12.59882409,15.91673102,16.75358336,18.39824095,14.97688189,13.11535887,11.81284403,8.407228033,12.106522,11.63721293,13.8931373,14.6377479,15.63224373,13.07252875,11.66012039,11.13333271,0.85352535,1,1,1,1,0.996926048,1,0.96495674,39.855785,-83.66477375,2017,OHH1
LH195/PHN37,DEH1_2016,Y,20.35,729.8340276,0,6.5,268,100.5,77.5,75.5,2.701875035,7.431818214,3.891344367,3.01543569,5.358105985,2.453055546,7.028031294,2.624318106,3.1968602,86.46000111,81.75000036,66.39499953,101.6163622,13.33454524,24.02227264,188.3231781,15.05272682,98.58045408,18.33047433,10.1000462,19.40971708,21.02938559,18.25055452,17.64652011,18.94468483,17.7865103,16.44449792,18.09,16.60090897,19.90208421,27.67646738,27.79681775,28.9030859,31.91379825,31.21812112,30.57169607,5.529687506,9.93090907,10.11289786,16.8589893,18.02106052,19.78800518,21.90881045,21.62957593,20.16127331,6.825577378,7.645605865,8.606637786,14.43603228,14.98401645,16.37610101,18.85541374,18.37748956,17.3477875,0.726328134,0.729318176,0.990929859,1,1,1,1,1,38.6482025,-75.44606,2016,DEH1
W10004_0216/PHZ51,NCH1_2015,Y,17.2,731.1212129,0,0,273,143,65,64,3.0140625,9.692856925,3.043308324,7.00027835,0,3.411347986,2.886716411,10.31533332,6.56176467,96.44999999,67.84999847,47.46470581,233.8535261,0,30.12176424,80.44058821,53.94764695,203.4147048,18.56641886,18.5514961,20.38733283,17.18369043,24.39251002,21.03629604,20.30189304,17.27178406,15.58503138,22.38312501,24.94999995,23.18034629,27.40244989,31.82117664,31.76743482,33.30845927,33.22968591,31.16039845,8.592187501,12.50999982,10.48535005,18.40286831,19.92058833,21.46261411,22.34001137,22.61282364,21.92468694,9.285127697,11.46773529,10.15801447,14.99239002,17.87088248,18.60652477,19.71826945,19.84422869,18.53531879,0.955334819,1,0.995809598,1,1,1,1,1,35.29657708,-77.5664625,2015,NCH1
CG44/CGR01,IAH4_2019,Y,28.9,688.9658965,2.25,1,237.5,123.5,58.5,57.25,7.44874995,0,6.508814674,5.652572602,2.433809479,0.731547632,2.455795253,7.856419535,5.758725846,238.3599984,0,89.12928634,169.456428,4.779285618,8.60571444,106.5300014,62.81714391,173.1250012,18.61457558,24.25652275,18.80062453,19.64217675,17.01762246,21.29967345,16.82875041,12.82062273,10.73648339,20.72718754,29.98400002,24.57226332,29.58102216,28.11761892,27.58625519,26.21902431,25.70162766,18.66579105,8.655312385,16.39199963,13.30590142,18.52555793,18.42333308,15.4118289,14.78252205,14.57801647,7.354403302,8.719182336,15.28713381,11.55896644,16.12377034,15.4195504,13.79277779,12.9189296,12.78184671,8.051480754,0.866629464,1,1,1,1,0.996735112,0.969646609,0.721601517,42.03193798,-93.79333213,2019,IAH4
F42/OH43,MOH1_2016,N,18.25,731.1212129,0.5,1.5,257.5,120,56,54.5,2.465483877,8.058000231,0.264259377,6.282521268,1.94553035,9.25680559,4.358907121,3.354664451,5.453130527,76.43000019,40.29000115,2.879999995,172.8372758,4.262727369,83.20363667,125.2090916,21.13363606,168.2240918,20.2309363,16.93509369,22.49829557,20.20959989,18.68177986,19.21408964,18.0090922,17.17714413,15.87534947,21.83193548,27.56600037,27.88644765,31.21215235,30.25795442,31.2505745,30.57423065,29.80077912,28.25339236,10.073871,16.74400005,16.26474463,19.86215984,19.98371223,20.49117413,20.76153791,19.91431794,17.56318368,9.497798547,14.24343349,14.21296425,17.47336946,17.12232598,17.8699151,17.65104862,16.90998551,15.09561117,0.937315665,1,1,1,1,1,1,0.999442641,38.8955475,-92.2072025,2016,MOH1
W10004_0216/PHZ51,INH1_2015,Y,13.9,736.2699538,0.5,5.5,281,124.5,66.5,66,2.968064535,5.608750075,2.401797478,2.620596579,1.049062505,3.048312443,3.454130844,1.332533481,1.484370975,92.01000059,44.8700006,26.44312483,85.12437463,1.715625018,30.48312443,116.5724995,9.316249996,45.68062523,19.44608656,13.59046638,21.88315593,21.65689439,20.60130358,19.73326552,18.77560381,17.99738388,15.64927463,15.67580632,21.0562501,27.44396829,29.52449332,32.66781175,30.16981242,28.17317586,28.46934151,25.5406298,3.004516139,13.05249977,15.22068343,16.62214482,19.56843758,18.02818774,16.71489706,16.46563638,12.56847521,5.360930658,9.9438759,13.725819,15.26696414,18.11812466,16.1828721,14.63810214,14.67667849,11.95902497,0.609504607,1,1,1,1,1,1,0.986081101,40.477075,-87.000205,2015,INH1
W10004_0216/PHZ51,INH1_2016,N,16.2,722.1109162,21.5,11,287.5,138.5,65.5,64.5,3.034516148,1.382857186,3.106568823,3.966270256,3.500454469,6.752636371,3.451172643,3.198528118,3.024422797,94.07000059,9.680000305,31.26000059,138.8759105,3.500454469,67.52636371,113.8927274,21.6654544,92.62590972,17.63328649,23.97511796,20.66441577,20.1236558,19.9706746,19.39149484,18.14527656,15.98533716,14.62820237,18.74516109,26.31142807,27.84898846,28.12893417,28.20272714,29.14504538,29.16779001,27.95564941,27.07739093,7.950322636,11.69428553,16.31817922,16.10606538,16.8522731,18.34872752,18.58889605,17.50284626,15.03841012,7.677100472,11.91689015,14.24288378,14.4184555,14.68521604,15.7994256,15.9329094,14.92238151,13.51734692,0.852649763,1,1,1,1,1,1,0.996102814,40.4787595,-86.98982,2016,INH1
B14A/MO17,WIH2_2020,N,25.4125,679.151109,19.875,4.625,271.125,151.625,74.375,72.625,1.142258063,7.375000167,3.772605813,4.528143625,15.91411821,3.015240613,2.848395651,6.559665308,3.073983535,35.40999997,73.75000167,42.96999988,163.850588,31.01764819,33.16764674,117.7699986,59.84176376,94.45823468,20.73953056,16.04352899,21.23354675,21.58093245,19.01370295,17.88573252,19.32013515,13.57540027,12.27254504,13.56999995,18.91099977,26.0938683,28.2322475,29.46647072,27.75422455,27.09322103,24.80509675,19.00189054,0.762580661,9.396999884,13.99892158,14.99589118,17.7452939,17.49807463,14.22893102,13.29211059,7.459399134,4.176897214,8.107987139,12.68677404,14.02444379,15.66411489,14.70790633,13.20588953,12.26960615,7.833960257,0.443168195,0.881928567,1,1,1,0.990384734,0.880973437,0.780679991,43.294786,-89.383968,2020,WIH2
LH198/PHZ51,NYH3_2015,N,17.7,731.1212129,0,7.5,260,134,74,74.5,4.268387075,0,1.234803629,3.315485905,3.744705864,3.708743319,2.034738589,2.091907533,2.160160663,132.3199993,0,17.66999944,111.4647067,9.843529393,38.42352946,75.35117763,21.49235322,65.37235311,20.95885717,21.76160183,22.01003167,20.47654391,19.37507164,18.84800849,18.09954582,14.25866518,12.17165493,15.21516129,28.41399994,23.9726608,27.94852153,28.22411762,29.00645443,26.88612691,22.65429039,19.02039094,3.206451565,16.00799999,11.62235867,15.61032629,16.7502941,17.72633694,14.88804443,11.60832066,7.356588233,5.349626667,14.38734971,10.95773449,14.17183136,14.61937489,15.41213998,13.31670354,10.34569698,7.707711279,0.504331792,1,0.97267375,0.996219796,1,0.995345527,0.95775528,0.812032548,42.7233625,-76.6555945,2015,NYH3
F42/H95,TXH2_2020,N,14.075,774.5637145,0,2,205.74,73.025,68,72,2.284333333,0,4.621906019,2.982124861,1.655000005,6.689114015,2.894056698,2.615892851,2.528400138,68.53,0,55.88714266,111.3664289,1.655000005,70.91857161,82.98143064,12.87071426,76.16571382,13.91343843,13.3863348,15.08661116,19.80328892,19.03358821,19.2160028,19.61198116,21.5690046,17.9190584,20.02266652,27.17999992,26.59088772,26.49063582,29.80749984,29.13094588,32.17534358,33.00407163,34.57616138,6.794333295,17.20400028,15.22554111,13.60666406,17.96904786,16.63267817,20.78659354,19.79317827,24.13923583,7.901247141,14.27292515,13.36557264,12.73068931,16.08957262,15.12192719,18.39831967,18.39239984,20.46927813,0.821357143,1,0.992404768,0.99375244,1,1,1,0.999043315,30.53825625,-96.42790225,2020,TXH2
CG108/CGR03,WIH2_2015,Y,22.85,754.9341397,0,0,246,136.5,65,64,3.126774188,2.655000041,4.103605878,5.336067251,1.868823528,3.142847566,3.066358713,6.463272165,3.426278957,96.92999983,15.93000025,53.58117651,186.0694135,5.435882344,36.03705852,132.4747064,52.80117733,103.4994124,19.63646212,20.57311455,21.5892617,21.07111177,18.36300238,19.20517036,18.54583572,13.68038168,11.37476292,15.6409678,24.97666677,26.11823115,28.09529077,27.51588227,27.91298604,26.4469062,23.95331443,17.63645543,3.355806466,13.62666686,13.88922494,15.17788174,17.2276475,16.92946091,13.73434519,12.63733902,6.343913375,5.370860554,11.93138906,12.65256426,14.04290221,14.43586033,14.57588984,12.76646014,11.49482956,7.023163717,0.588214292,1,1,1,1,0.979783322,0.914260835,0.715230077,43.3264485,-89.33359975,2015,WIH2
2369/LH123HT,NYH1_2019,N,24.8,715.0313974,1,0.5,267,154.8333334,64,63.5,3.742499989,3.13750004,5.753824184,3.193184694,5.054999975,4.679644987,3.141734315,2.115619262,4.095645999,119.7599996,25.10000032,83.05615347,110.7876916,10.59692295,60.83538484,169.67846,49.66846142,126.1984601,19.31204623,22.90652502,19.40556432,20.09548462,19.54416251,18.43271946,14.78687504,11.82668111,8.218362691,18.69937494,22.85875034,22.9010546,27.51683221,28.25012823,26.24284011,22.02988517,19.80082275,11.00573521,7.845625035,10.06374997,12.28813039,16.10263177,16.07333343,14.39934908,10.67406786,8.357505336,1.635690852,7.6395284,9.775213808,10.49055945,14.05854059,14.39300596,12.73828549,9.762895495,8.676471021,3.980466677,0.838560269,0.991875008,1,1,1,0.934962266,0.800347462,0.399612352,42.7288875,-76.65152084,2019,NYH1
PHG29/PHG47,WIH1_2016,Y,17.85,794.1932893,0,2,254.5,133,68.5,68,2.076129018,1.94750002,4.430291291,4.068377178,0.606590927,8.204471101,6.520888551,7.285801826,4.413191112,64.35999957,23.37000024,50.66818307,153.9786358,1.017727305,87.41727302,222.4604529,58.95590957,134.9268184,19.92805462,20.9108026,19.53546339,20.65690042,18.97296773,19.76360502,17.50876714,15.21370917,12.23883056,16.70258062,17.57583312,27.08182728,26.49130857,27.22159082,28.35833875,27.6700069,25.1458901,22.98674642,3.327419363,4.990833327,14.04723809,14.47423798,17.58636334,16.7186736,17.17399145,14.32051147,12.5735533,5.875866612,6.419508974,12.98865398,12.92924289,14.50224274,14.72651534,14.55658067,12.23924581,10.7486024,0.621198161,0.7653869,1,1,1,0.999967803,0.998306277,0.970976554,43.05632525,-89.53194975,2016,WIH1
TX714/TX779,TXH3_2020,N,9.57,1255.327399,0,2,243.84,113.665,64.5,63,3.45875001,5.345714297,0.996479651,4.090893152,11.37176514,0.055555557,3.334418123,0.880352915,2.226110039,110.6800003,37.42000008,12.08058808,124.9758839,22.74353027,0.450000013,88.32823513,3.714117541,69.00941121,15.8034201,18.34009743,21.30541133,19.40762275,20.16580067,20.62125497,19.02899565,16.94703156,18.75160362,25.77062485,24.00285694,27.63577502,29.95402965,30.19186265,32.38063702,33.36328143,35.03835301,35.63206825,14.19906271,12.24428552,13.92062761,17.60156859,18.33921522,21.14142164,21.88591696,25.71364726,24.34760913,12.60372436,11.20425028,13.29865333,15.96364287,16.27361839,18.69618421,19.4144726,21.47019646,20.81901077,0.989866069,1,1,1,1,0.99995416,0.999321567,0.998827006,30.53869475,-96.4274175,2020,TXH3
PHG39/PHN82,NYH3_2018,N,23.66,686.9707593,0,2,202,99,72,70.5,4.152903213,0.855714253,1.333281551,1.973054112,19.58384622,4.14286014,1.827699262,3.76173812,1.90156246,128.7399996,5.989999771,17.49230713,69.9676929,40.09153858,44.76538462,69.41461665,34.65000019,57.30153882,20.64383799,23.73438372,20.91517994,21.34827616,15.57480097,18.28181198,18.59806785,13.9987834,13.21485935,12.82806446,24.72714315,24.74142799,27.59651287,28.68307664,28.50629367,27.06434367,24.34345721,20.06623908,1.452258048,10.48999977,13.10088293,14.82547593,19.13846159,17.45270631,15.13507682,13.07327349,8.10410419,4.113027627,10.74522894,11.82730489,13.73068126,15.93834835,15.05075648,13.50240047,11.64767513,8.352187515,0.351670502,1,0.973040659,0.995029228,1,0.992439429,0.946636381,0.843044516,42.7261605,-76.6556765,2018,NYH3
B14A/OH43,INH1_2019,Y,29.255,838.1506651,0,2.5,239.75,133.25,62.5,61,4.638124973,1.291666667,4.254883356,1.873002707,7.542143106,0.579848493,2.745608418,1.194209184,2.037834084,148.4199991,7.75,53.11714339,53.83785783,14.64785763,6.669285808,98.22214476,12.45785718,61.58714233,19.82387961,19.183822,19.33565513,20.5079362,16.64856858,22.30931036,17.46113557,15.79330395,12.43542766,23.34687504,26.15000025,24.44131608,31.06458042,27.9682139,28.43625549,27.60941131,25.59340811,22.91422815,11.29093746,15.88166634,14.27159151,19.40569109,18.2715475,15.1189393,15.69895629,13.38685715,10.33005226,10.62626718,13.2428989,11.86638398,17.27971266,15.26406297,14.09359416,13.93027737,12.23653025,10.46761426,0.918526784,1,1,1,1,0.999060374,0.966691327,0.86252861,40.477063,-87.00020175,2019,INH1
LH82/PHB47,DEH1_2016,N,17.8,718.2493605,0,13,222.5,92.5,77.5,79,2.701875035,7.431818214,3.891344367,3.01543569,5.358105985,2.453055546,7.028031294,2.624318106,3.1968602,86.46000111,81.75000036,66.39499953,101.6163622,13.33454524,24.02227264,188.3231781,15.05272682,98.58045408,18.33047433,10.1000462,19.40971708,21.02938559,18.25055452,17.64652011,18.94468483,17.7865103,16.44449792,18.09,16.60090897,19.90208421,27.67646738,27.79681775,28.9030859,31.91379825,31.21812112,30.57169607,5.529687506,9.93090907,10.11289786,16.8589893,18.02106052,19.78800518,21.90881045,21.62957593,20.16127331,6.825577378,7.645605865,8.606637786,14.43603228,14.98401645,16.37610101,18.85541374,18.37748956,17.3477875,0.726328134,0.729318176,0.990929859,1,1,1,1,1,38.6482025,-75.44606,2016,DEH1
LH74/PHN82,KSH1_2018,N,15.9,784.8611964,29.75,5,229,110,65,64,0.123225804,1.309000027,2.835063753,1.245921432,6.190769489,0.847777789,5.121826591,3.691923017,0.576771715,3.819999933,13.09000027,33.35999966,37.39923182,6.190769489,7.630000105,140.8584615,22.1515381,17.82230777,23.1370286,19.20606413,23.76917973,25.01946837,21.72317813,23.99633906,18.76579115,18.12170014,19.24157322,22.75709664,20.771,27.08892973,34.13484851,36.79923102,35.27700868,33.17677556,30.51957897,31.48973893,3.915806478,6.778999925,10.75682887,16.60383588,18.26846137,18.37008543,18.87125761,16.15291204,15.043086,8.255034949,8.267600828,11.90551203,16.73972083,17.84021903,17.73256873,17.54545708,15.43757555,15.43621363,0.847615199,0.789999991,1,1,1,1,1,0.970122947,37.810107,-100.775188,2018,KSH1
B73/PHN82,NYH3_2019,N,21.6,675.1286552,0,1,217,109.5,79,78,3.722580618,3.873333404,3.769554008,3.757958966,6.56821411,3.88506864,3.604603585,1.929858492,3.709694332,115.3999992,34.86000064,61.04857108,135.2235714,13.13642822,47.6607138,172.5314276,35.27499978,112.0914282,17.9818517,20.79040337,20.53458356,20.20586531,15.56107187,20.47665645,15.7702462,13.42945136,8.802352299,16.21290321,21.91111098,21.5613082,26.8770008,26.27928579,27.19863099,23.33754175,19.77308355,13.39834902,5.322258069,10.30000003,10.31609792,15.50927174,17.62488075,14.92700095,12.00041282,8.027538821,3.378330702,6.134411308,9.414033746,9.318517767,13.52970479,14.11503311,13.40897889,10.69134109,8.327220554,5.109082433,0.665391704,1,0.983452189,1,1,0.970435943,0.837841689,0.510564168,42.7321756,-76.65345463,2019,NYH3
B73/PHN82,MIH1_2019,N,28.6,680.2773961,1,15,248.5,139,72,70.5,3.720322615,6.189999878,7.0818969,2.961916884,8.70871786,0.913986013,1.817216317,4.468053866,4.013250907,115.3300011,49.51999903,106.8900002,93.8269235,16.81999984,10.80615383,84.36076873,63.3192304,120.886153,19.31986936,19.65939665,18.51979106,21.00444556,17.01540622,20.04742627,16.96863927,12.02893287,10.87568864,17.60709666,21.67250037,22.690749,28.9340566,30.56538516,27.94921954,26.00654686,21.50260694,17.46530245,6.210322559,10.31875008,12.21847794,16.86604701,18.743333,15.85306519,14.00590995,11.32576155,7.161163464,6.876773896,9.314382636,10.39761731,15.10453275,16.86261297,14.19391073,12.58553183,10.00606366,7.511656803,0.696382483,1,0.995173883,1,1,0.988904737,0.895422602,0.709438731,42.70789125,-84.4706665,2019,MIH1
B37/MO17,IAH1_2020,Y,15.11666667,731.1212129,12.66666667,2.333333333,229,110,65,64,1.688064506,6.196000195,3.0793737,6.533057926,1.271428551,2.673269776,1.85421064,0.708456624,3.755616013,52.32999969,61.96000195,37.23499918,213.6221428,2.198571375,25.9085708,60.11785651,6.012142782,115.3728583,19.46953177,15.04660187,20.64247086,20.31598349,21.99207742,21.09552252,19.7297914,19.80455556,15.11692591,15.87290319,18.70700045,25.72176895,28.50674309,31.92999949,30.87921407,28.61147391,29.37327705,24.63079501,3.348387095,9.753000152,14.65929334,17.38633346,19.85714286,19.28849194,17.27261165,15.46819038,11.83183106,5.5584858,8.125456457,12.65757338,15.09801966,17.89357117,17.09078834,15.12121856,14.7539709,11.47694483,0.621440085,0.927035726,1,1,1,0.998514142,0.992713009,0.918334154,41.19774214,-91.48767072,2020,IAH1
B73/DK3IIH6,MOH1_2017,Y,17.7,731.1212129,0,2,229,110,65,64,8.937741737,9.40166688,2.512230721,3.318030003,5.035714369,1.794490762,1.996986524,1.220079397,1.67255761,277.0699939,56.41000128,33.26619119,103.9014299,11.93095259,15.87761924,65.30142803,7.334762096,51.25476209,18.72482054,18.08832916,22.62422694,21.00800173,18.77514496,19.93438148,19.70533138,19.36646121,17.34329115,21.92032254,25.32999992,25.47495036,29.30087203,30.46650729,32.25412016,29.92026774,28.22145964,28.04827898,10.06000005,15.27666648,12.99827088,17.39768618,19.78222205,21.21359122,18.70404881,16.33857143,14.9717184,9.612847321,12.76903024,11.94928206,15.49761919,17.12130987,18.67277384,16.20463701,14.48208578,13.92850008,0.915472353,1,1,1,1,1,1,0.999239796,38.89264,-92.2057525,2017,MOH1
CG44/CGR01,NYH1_2017,N,15.05,731.1212129,0,4.5,206,85,66,65.5,4.758709581,4.139999986,2.953024942,5.715506232,4.320872878,2.701732063,2.616328443,1.022630585,3.614268439,147.519997,37.25999987,45.12618999,219.9223815,11.26857107,35.6957141,128.4247627,13.30476207,110.8900009,18.97444351,17.81005277,22.0763727,19.38397475,18.56141379,19.22534974,16.71382568,13.43506643,9.037548332,17.06967752,20.23333359,22.7745171,25.66488699,26.70396817,25.32691524,23.26007272,23.96840526,17.61119819,5.964193534,10.19,10.93717632,15.20362294,16.36293638,14.60656728,11.31793404,11.56685323,6.669544781,6.641127344,8.727253675,10.15270493,12.79474615,13.71935226,12.37567782,10.45035179,10.9124923,7.239151369,0.685760371,1,1,1,1,0.982493678,0.953634339,0.701363064,42.72880835,-76.6515625,2017,NYH1
W10001_0022/PHB47,NEH1_2015,N,14.45,794.1932893,0,2,225,105,65,51.5,2.959062506,0.753999996,4.745632833,2.187040691,0.179999996,3.601448917,1.548000793,0.057812502,1.589214364,94.69000018,3.769999981,46.84999943,63.50812512,0.239999995,39.12187557,55.49499987,0.586250016,47.85812447,19.07194562,25.84699936,20.00593662,19.96245842,20.96463704,17.86296284,18.31175333,17.30405645,12.3794141,23.74906254,30.51399994,29.13009987,30.74148671,30.73750019,28.43858622,29.13031746,26.88374984,20.12342532,13.19218739,15.46999989,18.04036499,19.18092822,19.11281252,17.33248289,15.92131484,11.1533021,6.525200269,11.64481375,15.25955733,15.68336601,16.96891106,16.93845514,15.07345461,14.95183393,12.01070089,8.15887847,0.924598212,1,1,1,1,0.96969665,0.982957588,0.758540943,41.290979,-96.41664325,2015,NEH1
F42/OH43,WIH2_2019,N,30.2,654.5336914,16,20,248.7499998,110.4166668,65,64.75,5.084687524,1.186666648,3.682690384,5.868440751,0.695238091,4.73009737,4.315774648,4.395502279,4.547947068,162.7100008,7.119999886,58.08928529,183.8007161,1.222857135,55.05428533,207.5435701,59.53000056,136.8792876,20.51840827,23.10255337,19.84622659,19.54978709,22.13574316,19.04821964,14.90817086,12.98397937,9.337872891,18.93468753,26.85500018,22.80729416,28.92841129,27.86750015,27.53142967,23.33864799,22.30785619,12.19546616,7.173437506,12.79833317,11.75963315,17.3057567,14.67845241,15.42498763,12.56161555,11.34993986,2.687473085,7.568173943,12.44054354,10.32084191,15.24419851,13.63574066,13.78240318,10.8770868,10.55092288,4.713570865,0.808549105,1,0.995612408,1,1,0.966295589,0.875965566,0.450550638,43.320768,-89.33189475,2019,WIH2
B73/MO17,ILH1_2018,Y,17.65,729.190435,0,2,250,127.5,61,58.5,4.93870967,7.677000022,2.588106254,5.605117571,0.281428576,3.456349163,4.202656593,1.004543384,2.183824858,153.0999998,76.77000022,33.4678576,176.7721435,0.281428576,32.73642816,135.7042854,6.586428666,67.2342849,18.91812334,19.3164753,20.10278531,22.12028957,18.91592986,20.16297878,19.11980649,19.09856314,16.2127272,15.99580652,18.50399971,25.32625123,29.19453127,30.85535676,31.83740471,28.20358558,28.86124239,26.43877647,3.618387117,7.573000085,14.94700907,16.75211974,20.46500043,20.0205478,17.14982155,16.71822788,13.95248539,5.629456993,7.587936205,12.64486739,15.17263993,17.66017859,17.94105007,14.82889519,14.97382886,12.85823928,0.640783421,0.72660713,1,1,1,1,1,0.984431123,40.06300125,-88.2291765,2018,ILH1
B37/MO17,NYH2_2020,N,16.15,682.208174,0.5,13,243,106.5,70,69,4.422257993,0,1.391731236,3.182357247,6.170888774,3.507901041,2.283490724,1.426918664,2.172175634,137.0899978,0,18.68266731,113.2706661,12.6093331,36.98266699,88.46933366,18.14666667,65.61600019,20.94267544,21.78244971,21.55666085,20.64321436,19.27786447,18.92984529,17.76882093,13.77968924,11.70490539,14.55447306,27.94977782,23.62933928,27.86541297,27.88688897,28.78672537,26.53302948,21.56675493,18.20507674,2.61195699,15.66431106,11.35573055,15.51025755,16.31100023,17.48208292,14.53826355,10.86377734,6.879177126,4.979415324,14.02697238,10.70801105,14.09392345,14.22879085,15.20067311,13.04971037,9.749522427,7.387680802,0.470065285,1,0.969822941,0.995242037,1,0.988859641,0.904446401,0.765938608,42.73230075,-76.65036275,2020,NYH2
CG44/CGR01,MOH1_1_2018,N,17.6,731.1212129,0,2,238,128.5,57.5,56,4.419032262,0.120000001,6.56660792,4.995913726,0,0.865952386,4.867908623,7.318145406,3.629241153,136.9900001,0.840000004,71.60142667,150.6285707,0,7.793571472,145.6157139,39.85928573,112.0157138,18.39395777,18.46565301,20.1607481,20.70593221,19.87326009,21.97749135,18.06982858,17.46468943,16.31914076,19.5254839,22.76714298,27.16554273,29.60936822,31.6271427,32.32420578,29.51628185,29.85375934,27.04843165,7.99741943,14.14714282,16.43732974,18.81172612,21.79964249,20.71007941,19.44316189,19.21155699,15.91814144,7.992986492,11.1555316,14.00535673,16.26359619,18.7133926,18.51714259,16.54699664,16.60044059,13.86670431,0.872361758,1,1,1,1,1,1,0.995607144,38.89791675,-92.20952075,2018,MOH1
PHG39/TX205,NCH1_2015,Y,17.6,731.1212129,0,0,220,111.5,65,64,3.0140625,9.692856925,3.043308324,7.00027835,0,3.411347986,2.886716411,10.31533332,6.56176467,96.44999999,67.84999847,47.46470581,233.8535261,0,30.12176424,80.44058821,53.94764695,203.4147048,18.56641886,18.5514961,20.38733283,17.18369043,24.39251002,21.03629604,20.30189304,17.27178406,15.58503138,22.38312501,24.94999995,23.18034629,27.40244989,31.82117664,31.76743482,33.30845927,33.22968591,31.16039845,8.592187501,12.50999982,10.48535005,18.40286831,19.92058833,21.46261411,22.34001137,22.61282364,21.92468694,9.285127697,11.46773529,10.15801447,14.99239002,17.87088248,18.60652477,19.71826945,19.84422869,18.53531879,0.955334819,1,0.995809598,1,1,1,1,1,35.29657708,-77.5664625,2015,NCH1
B14A/OH43,IAH4_2019,Y,29.95,646.1669874,7,2.75,262.75,129,59.5,59,7.44874995,0,6.508814674,5.652572602,2.433809479,0.731547632,2.455795253,7.856419535,5.758725846,238.3599984,0,89.12928634,169.456428,4.779285618,8.60571444,106.5300014,62.81714391,173.1250012,18.61457558,24.25652275,18.80062453,19.64217675,17.01762246,21.29967345,16.82875041,12.82062273,10.73648339,20.72718754,29.98400002,24.57226332,29.58102216,28.11761892,27.58625519,26.21902431,25.70162766,18.66579105,8.655312385,16.39199963,13.30590142,18.52555793,18.42333308,15.4118289,14.78252205,14.57801647,7.354403302,8.719182336,15.28713381,11.55896644,16.12377034,15.4195504,13.79277779,12.9189296,12.78184671,8.051480754,0.866629464,1,1,1,1,0.996735112,0.969646609,0.721601517,42.03193798,-93.79333213,2019,IAH4
B14A/H95,TXH1_2016,N,10.45,731.1212129,0,2,208.5,88,73,73,1.633666698,16.13999993,0.99702422,4.719865603,0.129393939,3.277272727,13.06232457,0.703636358,1.017125621,49.01000094,112.9799995,14.5313639,177.3549991,0.33090909,36.05,378.0672674,3.179999969,30.53454577,13.9726292,10.72874144,17.88940951,17.80076093,20.55685321,19.77792414,17.90480363,20.8338604,20.14326093,22.32500016,23.95000022,24.48309256,26.40498513,28.5388636,28.63545455,30.12870319,34.35404525,35.58838723,6.034666632,13.33571414,9.675379644,13.12758779,15.78530267,16.33764454,20.13902853,23.08186362,24.00118421,8.473379033,11.29783551,10.5045992,12.46111665,14.43681279,14.72204148,17.12368238,20.53225114,20.87599038,0.915869048,1,0.972225207,1,1,1,1,1,30.54708625,-96.43393475,2016,TXH1
PHG39/PHN82,WIH1_2016,Y,24.55,774.8855108,0,2,264,143.5,74.5,74,2.076129018,1.94750002,4.430291291,4.068377178,0.606590927,8.204471101,6.520888551,7.285801826,4.413191112,64.35999957,23.37000024,50.66818307,153.9786358,1.017727305,87.41727302,222.4604529,58.95590957,134.9268184,19.92805462,20.9108026,19.53546339,20.65690042,18.97296773,19.76360502,17.50876714,15.21370917,12.23883056,16.70258062,17.57583312,27.08182728,26.49130857,27.22159082,28.35833875,27.6700069,25.1458901,22.98674642,3.327419363,4.990833327,14.04723809,14.47423798,17.58636334,16.7186736,17.17399145,14.32051147,12.5735533,5.875866612,6.419508974,12.98865398,12.92924289,14.50224274,14.72651534,14.55658067,12.23924581,10.7486024,0.621198161,0.7653869,1,1,1,0.999967803,0.998306277,0.970976554,43.05632525,-89.53194975,2016,WIH1
F42/OH43,GAH2_2019,Y,12.08,750.1715543,0,1.8,222.2,103.2,62.6,61.4,1.545000002,4.557500124,0.250380961,1.26115813,2.257142884,9.485350662,1.336144097,0.813952387,3.350460841,49.44000006,36.46000099,3.755714417,38.36428595,2.257142884,98.62571442,36.52428579,4.78428575,103.8642861,18.18435833,18.19265985,22.8847832,21.24247432,23.3434718,16.19739035,20.40643492,19.78647718,19.94823177,21.36937484,23.13125002,27.34691779,30.77499698,32.53285762,28.60028574,32.70957317,33.58714258,33.18838734,7.029687526,9.771250069,11.28150206,17.20030934,17.5714283,19.08651926,20.35438482,22.40104739,20.7990781,8.377064876,9.945548605,12.20340126,16.01551644,17.09277291,15.89283108,18.47046504,19.81563867,18.90725155,0.94271205,0.94334821,1,1,1,1,1,1,33.7204165,-83.308125,2019,GAH2
TX777/LH195,NYH3_2015,N,20.4,731.1212129,0,2,248.5,130.5,82.5,82,4.268387075,0,1.234803629,3.315485905,3.744705864,3.708743319,2.034738589,2.091907533,2.160160663,132.3199993,0,17.66999944,111.4647067,9.843529393,38.42352946,75.35117763,21.49235322,65.37235311,20.95885717,21.76160183,22.01003167,20.47654391,19.37507164,18.84800849,18.09954582,14.25866518,12.17165493,15.21516129,28.41399994,23.9726608,27.94852153,28.22411762,29.00645443,26.88612691,22.65429039,19.02039094,3.206451565,16.00799999,11.62235867,15.61032629,16.7502941,17.72633694,14.88804443,11.60832066,7.356588233,5.349626667,14.38734971,10.95773449,14.17183136,14.61937489,15.41213998,13.31670354,10.34569698,7.707711279,0.504331792,1,0.97267375,0.996219796,1,0.995345527,0.95775528,0.812032548,42.7233625,-76.6555945,2015,NYH3
CG119/CG108,OHH1_2016,N,12.9,710.5262491,0,2,212,107,65,64,4.328064465,1.776000023,3.915145208,2.580740659,3.890757626,4.17049496,5.079069289,3.957741935,3.614594814,134.1699984,8.880000114,44.70363614,85.9177286,9.330454675,39.94818193,160.1854537,27.69772666,110.1186362,18.3437644,22.24283047,20.73146956,20.35982518,19.15233416,18.82824642,16.72048491,17.98730955,14.71797893,19.63580645,29.63200035,26.56953589,28.59263588,29.59106055,30.69283836,29.21689182,28.27188687,26.30588322,8.120967747,16.89599972,14.9739129,16.70528562,18.30318191,19.74443426,18.9160149,15.44500838,13.40262461,8.117657052,15.32722009,13.17028057,14.81678154,15.96857054,17.23303236,16.11713161,14.21502474,12.5845871,0.859331788,1,1,1,1,1,0.999172078,0.989049277,39.860924,-83.6755995,2016,OHH1
2369/LH123HT,TXH2_2020,N,13.8,746.2456394,0,2,195.58,66.04,67.5,69.25,2.284333333,0,4.621906019,2.982124861,1.655000005,6.689114015,2.894056698,2.615892851,2.528400138,68.53,0,55.88714266,111.3664289,1.655000005,70.91857161,82.98143064,12.87071426,76.16571382,13.91343843,13.3863348,15.08661116,19.80328892,19.03358821,19.2160028,19.61198116,21.5690046,17.9190584,20.02266652,27.17999992,26.59088772,26.49063582,29.80749984,29.13094588,32.17534358,33.00407163,34.57616138,6.794333295,17.20400028,15.22554111,13.60666406,17.96904786,16.63267817,20.78659354,19.79317827,24.13923583,7.901247141,14.27292515,13.36557264,12.73068931,16.08957262,15.12192719,18.39831967,18.39239984,20.46927813,0.821357143,1,0.992404768,0.99375244,1,1,1,0.999043315,30.53825625,-96.42790225,2020,TXH2
LH195/PHZ51,MOH1_2017,Y,16.95,731.1212129,1,3,255,123,64.5,63.5,8.937741737,9.40166688,2.512230721,3.318030003,5.035714369,1.794490762,1.996986524,1.220079397,1.67255761,277.0699939,56.41000128,33.26619119,103.9014299,11.93095259,15.87761924,65.30142803,7.334762096,51.25476209,18.72482054,18.08832916,22.62422694,21.00800173,18.77514496,19.93438148,19.70533138,19.36646121,17.34329115,21.92032254,25.32999992,25.47495036,29.30087203,30.46650729,32.25412016,29.92026774,28.22145964,28.04827898,10.06000005,15.27666648,12.99827088,17.39768618,19.78222205,21.21359122,18.70404881,16.33857143,14.9717184,9.612847321,12.76903024,11.94928206,15.49761919,17.12130987,18.67277384,16.20463701,14.48208578,13.92850008,0.915472353,1,1,1,1,1,1,0.999239796,38.89264,-92.2057525,2017,MOH1
PHW52/PHM49,MIH1_2019,Y,19,722.1109162,1,12,222.75,119.25,65.5,64,3.720322615,6.189999878,7.0818969,2.961916884,8.70871786,0.913986013,1.817216317,4.468053866,4.013250907,115.3300011,49.51999903,106.8900002,93.8269235,16.81999984,10.80615383,84.36076873,63.3192304,120.886153,19.31986936,19.65939665,18.51979106,21.00444556,17.01540622,20.04742627,16.96863927,12.02893287,10.87568864,17.60709666,21.67250037,22.690749,28.9340566,30.56538516,27.94921954,26.00654686,21.50260694,17.46530245,6.210322559,10.31875008,12.21847794,16.86604701,18.743333,15.85306519,14.00590995,11.32576155,7.161163464,6.876773896,9.314382636,10.39761731,15.10453275,16.86261297,14.19391073,12.58553183,10.00606366,7.511656803,0.696382483,1,0.995173883,1,1,0.988904737,0.895422602,0.709438731,42.70789125,-84.4706665,2019,MIH1
F42/MO17,ONH2_2017,N,23.2,864.9884772,0.5,5.5,246,114,41,38,3.566774253,5.816000056,0.640467161,2.602850346,0.276190468,0.553043346,1.774150425,1.832219351,2.40528059,110.5700018,58.16000056,8.999047586,96.02571482,0.552380936,6.918571438,78.70857161,24.06619065,72.98142847,18.8542372,16.74867072,24.21291039,19.37094181,21.19715784,20.84705237,17.61151759,14.253685,9.927824707,15.7532257,18.68899984,23.40262829,26.34974997,26.59380949,26.86065013,24.57225317,22.91748616,20.00596815,5.764838726,10.96000004,12.03359118,16.18007827,16.63301581,15.91920336,13.14574071,11.27177775,10.10650586,6.141928302,8.38660306,10.68394655,13.52521671,13.7753985,13.64998718,11.58821465,10.41552723,9.107414304,0.598502303,0.966571423,1,1,1,0.999084662,0.956230826,0.8300025,42.45293025,-81.8827315,2017,ONH2
B14A/H95,NYH1_2017,Y,17.7,731.1212129,0,2,229,110,65,64,4.758709581,4.139999986,2.953024942,5.715506232,4.320872878,2.701732063,2.616328443,1.022630585,3.614268439,147.519997,37.25999987,45.12618999,219.9223815,11.26857107,35.6957141,128.4247627,13.30476207,110.8900009,18.97444351,17.81005277,22.0763727,19.38397475,18.56141379,19.22534974,16.71382568,13.43506643,9.037548332,17.06967752,20.23333359,22.7745171,25.66488699,26.70396817,25.32691524,23.26007272,23.96840526,17.61119819,5.964193534,10.19,10.93717632,15.20362294,16.36293638,14.60656728,11.31793404,11.56685323,6.669544781,6.641127344,8.727253675,10.15270493,12.79474615,13.71935226,12.37567782,10.45035179,10.9124923,7.239151369,0.685760371,1,1,1,1,0.982493678,0.953634339,0.701363064,42.72880835,-76.6515625,2017,NYH1
B14A/OH43,TXH2_2019,N,9.905,768.4431487,0,0,193.5,58.5,69.5,69,1.71448275,0.072857141,3.656594302,9.095434564,0.409285716,1.207678571,5.355850783,1.246142852,1.574419343,49.71999974,0.50999999,52.00785631,328.2121388,0.592857139,9.661428571,146.4478573,6.531428533,47.51499965,15.42805705,20.52131135,18.76898834,18.57032559,21.42349659,18.85281525,20.14881361,21.03072751,19.84089234,18.45000007,25.76428577,24.43254944,27.27586732,31.09000002,32.37866099,32.72435205,34.04471448,34.98200776,6.826206914,10.35000004,10.67963154,14.78766739,18.65857179,21.85071427,21.02442735,21.79614282,22.6049739,7.457816468,11.1589152,10.85119479,13.46630403,16.91193677,19.11412105,18.84765314,19.77807102,20.01419559,0.749667494,1,0.945308164,1,1,1,1,0.999698925,30.546318,-96.4329965,2019,TXH2
B37/OH43,NYH3_2018,N,24.68,674.6781404,0.5,1.5,196,94,73,71,4.152903213,0.855714253,1.333281551,1.973054112,19.58384622,4.14286014,1.827699262,3.76173812,1.90156246,128.7399996,5.989999771,17.49230713,69.9676929,40.09153858,44.76538462,69.41461665,34.65000019,57.30153882,20.64383799,23.73438372,20.91517994,21.34827616,15.57480097,18.28181198,18.59806785,13.9987834,13.21485935,12.82806446,24.72714315,24.74142799,27.59651287,28.68307664,28.50629367,27.06434367,24.34345721,20.06623908,1.452258048,10.48999977,13.10088293,14.82547593,19.13846159,17.45270631,15.13507682,13.07327349,8.10410419,4.113027627,10.74522894,11.82730489,13.73068126,15.93834835,15.05075648,13.50240047,11.64767513,8.352187515,0.351670502,1,0.973040659,0.995029228,1,0.992439429,0.946636381,0.843044516,42.7261605,-76.6556765,2018,NYH3
PHG39/TX205,DEH1_2016,Y,24.5,653.8900988,0,1.5,283.5,130.5,79,79,2.701875035,7.431818214,3.891344367,3.01543569,5.358105985,2.453055546,7.028031294,2.624318106,3.1968602,86.46000111,81.75000036,66.39499953,101.6163622,13.33454524,24.02227264,188.3231781,15.05272682,98.58045408,18.33047433,10.1000462,19.40971708,21.02938559,18.25055452,17.64652011,18.94468483,17.7865103,16.44449792,18.09,16.60090897,19.90208421,27.67646738,27.79681775,28.9030859,31.91379825,31.21812112,30.57169607,5.529687506,9.93090907,10.11289786,16.8589893,18.02106052,19.78800518,21.90881045,21.62957593,20.16127331,6.825577378,7.645605865,8.606637786,14.43603228,14.98401645,16.37610101,18.85541374,18.37748956,17.3477875,0.726328134,0.729318176,0.990929859,1,1,1,1,1,38.6482025,-75.44606,2016,DEH1
LH195/PHN37,IAH3_2017,Y,18.725,752.0379729,0,2,229,110,65,64,4.153750014,4.476666673,3.404720357,2.207347727,0.783636364,2.628276904,1.892687593,2.328876272,1.794257086,132.9200004,67.1500001,54.03954627,78.33863542,1.567272728,28.02681865,71.85545488,19.05045461,54.69545453,16.14493189,17.75127989,18.89303832,22.07985964,20.54923199,20.99384486,19.81852315,17.22919489,15.64326955,15.84312499,15.5066665,21.42652578,27.714982,28.45522753,29.90074383,27.6545798,25.64720852,25.13760955,4.41906251,4.141333344,9.782295063,13.56526933,16.05901469,16.6123348,14.8096002,12.74600627,11.28191352,5.818880471,5.62230391,9.387130072,13.2881535,14.4256186,15.3843105,13.65871261,11.89796048,11.29223634,0.568604913,0.570380948,0.879734313,1,1,1,1,0.979205627,41.9758706,-92.24318881,2017,IAH3
PB80/PHZ51,NEH4_2015,N,14.4,796.1240672,0,2,275,145,65,55.5,2.821875036,0,3.668207424,2.0125769,1.951249957,2.654893884,1.684158262,0.190010425,1.166079967,90.30000114,0,33.89000034,59.04687595,1.951249957,28.04999942,59.1787506,1.401875056,35.09749981,18.84220009,27.31064491,20.41342533,20.52862815,19.03072298,18.81303122,18.33826559,17.15407273,12.68489203,24.01437524,30.79399948,29.66091772,30.90712841,30.81250072,28.65153035,29.50292414,26.73776808,20.93262179,13.35843744,15.59799976,18.4981335,19.26878801,20.26031268,17.34358901,16.24316685,11.04417556,7.09840123,11.80342709,15.44887437,16.14310254,17.09436255,17.53736601,15.18702607,15.25106182,11.88303257,8.618375536,0.931774556,1,1,1,1,0.97284651,0.984144349,0.784438609,41.16732275,-96.41663225,2015,NEH4
TX951/LH195,IAH1_2015,Y,28.95,698.941582,15.5,0.5,291,159,65,64,1.566451638,2.213076954,8.402418557,1.323463692,0.084411761,2.297359398,2.93999255,2.37101191,2.732793763,48.56000078,28.7700004,122.1399999,43.52999979,0.168823523,22.82352863,100.1182349,16.67000003,83.81294001,20.43214903,18.85811498,14.63317728,22.31276759,19.14227258,22.20806523,19.83862588,18.33763158,15.0581957,16.08774191,16.64538457,21.84697853,28.7334183,30.26852911,31.30747052,29.05105531,29.39636272,24.66946357,1.839032284,4.865384661,13.12892854,16.86768962,20.05941139,18.05705196,16.3929614,15.43749916,11.17229855,5.447129731,6.098188577,10.48240964,14.99632473,17.16639266,16.72884186,14.96924927,14.77137221,11.30644361,0.593087559,0.682994502,0.988452545,1,1,0.997626801,1,0.896934674,41.9980952,-93.69336973,2015,IAH1
B14A/MO17,OHH1_2018,N,16.85,476.2585366,0,2,217,109.5,67,66.5,3.056774178,9.537500136,1.922452157,2.385565957,3.342142727,1.8544286,3.625787622,3.100846839,2.007798001,94.75999951,76.30000108,21.73714328,80.43785755,3.342142727,18.544286,121.7649994,22.15357072,61.29071423,19.31095449,14.64635724,20.72885596,20.94366931,19.27592959,20.95649317,17.99811894,17.37176276,15.4204415,15.33419351,20.99500024,26.65036435,28.81994394,32.41071347,30.66092864,28.53085842,26.94730604,24.73435724,3.376129027,12.14624989,14.55931522,16.57316253,19.49428545,18.47499986,17.24720124,15.03980618,12.05347394,5.35712311,9.832246518,13.13485159,14.9051591,17.95401161,16.59941793,15.03822312,13.39555861,11.48513665,0.534285712,0.926785712,1,1,1,1,0.999125,0.970735544,39.85688825,-83.671225,2018,OHH1
PHP02/PHB47,COH1_2017,N,26.275,620.4232827,4,4.25,213,96.25,67,67,3.393124943,0,0.001708684,0.360843908,0.891428554,3.560382097,1.42287895,1.565670675,1.770870451,108.5799982,0,0.02904762,12.29476177,1.600476163,43.78523833,56.48285717,21.02523811,53.20285701,22.26802993,25.65694836,25.9931063,24.2875628,21.26982858,19.37652668,19.65631787,15.92591012,11.99136935,20.38624986,26.27857154,29.00990249,30.95750085,32.84396765,29.24597739,27.87075516,24.49812031,17.64004964,4.676250031,9.955714362,11.44166305,13.33492254,15.64190474,14.2894836,11.55992968,8.650869984,2.505724526,7.387813889,11.22152513,12.97827389,14.53136664,16.23032426,14.11586508,12.58015619,10.40568176,6.007000116,0.859799101,1,1,1,1,0.978368119,0.882220332,0.653649732,40.64850025,-104.9997825,2017,COH1
B73/DK3IIH6,ARH1_2016,N,15.15,805.7779564,0,2,175.5,115.5,69,67,12.62656226,6.052222146,7.859593922,4.411032368,3.769999921,0.095833332,1.834913509,2.950363528,2.931715563,404.0499923,54.46999931,101.1431819,160.496816,7.539999843,0.824999988,46.86636396,14.75181764,90.88318244,16.40757677,14.40289243,17.41332625,19.31399891,17.48165414,22.15918181,19.7781726,18.25208951,17.22596404,20.37124979,20.08666674,25.25253507,26.30445415,29.50681779,32.27019592,33.22074717,33.17606868,32.75999986,8.53968759,10.04999993,14.84655054,15.67568893,20.10318184,20.90335237,23.01320039,23.46584116,23.35664232,8.376579132,8.623890092,12.4075181,13.38568101,16.80499981,18.57005087,20.09384313,20.24603027,19.89808151,0.932198657,0.999841266,1,1,1,1,1,1,34.72952,-90.7603555,2016,ARH1
W10001_0022/PHB47,IAH3_2017,Y,17.7,731.1212129,0,2,229,110,65,64,4.153750014,4.476666673,3.404720357,2.207347727,0.783636364,2.628276904,1.892687593,2.328876272,1.794257086,132.9200004,67.1500001,54.03954627,78.33863542,1.567272728,28.02681865,71.85545488,19.05045461,54.69545453,16.14493189,17.75127989,18.89303832,22.07985964,20.54923199,20.99384486,19.81852315,17.22919489,15.64326955,15.84312499,15.5066665,21.42652578,27.714982,28.45522753,29.90074383,27.6545798,25.64720852,25.13760955,4.41906251,4.141333344,9.782295063,13.56526933,16.05901469,16.6123348,14.8096002,12.74600627,11.28191352,5.818880471,5.62230391,9.387130072,13.2881535,14.4256186,15.3843105,13.65871261,11.89796048,11.29223634,0.568604913,0.570380948,0.879734313,1,1,1,1,0.979205627,41.9758706,-92.24318881,2017,IAH3
CG108/CGR03,WIH1_2015,Y,19.6,728.5468424,0,0,247,147,65,64,4.730000059,9.059999784,2.430610682,6.190059866,3.242812514,1.739310909,2.563222068,2.582604527,2.064862235,151.3600019,54.3599987,32.30062549,198.0887501,6.485625029,21.11437514,113.2525011,35.42937557,62.48000012,19.32367544,22.19104989,23.8972515,19.04105101,21.62804324,20.72553659,16.09255797,13.7227876,9.595561915,19.95718755,28.15000025,26.05326099,28.85932006,29.07385437,26.51056077,24.82739399,20.18089026,14.51549808,8.517187543,15.30499983,11.82802944,17.48783518,16.48010375,14.49615378,12.31509137,8.581945626,2.680440183,8.558350873,13.98301754,11.81015597,15.26183828,14.95581898,12.98753542,11.68123469,8.628108428,5.087550731,0.777276777,1,1,1,1,0.929186389,0.833919484,0.505939954,43.05511725,-89.528525,2015,WIH1
B14A/MO17,ARH1_2018,N,22.5,541.5831872,0,2,174.5,88.5,63.5,60,6.807499945,4.709999936,2.627776375,4.735912158,3.619166647,6.960178526,4.330437569,0.796285741,3.374677434,217.8399982,32.96999955,35.48928591,145.2942843,5.831428528,62.51428531,109.7978577,4.003571561,104.6150005,17.99706709,21.70226043,20.05949982,19.52680112,21.59397623,17.99264813,18.0574776,19.33215022,18.30424355,21.07062507,24.31857109,24.02168934,29.45279857,31.73095224,30.70692423,32.5717108,33.29521443,31.83741963,10.26718749,12.03571429,12.70205088,18.67412083,19.99154783,20.64677572,22.90335213,23.23585706,21.28834102,9.223277534,11.01036775,11.27832322,16.11267445,17.86206546,17.6775748,19.72770382,20.19469271,18.54368809,0.945725441,1,1,1,1,1,1,1,34.729679,-90.7603455,2018,ARH1
B14A/MO17,GAH1_2019,N,15.275,686.0697297,40.5,0,190,105,62,62,4.224827643,1.980000006,1.908236784,2.106472486,0,0.090714284,5.691865924,1.473428559,3.045620547,122.5200016,17.82000005,22.37999977,72.04999958,0,0.725714275,156.5528547,7.367142797,92.8692846,16.4500471,17.48633936,17.40259385,20.9384506,22.51147406,21.84430948,17.66714436,19.76491442,19.71139218,21.20655165,22.58666695,26.81574745,29.5228407,35.04273814,35.70196446,32.62270198,33.62814315,33.36893722,7.214827602,8.595555623,14.04498416,14.47543411,19.21654783,20.58464301,20.89661115,21.78014287,21.253149,8.370628681,9.274220075,12.91642218,14.40044999,18.67726543,19.28313207,18.63395398,19.63555568,19.18049021,0.90216748,0.984365085,1,1,1,1,1,1,31.50582525,-83.55515025,2019,GAH1
CG44/CGR01,TXH2_2020,N,14.9,739.4879169,0,2,204.47,64.135,63.5,63,2.284333333,0,4.621906019,2.982124861,1.655000005,6.689114015,2.894056698,2.615892851,2.528400138,68.53,0,55.88714266,111.3664289,1.655000005,70.91857161,82.98143064,12.87071426,76.16571382,13.91343843,13.3863348,15.08661116,19.80328892,19.03358821,19.2160028,19.61198116,21.5690046,17.9190584,20.02266652,27.17999992,26.59088772,26.49063582,29.80749984,29.13094588,32.17534358,33.00407163,34.57616138,6.794333295,17.20400028,15.22554111,13.60666406,17.96904786,16.63267817,20.78659354,19.79317827,24.13923583,7.901247141,14.27292515,13.36557264,12.73068931,16.08957262,15.12192719,18.39831967,18.39239984,20.46927813,0.821357143,1,0.992404768,0.99375244,1,1,1,0.999043315,30.53825625,-96.42790225,2020,TXH2
PHW52/PHN82,WIH1_2020,Y,25.25,693.7928411,0.5,0,265,115,78,75.5,1.598387111,6.507143004,4.413520471,5.455426438,9.576153682,6.848251811,1.847198819,1.302442385,3.233674973,49.55000043,91.10000205,54.05307698,191.9769218,14.76999958,75.33076992,75.52923148,17.19923096,99.29769339,20.3303612,17.70938441,19.63774696,21.71928057,19.47191414,18.08778093,19.52506722,17.02277317,12.74244368,13.80935484,15.78214281,24.71870171,28.0331271,31.3961547,28.17125902,26.95535567,26.2427393,20.06715065,1.332903252,5.150000061,13.25869882,14.90724568,18.80923077,17.63741262,14.66820073,13.00544381,8.429758508,4.404075426,5.920121855,11.73838603,13.88054584,17.12955683,14.95247276,13.30208011,12.63591888,8.588509069,0.46481566,0.623010193,1,1,1,0.987099279,0.934776512,0.808464704,43.05505505,-89.52853825,2020,WIH1
CG60/LH162,GAH1_2016,N,13.3,792.2625115,0,2.5,145,65,51.5,51.5,6.466250051,4.395000041,0.566421492,2.549627568,3.17469698,5.859943136,4.096967014,2.330999996,2.476261007,206.9200016,35.16000032,6.21000006,86.0200003,9.52409094,52.42727233,105.6731797,11.65499998,76.76409122,15.95696127,18.25385642,20.33100053,20.74024209,20.01064868,19.54302735,19.38198769,19.26953352,18.21451922,23.62687498,22.98249984,28.56134937,29.4983659,33.37075638,32.62719045,33.25026907,34.51499955,33.94928126,11.29749997,10.47000009,15.64744728,16.2846205,20.78287862,20.61269551,21.56927107,22.51809092,22.40467728,10.53971422,9.962440438,14.36481163,15.11313475,19.02952924,18.56859265,19.26668195,20.34390963,19.99415841,0.993928569,1,1,1,1,1,1,1,31.5079175,-83.55854775,2016,GAH1
PHN11_PHW65_0323/LH195,NYH1_2017,N,18.7,731.1212129,0,10,221.5,96.5,78.5,78,4.758709581,4.139999986,2.953024942,5.715506232,4.320872878,2.701732063,2.616328443,1.022630585,3.614268439,147.519997,37.25999987,45.12618999,219.9223815,11.26857107,35.6957141,128.4247627,13.30476207,110.8900009,18.97444351,17.81005277,22.0763727,19.38397475,18.56141379,19.22534974,16.71382568,13.43506643,9.037548332,17.06967752,20.23333359,22.7745171,25.66488699,26.70396817,25.32691524,23.26007272,23.96840526,17.61119819,5.964193534,10.19,10.93717632,15.20362294,16.36293638,14.60656728,11.31793404,11.56685323,6.669544781,6.641127344,8.727253675,10.15270493,12.79474615,13.71935226,12.37567782,10.45035179,10.9124923,7.239151369,0.685760371,1,1,1,1,0.982493678,0.953634339,0.701363064,42.72880835,-76.6515625,2017,NYH1
B14A/MO17,MOH1_1_2020,Y,14.53333333,731.1212129,1.333333333,1.333333333,243.6666667,111,59,58,2.765624954,8.119999743,10.49656654,1.909885915,5.802857127,7.415295831,3.691475556,2.293301892,3.400930865,88.49999854,40.59999871,96.7978566,57.0957143,7.737142835,67.39857156,118.848571,17.52928566,104.715714,18.75466287,21.25211372,22.49923535,20.31658939,20.84622072,17.68630925,18.12476098,17.46293798,14.64158327,22.18656257,30.76999931,28.86546125,30.72469998,30.62226157,31.26253243,28.67352632,29.54480095,24.35225034,12.23093753,19.21800041,17.35636515,20.03188031,19.40511944,21.45309498,18.10676495,17.58972003,12.9136675,10.41798935,16.99399986,15.213465,17.3995364,17.01369051,18.36589209,15.51205264,15.80164337,11.56818364,0.936383936,1,1,1,1,1,0.995985623,0.962870504,38.8978375,-92.2070925,2020,MOH1
WF9/H95,IAH1_2015,Y,21.75,666.1183586,3,1.5,268,131,65,64,1.566451638,2.213076954,8.402418557,1.323463692,0.084411761,2.297359398,2.93999255,2.37101191,2.732793763,48.56000078,28.7700004,122.1399999,43.52999979,0.168823523,22.82352863,100.1182349,16.67000003,83.81294001,20.43214903,18.85811498,14.63317728,22.31276759,19.14227258,22.20806523,19.83862588,18.33763158,15.0581957,16.08774191,16.64538457,21.84697853,28.7334183,30.26852911,31.30747052,29.05105531,29.39636272,24.66946357,1.839032284,4.865384661,13.12892854,16.86768962,20.05941139,18.05705196,16.3929614,15.43749916,11.17229855,5.447129731,6.098188577,10.48240964,14.99632473,17.16639266,16.72884186,14.96924927,14.77137221,11.30644361,0.593087559,0.682994502,0.988452545,1,1,0.997626801,1,0.896934674,41.9980952,-93.69336973,2015,IAH1
B73/PHZ51,NYH3_2020,Y,17.7,731.1212129,1,0,259,131,65,64,4.422257993,0,1.373865683,3.203515064,6.161458224,3.578657229,2.247619776,1.339995863,2.270768823,137.0899978,0,18.69000064,113.6731244,12.19749978,37.86125033,87.74812532,17.041875,68.54562519,20.94560956,21.78233427,21.55267425,20.63825651,19.18147684,18.87690393,17.75633085,13.93943947,11.5316014,14.59225801,27.97729172,23.60945411,27.89842024,28.17958339,28.76829368,26.51617347,21.47489044,18.12990527,2.644717742,15.68266662,11.3508871,15.53912014,16.43281273,17.50013456,14.53010818,10.52921434,6.891416056,5.000434995,14.04753459,10.70035646,14.11697706,14.42792892,15.19886376,13.03509367,9.604727821,7.356101809,0.471947005,1,0.969562211,0.99553941,1,0.989555914,0.903066166,0.764418635,42.73227475,-76.6513705,2020,NYH3
LH212HT/LH195,WIH2_2015,N,38.2,720.1801384,0,0,260,151,65,64,3.126774188,2.655000041,4.103605878,5.336067251,1.868823528,3.142847566,3.066358713,6.463272165,3.426278957,96.92999983,15.93000025,53.58117651,186.0694135,5.435882344,36.03705852,132.4747064,52.80117733,103.4994124,19.63646212,20.57311455,21.5892617,21.07111177,18.36300238,19.20517036,18.54583572,13.68038168,11.37476292,15.6409678,24.97666677,26.11823115,28.09529077,27.51588227,27.91298604,26.4469062,23.95331443,17.63645543,3.355806466,13.62666686,13.88922494,15.17788174,17.2276475,16.92946091,13.73434519,12.63733902,6.343913375,5.370860554,11.93138906,12.65256426,14.04290221,14.43586033,14.57588984,12.76646014,11.49482956,7.023163717,0.588214292,1,1,1,1,0.979783322,0.914260835,0.715230077,43.3264485,-89.33359975,2015,WIH2
TX951/LH195,ARH1_2016,N,20.15,762.0136585,0,2,185.5,118,75,72,12.62656226,6.052222146,7.859593922,4.411032368,3.769999921,0.095833332,1.834913509,2.950363528,2.931715563,404.0499923,54.46999931,101.1431819,160.496816,7.539999843,0.824999988,46.86636396,14.75181764,90.88318244,16.40757677,14.40289243,17.41332625,19.31399891,17.48165414,22.15918181,19.7781726,18.25208951,17.22596404,20.37124979,20.08666674,25.25253507,26.30445415,29.50681779,32.27019592,33.22074717,33.17606868,32.75999986,8.53968759,10.04999993,14.84655054,15.67568893,20.10318184,20.90335237,23.01320039,23.46584116,23.35664232,8.376579132,8.623890092,12.4075181,13.38568101,16.80499981,18.57005087,20.09384313,20.24603027,19.89808151,0.932198657,0.999841266,1,1,1,1,1,1,34.72952,-90.7603555,2016,ARH1
B14A/MO17,GAH2_2020,N,13.85,763.62264,4.75,28.25,246.25,131.25,62.25,61.25,4.57387094,0.441111114,8.353941854,2.596292498,5.733571683,2.103095203,2.179001438,2.485142878,3.918548365,141.7899991,3.970000029,91.39071568,80.77428585,11.41500051,18.92785683,57.71499962,12.42571439,121.4749993,20.66171874,23.27184486,17.58943298,19.5164109,18.75300796,20.35385684,20.26001561,17.11426864,16.01109332,24.32935487,22.81222216,27.25049476,29.76903398,31.23452386,32.73428517,34.13891635,33.4245718,31.64458511,9.683548431,7.437777784,15.07002369,18.41195949,20.46821458,20.95039675,21.2406723,21.91714281,20.83905522,10.34437265,8.95024402,13.55540875,16.15181668,17.85136922,18.84234096,19.40061188,19.58004094,18.23728962,0.993479262,1,1,1,1,1,1,1,33.72355555,-83.30265185,2020,GAH2
CG108/CGR03,ARH2_2017,N,17.9,731.1212129,0,2,167.5,77.5,63,60,2.789999995,15.83285686,4.776016413,2.853949028,1.142500003,5.651818152,3.905948255,2.4430325,4.688621725,89.27999985,110.829998,61.6427269,88.95863769,3.003181826,52.42863608,105.2449988,13.33772746,145.3472735,17.14489296,19.09436907,20.93439511,19.65670258,19.84409681,19.1211903,18.81176407,19.65259997,17.546866,23.65656266,24.55142866,25.38541455,28.9612549,32.40098458,30.84565692,31.84241473,32.83627249,30.20087953,12.07343751,12.16142872,12.7110645,18.0477898,21.78734854,20.24410098,21.87781566,22.25639174,20.26112908,10.83878158,11.22094165,11.88579938,15.62584547,19.09416656,17.54487895,18.8103181,19.27693671,17.25265116,0.991674107,1,0.97315368,1,1,1,1,1,35.67418125,-90.0752695,2017,ARH2
B73/PHM49,ONH2_2017,N,17.7,731.1212129,0,2,229,110,65,64,3.566774253,5.816000056,0.640467161,2.602850346,0.276190468,0.553043346,1.774150425,1.832219351,2.40528059,110.5700018,58.16000056,8.999047586,96.02571482,0.552380936,6.918571438,78.70857161,24.06619065,72.98142847,18.8542372,16.74867072,24.21291039,19.37094181,21.19715784,20.84705237,17.61151759,14.253685,9.927824707,15.7532257,18.68899984,23.40262829,26.34974997,26.59380949,26.86065013,24.57225317,22.91748616,20.00596815,5.764838726,10.96000004,12.03359118,16.18007827,16.63301581,15.91920336,13.14574071,11.27177775,10.10650586,6.141928302,8.38660306,10.68394655,13.52521671,13.7753985,13.64998718,11.58821465,10.41552723,9.107414304,0.598502303,0.966571423,1,1,1,0.999084662,0.956230826,0.8300025,42.45293025,-81.8827315,2017,ONH2
PHB47/PHN82,IAH1_2020,Y,13.61666667,731.1212129,0.666666667,0.166666667,229,110,65,64,1.688064506,6.196000195,3.0793737,6.533057926,1.271428551,2.673269776,1.85421064,0.708456624,3.755616013,52.32999969,61.96000195,37.23499918,213.6221428,2.198571375,25.9085708,60.11785651,6.012142782,115.3728583,19.46953177,15.04660187,20.64247086,20.31598349,21.99207742,21.09552252,19.7297914,19.80455556,15.11692591,15.87290319,18.70700045,25.72176895,28.50674309,31.92999949,30.87921407,28.61147391,29.37327705,24.63079501,3.348387095,9.753000152,14.65929334,17.38633346,19.85714286,19.28849194,17.27261165,15.46819038,11.83183106,5.5584858,8.125456457,12.65757338,15.09801966,17.89357117,17.09078834,15.12121856,14.7539709,11.47694483,0.621440085,0.927035726,1,1,1,0.998514142,0.992713009,0.918334154,41.19774214,-91.48767072,2020,IAH1
B73/PHM49,NCH1_2017,N,17.7,731.1212129,0,2,229,110,65,64,5.929354779,4.097142833,0.297958702,3.860588722,6.673809642,5.437090039,2.513672686,1.67758051,4.140460835,183.8099982,28.67999983,4.023333254,115.8195228,10.90952401,51.84571517,65.15761944,9.68857149,128.3542859,16.84796118,19.66078799,22.20077414,19.20396089,15.77249108,20.54839894,18.7994723,19.26606379,16.40835168,26.07000006,23.57857159,28.17011276,29.72614366,31.01404729,30.48814813,32.54721675,31.95695904,30.43138246,13.64064524,11.25142826,15.69757802,18.87536398,22.57674573,19.84793622,22.28039625,21.2748593,20.81350234,12.56442422,10.48784987,14.26665949,16.36044911,18.79940835,17.21144066,19.38557496,18.57336573,17.65269876,0.998329492,1,1,1,1,1,1,1,35.29663725,-77.5668065,2017,NCH1
B73/PHM49,MOH1_2_2018,N,18.23333333,731.1212129,0,2,232.6666667,114.6666667,56.33333333,55,4.419032262,0.120000001,6.56660792,4.995913726,0,0.865952386,4.867908623,7.318145406,3.629241153,136.9900001,0.840000004,71.60142667,150.6285707,0,7.793571472,145.6157139,39.85928573,112.0157138,18.39395777,18.46565301,20.1607481,20.70593221,19.87326009,21.97749135,18.06982858,17.46468943,16.31914076,19.5254839,22.76714298,27.16554273,29.60936822,31.6271427,32.32420578,29.51628185,29.85375934,27.04843165,7.99741943,14.14714282,16.43732974,18.81172612,21.79964249,20.71007941,19.44316189,19.21155699,15.91814144,7.992986492,11.1555316,14.00535673,16.26359619,18.7133926,18.51714259,16.54699664,16.60044059,13.86670431,0.872361758,1,1,1,1,1,1,0.995607144,38.89555425,-92.20964575,2018,MOH1
PHN11_OH43_0001/PHB47,WIH2_2016,Y,19,746.5674357,0,2,279,133,60,61,2.185483832,6.563333432,3.447094458,4.124693788,6.707159024,6.158880111,5.945293137,1.654273513,4.758742445,67.74999878,39.38000059,44.45545418,149.2718189,18.91272705,63.86318129,228.7613642,17.11772738,143.1609097,20.07161814,17.64681498,20.48120554,20.03716075,21.00097141,18.73971629,16.31911952,14.94670844,10.3303759,18.34677419,27.65666644,25.59626749,27.3504729,29.44640147,29.15349181,26.70938079,24.21329019,20.37268081,4.840000014,15.2516667,12.43660419,15.21846351,16.18390156,17.81047537,15.29826924,12.0891497,9.537770322,6.76617685,13.67923016,11.77429452,13.6256578,15.0809804,15.56950508,13.35737665,11.10536848,8.849967039,0.729688939,1,1,1,1,0.998061418,0.979766622,0.886131912,43.32649075,-89.33882925,2016,WIH2
CG44/CGR01,WIH1_2017,Y,15.45,718.8929531,0,2,231.5,106,73,70.5,3.894838602,1.694000003,3.49156578,6.251914317,26.29780264,12.3515148,1.782621048,1.031219451,2.019413967,120.7399967,16.94000003,60.77000046,238.2086357,55.48409002,148.2181776,77.27181808,11.13545426,60.74545419,17.96009764,21.56986256,18.71582301,20.73316127,19.69440102,19.58726141,19.1692292,15.69151392,12.21998586,16.03451621,20.2119998,20.22998088,26.71060266,27.00553033,27.16428033,24.80808837,24.03641879,21.845045,3.37838715,6.260000002,9.268565708,14.6662765,15.35575767,16.21109857,13.17589581,11.52521119,9.509429623,5.507434962,7.720411242,8.664602637,13.14891279,13.46068042,13.9043846,11.67856357,10.90146065,9.608265423,0.606900932,0.8735357,0.867893568,1,1,0.998220242,0.971647403,0.89569217,43.05668125,-89.5308135,2017,WIH1
CG60/LH162,ONH1_2017,Y,26.425,684.7825444,0,2,221.25,105,67.5,67.5,4.42290319,4.904999876,1.545173221,3.420435244,1.695375006,2.594700004,1.855534774,1.54565171,2.383111348,137.1099989,49.04999876,23.52600009,140.8034994,5.378000009,36.46150006,95.23350107,29.85300009,72.44250006,18.65662235,17.08545341,23.10813164,20.12586768,18.11232318,19.44819915,16.33652997,11.62209215,7.957733996,13.94322577,18.20700026,22.35689536,24.80045755,25.17183321,25.2296929,22.79396283,22.13957367,13.29532023,3.578387066,9.706999969,10.10387851,14.12185296,14.82349991,13.63261195,10.3904862,9.847475595,3.166289439,4.958212412,8.025894563,9.659097931,11.97096233,12.35740613,11.98311106,9.953455995,10.0654016,5.273375752,0.439723498,0.877642858,1,1,1,0.972410901,0.840292505,0.515578473,43.49546,-80.42596875,2017,ONH1
F42/H95,WIH2_2018,N,28.75714286,732.4083981,8,2,270.2857143,136.7142857,69.57142857,68.57142857,3.144193572,1.768571428,3.785071194,5.164846227,1.715952385,3.402224049,3.044948822,9.615599338,3.371772616,97.47000074,12.38,46.28142902,179.8699983,4.560714279,37.70642883,131.4821453,73.47714479,101.7171416,19.25733411,21.12108299,21.47525877,21.2745393,18.31717262,18.53021556,18.66070884,13.62580315,11.37185475,15.52870961,24.66571426,26.09170284,28.23486864,27.86595249,27.65838755,26.70641136,24.92152362,17.96867439,3.195161297,12.95000008,13.88902894,15.13385395,17.40500012,17.0648215,13.77097062,13.5657747,6.887165117,5.289841082,11.57195132,12.6458491,14.08946858,14.71699087,14.50107081,12.89356629,12.23397282,7.279203781,0.580092163,1,1,1,1,0.981419113,0.932006969,0.73866365,43.38075,-89.38645,2018,WIH2
B73/MO17,WIH3_2020,N,23.03333333,653.4610371,0.5,1.166666667,267,153.3333333,69.83333333,67.66666667,2.733870995,5.446666638,6.112394342,4.74655674,3.655208389,1.04360979,2.527373572,3.69928986,2.61452892,84.75000083,32.67999983,82.9068754,167.6149986,8.003125131,12.58312517,113.8450009,40.74312496,78.93437568,20.41919384,18.2775027,21.33639865,20.40337995,19.49413761,18.99324058,17.80850823,14.15156863,10.1168501,15.48354838,26.52499994,25.39100386,27.30541678,28.00124967,27.24401428,25.77617537,21.78088819,14.67245705,3.106129019,15.18500026,12.31273591,15.12317531,16.14624966,16.31340126,13.17330579,9.92591724,4.431311843,5.287102842,13.2823578,11.70416503,13.61992535,14.28505882,13.97808988,12.29059579,9.657643491,5.630137727,0.571854837,1,1,1,1,0.965668942,0.879609054,0.560799012,44.115703,-89.54491325,2020,WIH3
F42/H95,NYH2_2016,N,15.3,731.1212129,0,2,192,90,77,73,2.034516133,1.030000001,1.88805842,0.867300396,1.140952366,2.326450204,3.376451109,4.287746575,3.208572451,63.07000011,12.36000001,22.4085716,34.4438095,2.622857094,25.59095225,116.65619,31.75809508,97.82571426,19.21240982,23.35584625,23.40556822,22.17883586,23.94456446,21.25361649,17.18897092,16.17245816,13.35906413,14.04935483,18.68749992,27.50851283,26.23633728,28.78071431,29.31692664,28.41638555,26.44500865,23.15297547,1.686774175,4.439999988,12.92699036,12.85534504,13.89476193,15.65588736,16.863818,13.58818034,10.55762265,4.511298309,6.607155497,12.88765676,12.33330427,13.7996272,14.74166699,14.82295673,12.66050813,10.26842414,0.447315667,0.804761906,0.999400038,0.994542932,1,0.999880088,0.994843294,0.949842165,42.726117,-76.655339,2016,NYH2
PHB47/PHN82,WIH2_2017,Y,21.675,793.2279004,0,2,247,117.25,75,75.75,5.048709616,4.636666616,1.142383575,5.763857885,8.001590729,6.160048604,1.607776433,1.167726513,2.257555268,156.5099981,41.72999954,17.5799998,219.3963643,12.14409065,74.04090792,72.28863683,15.04409093,68.0204557,18.1690344,19.72049554,20.64727683,20.23287988,19.13163679,19.37493243,18.51401576,14.93340477,10.89478233,16.03129027,21.86555545,22.15746071,26.59689143,27.90045501,26.76799254,24.73062069,22.38533393,20.51274781,3.24419354,8.791111098,9.553497601,14.54337319,16.81037892,15.37831158,12.19271258,9.193202486,7.868866577,5.438218202,9.209131236,9.451203107,13.05708411,14.51682301,13.37610723,11.31306373,9.686333754,8.853113959,0.624158991,0.847976183,0.950288768,1,1,0.998699911,0.954544862,0.834596302,43.3246415,-89.33688775,2017,WIH2
TX714/TX779,NCH1_2017,N,17.45,731.1212129,0.5,1.5,229,142,65,64,5.929354779,4.097142833,0.297958702,3.860588722,6.673809642,5.437090039,2.513672686,1.67758051,4.140460835,183.8099982,28.67999983,4.023333254,115.8195228,10.90952401,51.84571517,65.15761944,9.68857149,128.3542859,16.84796118,19.66078799,22.20077414,19.20396089,15.77249108,20.54839894,18.7994723,19.26606379,16.40835168,26.07000006,23.57857159,28.17011276,29.72614366,31.01404729,30.48814813,32.54721675,31.95695904,30.43138246,13.64064524,11.25142826,15.69757802,18.87536398,22.57674573,19.84793622,22.28039625,21.2748593,20.81350234,12.56442422,10.48784987,14.26665949,16.36044911,18.79940835,17.21144066,19.38557496,18.57336573,17.65269876,0.998329492,1,1,1,1,1,1,1,35.29663725,-77.5668065,2017,NCH1
W10001_0022/PHB47,MNH1_2016,Y,19.35,731.1212129,0,2,229,110,69,68.5,2.893225764,0.170000008,5.030425272,6.121705224,6.438583227,6.210954471,8.179238718,7.617170889,9.394742846,89.68999869,1.190000057,67.79499967,212.8530004,13.67999972,65.11499918,295.599999,62.20750045,287.315495,17.89673604,26.28611401,18.122652,20.29948324,15.80941307,17.87578139,16.93568638,15.29315111,12.15008877,17.5148386,25.45428576,24.53269911,27.63337014,28.14450006,28.70269129,27.15887183,24.8505404,22.53032632,6.338387108,9.824285678,13.68155402,15.81410535,17.82425013,18.42635015,16.92976579,13.57123889,11.50456607,6.871134867,10.90204251,11.6566452,13.98369248,15.05511886,15.68076391,14.22086787,11.86153057,10.26982602,0.734527645,1,1,1,1,0.999952477,0.98729881,0.936092645,44.06646925,-93.533648,2016,MNH1
CG44/CGR01,OHH1_2015,N,11.1,691.2184706,0,0,216,100.5,56.5,56,4.820000016,2.056666652,1.801667061,2.430255425,2.070588264,2.75488235,3.664772063,1.623969288,1.874022108,149.4200005,12.33999991,20.27235275,82.00588303,2.23529414,26.29176468,128.0200007,12.16764697,57.18411674,17.71339239,20.831882,20.85048625,20.93566426,20.28419298,19.59839119,17.66236547,17.23782846,14.83481447,16.95064511,28.03666687,26.64173705,29.01382079,31.07970569,30.59522857,27.99762273,26.69097183,23.34659959,5.9283871,15.42166694,14.66308043,16.74801267,19.23764672,18.74322206,16.69895781,13.90980629,10.26308727,6.580773377,14.04730329,13.19467995,15.08203889,17.16864649,16.69143216,14.53513226,12.92347397,10.29932856,0.672569122,1,1,1,1,1,0.994932126,0.947361455,39.855785,-83.66477375,2015,OHH1
B14A/OH43,NCH1_2018,Y,16.5,731.1212129,0,6.333333333,213.6666667,110,53.66666667,51.66666667,4.157741868,0,6.852651043,4.101575565,0.281428576,2.753968325,7.265916583,9.606714405,8.963617552,128.8899979,0,78.76714403,125.545715,0.410714286,22.4842863,196.6735732,49.18571489,277.8721441,19.15814344,24.86455965,15.13897653,19.38558293,23.18458939,19.6068393,18.38664919,15.55735787,15.52161696,22.42709686,23.6650002,25.05504787,28.99162569,32.21999972,32.77589287,33.41271207,32.57228504,30.53730396,9.272903273,8.262500107,16.63082339,19.21430847,20.43714251,21.48106165,22.41052549,22.8214047,21.52269578,9.383610038,9.710722454,13.07063738,16.1524193,18.32857112,19.12847726,19.83450897,19.67052049,18.05632483,0.990449307,1,1,1,1,1,1,1,35.6667825,-78.492372,2018,NCH1
B73/TX779,MOH1_2_2020,N,18.38,731.1212129,0.8,0.2,251,126.8,62.2,59.2,2.765624954,8.119999743,10.23533287,1.900197364,6.862941181,7.496322061,3.61617108,2.901626778,3.303786197,88.49999854,40.59999871,96.12411712,56.39411764,8.455882353,68.01117661,117.8082348,21.52705885,101.3270584,18.75466287,21.25211372,22.58999711,20.28617166,20.64270943,17.48834951,18.15902921,17.2011884,14.69335169,22.18656257,30.76999931,28.84882905,30.74339714,30.90558787,31.2308437,28.74780649,29.21697892,24.17436303,12.23093753,19.21800041,17.30516703,20.0610583,19.70343171,21.50444419,18.15153395,17.40346693,12.7162556,10.41798935,16.99399986,15.18178367,17.42227064,17.30450979,18.37429674,15.5665539,15.53509051,11.41105442,0.936383936,1,1,1,1,1,0.996694042,0.965786214,38.8958275,-92.2071575,2020,MOH1
B14A/MO17,NYH2_2018,N,21.44,758.0877435,3,12.75,179.75,92.75,74.75,71.5,4.152903213,0.855714253,1.31693108,2.056877316,18.60714291,4.17142208,1.796460541,3.71345921,2.001911684,128.7399996,5.989999771,17.50499944,73.5107149,37.6500001,45.13714288,70.0178584,34.82000022,60.53000028,20.64383799,23.73438372,20.97980276,21.28373647,15.72294375,18.26843876,18.50915054,13.77481919,12.83457813,12.82806446,24.72714315,24.76775456,27.60101009,28.96428537,28.5122727,26.91050025,24.01606741,19.66558606,1.452258048,10.48999977,13.07559666,14.8719081,19.08642861,17.4819286,14.95013511,12.80738491,7.865124395,4.113027627,10.74522894,11.82847182,13.74928068,16.05096628,15.06575239,13.37181447,11.42873851,8.144119245,0.351670502,1,0.973410204,0.99504728,1,0.991140913,0.940533101,0.821942422,42.72611075,-76.65530175,2018,NYH2
B73/PHN82,IAH4_2017,Y,21.225,723.3981015,0.25,3,223.75,108,68.25,66,3.054193612,4.63857133,5.654282844,2.356146022,0.145000003,0.823262634,3.029939984,2.506485397,3.022032747,94.68000197,32.46999931,92.55000019,79.81000018,0.290000005,7.931363713,110.0431818,17.65818187,91.79227275,19.60434628,22.37855189,18.81628808,21.46940114,22.42332305,21.26952374,19.1513695,15.94205759,15.34138578,17.83935482,25.21428544,21.76755785,28.88340452,30.88984893,30.99338411,28.30609907,26.26622464,25.93438806,4.952580655,10.13999993,10.24708413,15.02150207,17.47128796,18.07608078,15.80662465,13.87026602,12.51354651,6.575243948,10.82301274,9.649960621,14.3656457,16.22810104,16.57398155,14.36597852,12.57546566,12.06214068,0.727396317,1,0.910082199,1,1,1,1,0.987168831,41.99455432,-93.69030947,2017,IAH4
B73/PHN82,TXH1-Early_2018,N,10.55,751.7161766,0,2,236.5,79,72.5,70.5,2.442333295,0.87833333,4.91741256,2.91095925,1.112321411,5.987347663,3.094033648,2.445309502,2.573656677,73.26999886,5.269999981,55.2178573,113.3721426,4.449285643,64.36357035,86.72785865,13.67714274,77.357857,13.4988633,14.49154552,13.92485348,19.6618496,19.390827,19.64184359,19.38410293,21.21373351,18.01258323,19.68933331,26.95833333,25.66614373,26.56996845,30.24238085,29.14372996,31.91805433,33.2644762,34.51160554,6.357666679,15.03999996,15.13755815,13.69055459,18.24071415,16.44843436,20.63070323,20.50154739,23.97494014,7.613570572,13.40715604,12.87528071,12.79536137,16.34410207,15.0664779,18.21233438,18.75919739,20.40606275,0.821476194,1,0.991620595,0.99408643,1,1,1,0.999013392,30.546318,-96.4329965,2018,TXH1-Early
F42/MO17,GAH2_2020,N,14.2,701.5159525,3.75,42.5,253,130.25,61.25,59.5,4.57387094,0.441111114,8.353941854,2.596292498,5.733571683,2.103095203,2.179001438,2.485142878,3.918548365,141.7899991,3.970000029,91.39071568,80.77428585,11.41500051,18.92785683,57.71499962,12.42571439,121.4749993,20.66171874,23.27184486,17.58943298,19.5164109,18.75300796,20.35385684,20.26001561,17.11426864,16.01109332,24.32935487,22.81222216,27.25049476,29.76903398,31.23452386,32.73428517,34.13891635,33.4245718,31.64458511,9.683548431,7.437777784,15.07002369,18.41195949,20.46821458,20.95039675,21.2406723,21.91714281,20.83905522,10.34437265,8.95024402,13.55540875,16.15181668,17.85136922,18.84234096,19.40061188,19.58004094,18.23728962,0.993479262,1,1,1,1,1,1,1,33.72355555,-83.30265185,2020,GAH2
CG44/CGR01,NYH2_2020,N,12.9,737.557139,0,2.5,206,91.5,61.5,61.5,4.422257993,0,1.391731236,3.182357247,6.170888774,3.507901041,2.283490724,1.426918664,2.172175634,137.0899978,0,18.68266731,113.2706661,12.6093331,36.98266699,88.46933366,18.14666667,65.61600019,20.94267544,21.78244971,21.55666085,20.64321436,19.27786447,18.92984529,17.76882093,13.77968924,11.70490539,14.55447306,27.94977782,23.62933928,27.86541297,27.88688897,28.78672537,26.53302948,21.56675493,18.20507674,2.61195699,15.66431106,11.35573055,15.51025755,16.31100023,17.48208292,14.53826355,10.86377734,6.879177126,4.979415324,14.02697238,10.70801105,14.09392345,14.22879085,15.20067311,13.04971037,9.749522427,7.387680802,0.470065285,1,0.969822941,0.995242037,1,0.988859641,0.904446401,0.765938608,42.73230075,-76.65036275,2020,NYH2
B14A/H95,WIH1_2017,Y,19.75,698.2979894,0,2,251,130.5,80,80,3.894838602,1.694000003,3.49156578,6.251914317,26.29780264,12.3515148,1.782621048,1.031219451,2.019413967,120.7399967,16.94000003,60.77000046,238.2086357,55.48409002,148.2181776,77.27181808,11.13545426,60.74545419,17.96009764,21.56986256,18.71582301,20.73316127,19.69440102,19.58726141,19.1692292,15.69151392,12.21998586,16.03451621,20.2119998,20.22998088,26.71060266,27.00553033,27.16428033,24.80808837,24.03641879,21.845045,3.37838715,6.260000002,9.268565708,14.6662765,15.35575767,16.21109857,13.17589581,11.52521119,9.509429623,5.507434962,7.720411242,8.664602637,13.14891279,13.46068042,13.9043846,11.67856357,10.90146065,9.608265423,0.606900932,0.8735357,0.867893568,1,1,0.998220242,0.971647403,0.89569217,43.05668125,-89.5308135,2017,WIH1
F42/MO17,MNH1_2015,N,17.35,731.1212129,34.5,5,237.5,134,75.5,73.5,2.676451665,6.10285713,1.587216104,4.707726326,2.093823531,4.685775359,5.935015669,2.223261507,2.198788145,82.97000162,42.71999991,19.59000013,155.007059,3.965294123,52.23235247,227.0947085,20.90117698,67.40117758,19.81693462,15.87546921,21.62818458,20.65236193,17.21434565,21.12123323,17.7408483,14.5374504,12.06297535,17.43387093,22.63000025,27.28921799,28.46423671,28.36529418,28.07899716,26.14089523,24.73259507,17.90095705,4.567419307,13.73428563,14.30007362,16.89716897,18.65411764,16.19745995,14.75643511,13.57280729,6.634647692,6.2838161,10.87437977,13.26905608,14.87023808,15.64114514,14.35392043,12.99006372,12.46836687,7.55733068,0.722983866,1,1,1,1,0.977703003,0.878626049,0.721229646,44.07038575,-93.53519625,2015,MNH1
PHB47/PHN82,NEH3_2017,N,24.05,747.8546209,16,2,181.5,80,65,64,6.03471326,3.955444498,0.18882913,3.842009577,1.316296295,1.435570981,2.764433094,3.912023778,4.15136979,187.076111,38.21611161,1.987222274,117.8244439,3.948888885,12.8655555,93.99333183,27.38611089,126.3194449,18.53150537,21.70326166,24.15860034,20.80931081,18.66603313,19.02487726,18.75887595,17.51813417,15.15718003,20.20137986,23.21257118,30.13389904,30.13339279,32.06462927,32.76776237,28.39622898,27.87449379,27.0242909,7.908297486,10.26215086,15.17879712,16.87891665,20.62425956,20.98993062,16.95054818,15.08081369,13.75654417,8.47748899,10.0955543,14.95078719,15.67969265,18.3413362,18.75248222,14.77642402,13.79312874,13.00111339,0.783510626,0.953819441,1,1,1,1,1,0.993105158,41.162,-96.409,2017,NEH3
PHN11_OH43_0001/PHB47,WIH1_2017,Y,17.7,731.1212129,0,2,229,110,65,64,3.894838602,1.694000003,3.49156578,6.251914317,26.29780264,12.3515148,1.782621048,1.031219451,2.019413967,120.7399967,16.94000003,60.77000046,238.2086357,55.48409002,148.2181776,77.27181808,11.13545426,60.74545419,17.96009764,21.56986256,18.71582301,20.73316127,19.69440102,19.58726141,19.1692292,15.69151392,12.21998586,16.03451621,20.2119998,20.22998088,26.71060266,27.00553033,27.16428033,24.80808837,24.03641879,21.845045,3.37838715,6.260000002,9.268565708,14.6662765,15.35575767,16.21109857,13.17589581,11.52521119,9.509429623,5.507434962,7.720411242,8.664602637,13.14891279,13.46068042,13.9043846,11.67856357,10.90146065,9.608265423,0.606900932,0.8735357,0.867893568,1,1,0.998220242,0.971647403,0.89569217,43.05668125,-89.5308135,2017,WIH1
B73/PHN82,NYH2_2020,Y,14.35,720.823731,0,5,241,113,64.5,64,4.422257993,0,1.391731236,3.182357247,6.170888774,3.507901041,2.283490724,1.426918664,2.172175634,137.0899978,0,18.68266731,113.2706661,12.6093331,36.98266699,88.46933366,18.14666667,65.61600019,20.94267544,21.78244971,21.55666085,20.64321436,19.27786447,18.92984529,17.76882093,13.77968924,11.70490539,14.55447306,27.94977782,23.62933928,27.86541297,27.88688897,28.78672537,26.53302948,21.56675493,18.20507674,2.61195699,15.66431106,11.35573055,15.51025755,16.31100023,17.48208292,14.53826355,10.86377734,6.879177126,4.979415324,14.02697238,10.70801105,14.09392345,14.22879085,15.20067311,13.04971037,9.749522427,7.387680802,0.470065285,1,0.969822941,0.995242037,1,0.988859641,0.904446401,0.765938608,42.73230075,-76.65036275,2020,NYH2
F42/MO17,INH1_2018,Y,23.32,837.5070725,0,2,239,110,64.5,61,2.767096756,4.68454543,2.7337539,2.608245307,0.180000007,3.094468228,3.412660528,0.546071422,1.653962344,85.77999943,51.52999973,31.28214284,86.61642764,0.256428582,29.52071404,116.6621433,3.926428522,50.80214219,18.97651723,17.84080185,18.4751702,21.91502565,21.1577316,19.53552192,18.82147066,19.16946561,15.73843824,16.02451609,18.1199998,25.33039297,28.95851984,31.36964308,31.15694425,28.16765345,28.4284546,26.00206774,3.260645186,6.861818249,15.08608447,16.0398559,19.18499974,18.88806934,16.73005964,15.8360335,13.18834038,5.572938243,7.259226835,12.75390782,14.76719288,17.27732141,17.05840253,14.63863294,14.40004061,12.39915253,0.613732714,0.707012975,1,1,1,1,1,0.979968538,40.4787825,-86.9898145,2018,INH1
B97/PHB47,TXH1_2016,N,9.55,686.7133223,0,2,195.5,61,69,69,1.633666698,16.13999993,0.99702422,4.719865603,0.129393939,3.277272727,13.06232457,0.703636358,1.017125621,49.01000094,112.9799995,14.5313639,177.3549991,0.33090909,36.05,378.0672674,3.179999969,30.53454577,13.9726292,10.72874144,17.88940951,17.80076093,20.55685321,19.77792414,17.90480363,20.8338604,20.14326093,22.32500016,23.95000022,24.48309256,26.40498513,28.5388636,28.63545455,30.12870319,34.35404525,35.58838723,6.034666632,13.33571414,9.675379644,13.12758779,15.78530267,16.33764454,20.13902853,23.08186362,24.00118421,8.473379033,11.29783551,10.5045992,12.46111665,14.43681279,14.72204148,17.12368238,20.53225114,20.87599038,0.915869048,1,0.972225207,1,1,1,1,1,30.54708625,-96.43393475,2016,TXH1
TX951/LH195,INH1_2015,N,25.35,720.823731,0,1,226,115.5,76,72,2.968064535,5.608750075,2.401797478,2.620596579,1.049062505,3.048312443,3.454130844,1.332533481,1.484370975,92.01000059,44.8700006,26.44312483,85.12437463,1.715625018,30.48312443,116.5724995,9.316249996,45.68062523,19.44608656,13.59046638,21.88315593,21.65689439,20.60130358,19.73326552,18.77560381,17.99738388,15.64927463,15.67580632,21.0562501,27.44396829,29.52449332,32.66781175,30.16981242,28.17317586,28.46934151,25.5406298,3.004516139,13.05249977,15.22068343,16.62214482,19.56843758,18.02818774,16.71489706,16.46563638,12.56847521,5.360930658,9.9438759,13.725819,15.26696414,18.11812466,16.1828721,14.63810214,14.67667849,11.95902497,0.609504607,1,1,1,1,1,1,0.986081101,40.477075,-87.000205,2015,INH1
B97/PHB47,GAH2_2016,N,14.15,731.1212129,0,2,265.5,218,50.5,49.5,1.486129045,0,7.316392826,2.079782856,1.718421064,1.264671045,2.43256314,4.61773679,3.235456168,46.07000041,0,60.50999928,55.97210474,3.436842128,10.11736836,67.31736801,23.15894711,100.2847377,20.21189387,22.87583466,19.10112302,21.34036575,17.85876091,19.83818451,18.50479945,15.9975398,17.29687983,27.80677426,30.50400009,32.06010812,34.2138269,34.93842035,34.86282896,34.62455114,33.33373696,32.80003392,13.8351613,16.55600014,19.35906305,20.32019684,22.9621054,21.76434208,22.04984942,22.29670187,20.14649938,13.32566871,15.60302283,17.72531793,18.78372546,20.36638125,19.89190838,19.9091667,19.70080105,18.42340329,1,1,1,1,1,1,1,1,33.717295,-83.3110275,2016,GAH2
W10004_0216/PHZ51,DEH1_2015,Y,18.65,697.6543968,0,0.5,285,144,64.5,63.5,2.877187484,6.848000002,1.658122271,2.899811139,0.533124998,6.398055441,4.542065261,4.666333417,5.694818618,92.06999949,68.48000002,26.86312445,94.40374921,0.778750002,57.58249897,115.8581242,26.73625046,176.5393772,18.09789148,17.20138936,20.11151884,21.0089777,21.53492481,19.24730516,17.70191113,15.05628078,15.14846735,16.82656264,19.24400005,20.72376954,27.68890342,31.56656283,31.86354174,32.09465687,30.43364003,29.09395151,6.265937505,9.858999991,10.7453803,17.67876376,20.38750017,21.35659703,22.77220607,22.28250884,20.56647162,6.521960329,8.412914767,9.229957748,14.85993723,17.9770315,18.58170739,19.36170697,18.35807444,16.86736745,0.750435273,0.870857151,0.962682184,1,1,1,1,1,38.62935675,-75.4656925,2015,DEH1
PHB47/PHZ51,MNH1_2016,N,19.65,731.1212129,0,2,229,110,68,66.25,2.893225764,0.170000008,5.030425272,6.121705224,6.438583227,6.210954471,8.179238718,7.617170889,9.394742846,89.68999869,1.190000057,67.79499967,212.8530004,13.67999972,65.11499918,295.599999,62.20750045,287.315495,17.89673604,26.28611401,18.122652,20.29948324,15.80941307,17.87578139,16.93568638,15.29315111,12.15008877,17.5148386,25.45428576,24.53269911,27.63337014,28.14450006,28.70269129,27.15887183,24.8505404,22.53032632,6.338387108,9.824285678,13.68155402,15.81410535,17.82425013,18.42635015,16.92976579,13.57123889,11.50456607,6.871134867,10.90204251,11.6566452,13.98369248,15.05511886,15.68076391,14.22086787,11.86153057,10.26982602,0.734527645,1,1,1,1,0.999952477,0.98729881,0.936092645,44.06646925,-93.533648,2016,MNH1
CG44/CGR01,GAH1_2020,N,15.825,671.2027402,0.5,8,165,75,57,58,4.279687563,0,6.08243138,3.811420537,2.267976227,2.530000055,3.98378478,1.741833346,2.910207357,136.950002,0,84.37571335,135.9278565,4.833571502,22.77000049,107.9378566,9.115000069,90.21642806,16.61263859,21.5972875,19.10636237,20.72286693,14.54687945,18.15584731,20.08605453,19.68634889,18.27781732,25.37343752,26.77166684,25.94144379,27.77824619,29.55357116,30.6518255,31.78195276,33.48178532,33.56322575,12.43875006,10.55666669,12.19035929,13.80720781,20.58059497,20.26111097,20.57386992,21.96838095,22.25456222,11.80508215,11.69113274,11.88989525,13.35432975,17.06708306,17.45646823,18.17996521,19.67032327,19.80166763,0.988537947,1,1,1,1,1,1,1,31.5079775,-83.558517,2020,GAH1
LH212HT/LH195,MOH1_2016,N,16.9,731.1212129,0.5,8.5,267.5,132.5,57.5,57.5,2.465483877,8.058000231,0.264259377,6.282521268,1.94553035,9.25680559,4.358907121,3.354664451,5.453130527,76.43000019,40.29000115,2.879999995,172.8372758,4.262727369,83.20363667,125.2090916,21.13363606,168.2240918,20.2309363,16.93509369,22.49829557,20.20959989,18.68177986,19.21408964,18.0090922,17.17714413,15.87534947,21.83193548,27.56600037,27.88644765,31.21215235,30.25795442,31.2505745,30.57423065,29.80077912,28.25339236,10.073871,16.74400005,16.26474463,19.86215984,19.98371223,20.49117413,20.76153791,19.91431794,17.56318368,9.497798547,14.24343349,14.21296425,17.47336946,17.12232598,17.8699151,17.65104862,16.90998551,15.09561117,0.937315665,1,1,1,1,1,1,0.999442641,38.8955475,-92.2072025,2016,MOH1
PHW52/PHN82,OHH1_2018,Y,18.8,758.7956954,0,2,260.5,112,59,62,3.056774178,9.537500136,1.922452157,2.385565957,3.342142727,1.8544286,3.625787622,3.100846839,2.007798001,94.75999951,76.30000108,21.73714328,80.43785755,3.342142727,18.544286,121.7649994,22.15357072,61.29071423,19.31095449,14.64635724,20.72885596,20.94366931,19.27592959,20.95649317,17.99811894,17.37176276,15.4204415,15.33419351,20.99500024,26.65036435,28.81994394,32.41071347,30.66092864,28.53085842,26.94730604,24.73435724,3.376129027,12.14624989,14.55931522,16.57316253,19.49428545,18.47499986,17.24720124,15.03980618,12.05347394,5.35712311,9.832246518,13.13485159,14.9051591,17.95401161,16.59941793,15.03822312,13.39555861,11.48513665,0.534285712,0.926785712,1,1,1,1,0.999125,0.970735544,39.85688825,-83.671225,2018,OHH1
LH74/PHN82,WIH1_2015,Y,27.95,758.7956954,0,4.5,240.5,126,65,64,4.730000059,9.059999784,2.430610682,6.190059866,3.242812514,1.739310909,2.563222068,2.582604527,2.064862235,151.3600019,54.3599987,32.30062549,198.0887501,6.485625029,21.11437514,113.2525011,35.42937557,62.48000012,19.32367544,22.19104989,23.8972515,19.04105101,21.62804324,20.72553659,16.09255797,13.7227876,9.595561915,19.95718755,28.15000025,26.05326099,28.85932006,29.07385437,26.51056077,24.82739399,20.18089026,14.51549808,8.517187543,15.30499983,11.82802944,17.48783518,16.48010375,14.49615378,12.31509137,8.581945626,2.680440183,8.558350873,13.98301754,11.81015597,15.26183828,14.95581898,12.98753542,11.68123469,8.628108428,5.087550731,0.777276777,1,1,1,1,0.929186389,0.833919484,0.505939954,43.05511725,-89.528525,2015,WIH1
B14A/H95,INH1_2015,N,17.3,737.557139,1,5,229,122,73,71,2.968064535,5.608750075,2.401797478,2.620596579,1.049062505,3.048312443,3.454130844,1.332533481,1.484370975,92.01000059,44.8700006,26.44312483,85.12437463,1.715625018,30.48312443,116.5724995,9.316249996,45.68062523,19.44608656,13.59046638,21.88315593,21.65689439,20.60130358,19.73326552,18.77560381,17.99738388,15.64927463,15.67580632,21.0562501,27.44396829,29.52449332,32.66781175,30.16981242,28.17317586,28.46934151,25.5406298,3.004516139,13.05249977,15.22068343,16.62214482,19.56843758,18.02818774,16.71489706,16.46563638,12.56847521,5.360930658,9.9438759,13.725819,15.26696414,18.11812466,16.1828721,14.63810214,14.67667849,11.95902497,0.609504607,1,1,1,1,1,1,0.986081101,40.477075,-87.000205,2015,INH1
PHW52/PHN82,INH1_2018,Y,20.26,905.4060935,0,2,228,96.5,62,61,2.767096756,4.68454543,2.7337539,2.608245307,0.180000007,3.094468228,3.412660528,0.546071422,1.653962344,85.77999943,51.52999973,31.28214284,86.61642764,0.256428582,29.52071404,116.6621433,3.926428522,50.80214219,18.97651723,17.84080185,18.4751702,21.91502565,21.1577316,19.53552192,18.82147066,19.16946561,15.73843824,16.02451609,18.1199998,25.33039297,28.95851984,31.36964308,31.15694425,28.16765345,28.4284546,26.00206774,3.260645186,6.861818249,15.08608447,16.0398559,19.18499974,18.88806934,16.73005964,15.8360335,13.18834038,5.572938243,7.259226835,12.75390782,14.76719288,17.27732141,17.05840253,14.63863294,14.40004061,12.39915253,0.613732714,0.707012975,1,1,1,1,1,0.979968538,40.4787825,-86.9898145,2018,INH1
PHG39/PHN82,WIH2_2018,N,27.92857143,752.451711,6.285714286,2,266.5714286,126.5714286,67.28571429,67.28571429,3.144193572,1.768571428,3.785071194,5.164846227,1.715952385,3.402224049,3.044948822,9.615599338,3.371772616,97.47000074,12.38,46.28142902,179.8699983,4.560714279,37.70642883,131.4821453,73.47714479,101.7171416,19.25733411,21.12108299,21.47525877,21.2745393,18.31717262,18.53021556,18.66070884,13.62580315,11.37185475,15.52870961,24.66571426,26.09170284,28.23486864,27.86595249,27.65838755,26.70641136,24.92152362,17.96867439,3.195161297,12.95000008,13.88902894,15.13385395,17.40500012,17.0648215,13.77097062,13.5657747,6.887165117,5.289841082,11.57195132,12.6458491,14.08946858,14.71699087,14.50107081,12.89356629,12.23397282,7.279203781,0.580092163,1,1,1,1,0.981419113,0.932006969,0.73866365,43.38075,-89.38645,2018,WIH2
LH195/LH82,NCH1_2016,N,14.4,731.1212129,0,4,184.5,108,65,64,2.901562452,3.125714166,7.137907935,4.683034439,4.3177271,0.863030289,5.226283407,5.104181825,4.507668668,92.84999847,21.87999916,91.86318315,160.7736342,8.497726928,8.495454409,139.9318182,26.12772732,139.7377287,16.36857818,22.27138465,15.49498623,18.72849078,21.8793198,21.8664799,18.529992,18.05675722,17.32656161,20.86125001,25.58571407,25.68946269,27.1054564,30.20318166,31.0559697,32.42423852,33.59766701,33.26035177,7.692187494,8.212857212,14.27003911,16.07300028,18.02681784,18.80169681,21.2796372,22.62190931,22.7218182,8.383421821,10.43985322,12.46468669,13.95599298,16.17160042,16.99727481,18.83160592,19.980567,19.86697781,0.913761163,1,1,1,1,1,1,1,35.30015175,-77.57127825,2016,NCH1
B73/PHM49,SCH1_2018,N,14.86,731.1212129,0,2,232.5,120,61.5,61.5,5.509375073,3.372500002,5.775327928,7.728127661,4.71095229,3.130603142,3.123485158,2.01328566,5.79306447,176.3000023,26.98000002,97.60999952,245.6735731,5.415714213,31.8442854,83.93428482,10.53785687,179.5849986,18.64772365,19.28692877,21.1730546,18.16318131,18.84742333,19.2548603,19.994513,19.31783344,16.30139442,22.53906247,22.53374982,23.09020479,27.61870045,28.0654766,28.90856809,32.58479132,33.48333298,31.1168664,9.301562469,9.311250091,8.762400081,17.50665347,16.7615475,18.38295894,21.20797915,21.67128537,20.80767273,9.591191253,9.400074843,9.574505228,14.76793775,14.51962258,15.72381397,18.86169653,19.45105318,17.96288574,0.951841518,1,0.982626499,0.991514695,1,1,1,1,34.6223015,-82.7364835,2018,SCH1
B73/PHN82,IAH4_2019,Y,33.275,641.3400428,23,3.75,240.5,139,62.75,60.5,7.44874995,0,6.508814674,5.652572602,2.433809479,0.731547632,2.455795253,7.856419535,5.758725846,238.3599984,0,89.12928634,169.456428,4.779285618,8.60571444,106.5300014,62.81714391,173.1250012,18.61457558,24.25652275,18.80062453,19.64217675,17.01762246,21.29967345,16.82875041,12.82062273,10.73648339,20.72718754,29.98400002,24.57226332,29.58102216,28.11761892,27.58625519,26.21902431,25.70162766,18.66579105,8.655312385,16.39199963,13.30590142,18.52555793,18.42333308,15.4118289,14.78252205,14.57801647,7.354403302,8.719182336,15.28713381,11.55896644,16.12377034,15.4195504,13.79277779,12.9189296,12.78184671,8.051480754,0.866629464,1,1,1,1,0.996735112,0.969646609,0.721601517,42.03193798,-93.79333213,2019,IAH4
B73/PHN82,INH1_2016,N,18.95,719.5365458,15.5,19.5,253.5,135.5,65,64,3.034516148,1.382857186,3.106568823,3.966270256,3.500454469,6.752636371,3.451172643,3.198528118,3.024422797,94.07000059,9.680000305,31.26000059,138.8759105,3.500454469,67.52636371,113.8927274,21.6654544,92.62590972,17.63328649,23.97511796,20.66441577,20.1236558,19.9706746,19.39149484,18.14527656,15.98533716,14.62820237,18.74516109,26.31142807,27.84898846,28.12893417,28.20272714,29.14504538,29.16779001,27.95564941,27.07739093,7.950322636,11.69428553,16.31817922,16.10606538,16.8522731,18.34872752,18.58889605,17.50284626,15.03841012,7.677100472,11.91689015,14.24288378,14.4184555,14.68521604,15.7994256,15.9329094,14.92238151,13.51734692,0.852649763,1,1,1,1,1,1,0.996102814,40.4787595,-86.98982,2016,INH1
PHG39/PHN82,MOH1_2_2018,N,18.56666667,731.1212129,0,2,226.3333333,98,56.33333333,54.33333333,4.419032262,0.120000001,6.56660792,4.995913726,0,0.865952386,4.867908623,7.318145406,3.629241153,136.9900001,0.840000004,71.60142667,150.6285707,0,7.793571472,145.6157139,39.85928573,112.0157138,18.39395777,18.46565301,20.1607481,20.70593221,19.87326009,21.97749135,18.06982858,17.46468943,16.31914076,19.5254839,22.76714298,27.16554273,29.60936822,31.6271427,32.32420578,29.51628185,29.85375934,27.04843165,7.99741943,14.14714282,16.43732974,18.81172612,21.79964249,20.71007941,19.44316189,19.21155699,15.91814144,7.992986492,11.1555316,14.00535673,16.26359619,18.7133926,18.51714259,16.54699664,16.60044059,13.86670431,0.872361758,1,1,1,1,1,1,0.995607144,38.89555425,-92.20964575,2018,MOH1
2369/LH123HT,KSH1_2016,Y,15.6,754.2905471,0,2,145,60,85,85,0.381562503,5.593749881,9.031136959,3.981909994,0,0.897724769,5.011421387,3.322424253,5.670073263,12.2100001,44.74999905,140.9509078,148.5090918,0,8.374091108,139.438637,19.93454552,175.7722711,18.43315426,14.04582843,18.34613738,20.88446512,22.70328743,20.59441801,18.34986672,18.15379387,17.32510191,19.15124996,21.70124984,22.33901244,27.19377063,36.31272689,35.17540036,32.01078432,33.85633352,30.76895891,2.130625044,11.46499991,9.568238579,14.2621368,21.58727247,22.04353923,20.78061301,22.71134866,19.49139311,6.3158573,9.667291017,9.626890379,13.35418843,19.56599107,19.14397536,18.06824645,19.12054732,17.03744615,0.741573662,1,0.921279778,0.986042268,0.991287871,0.998977631,0.993550002,1,39.14480675,-96.62898225,2016,KSH1
B73/MO17,IAH4_2015,Y,18.9,707.308286,27,3.5,257.5,136.5,65,64,1.42451612,4.854615514,2.513668144,6.351127419,5.46999979,2.154687441,1.85099418,0.335758934,4.064770202,44.15999973,63.11000168,35.58999979,218.2399999,10.93999958,20.30812445,58.48687407,2.377500039,125.1143763,19.83997888,19.28772805,16.02270398,20.69822917,17.27718186,21.35831173,20.17303565,19.59360772,15.6142427,15.83032262,16.78769229,22.26164163,27.88725423,29.37999988,31.52784708,28.69895342,30.18404469,25.46833276,2.473548389,5.024615425,13.48280789,16.59868734,20.37374985,19.78628468,17.37298211,16.89515858,12.68514048,5.318693913,6.228847238,10.78291245,14.47529064,16.87687486,17.66054739,15.18141656,15.71210426,12.05907357,0.585391697,0.659230777,0.98994413,1,1,1,1,0.952600636,41.19970961,-91.49362406,2015,IAH4
B73/PHN82,ONH2_2019,N,30.75,700.2287673,2,4,280,126,59.5,55,3.148749955,1.707142813,2.884788786,4.447732757,0.559615387,2.381315681,1.591062148,2.963873616,2.693056068,100.7599986,11.94999969,28.24076917,155.5976948,1.398461539,27.51692318,83.67846091,41.8892306,82.50307587,19.66548085,22.32332843,21.1459014,19.53903082,19.21471346,16.24443645,13.80926932,11.15414419,7.415876262,21.25437486,24.3300002,28.12065395,27.65940311,26.58807711,26.0777262,22.19925608,19.8977064,9.549499144,11.33624993,14.43999985,17.94791472,17.45486711,16.31807709,16.95925516,13.13253797,10.95349597,1.834706344,9.515816833,11.92539607,15.12217856,14.69848405,13.62366511,13.69445237,10.64536319,9.344594814,3.453371008,0.985803572,1,1,1,1,0.93986372,0.838029257,0.289255913,42.45221275,-81.881844,2019,ONH2
B73/PHN82,GAH1_2016,N,15.8,697.0108042,2,2,200,90,61,59,6.466250051,4.395000041,0.566421492,2.549627568,3.17469698,5.859943136,4.096967014,2.330999996,2.476261007,206.9200016,35.16000032,6.21000006,86.0200003,9.52409094,52.42727233,105.6731797,11.65499998,76.76409122,15.95696127,18.25385642,20.33100053,20.74024209,20.01064868,19.54302735,19.38198769,19.26953352,18.21451922,23.62687498,22.98249984,28.56134937,29.4983659,33.37075638,32.62719045,33.25026907,34.51499955,33.94928126,11.29749997,10.47000009,15.64744728,16.2846205,20.78287862,20.61269551,21.56927107,22.51809092,22.40467728,10.53971422,9.962440438,14.36481163,15.11313475,19.02952924,18.56859265,19.26668195,20.34390963,19.99415841,0.993928569,1,1,1,1,1,1,1,31.5079175,-83.55854775,2016,GAH1
B37/OH43,NEH3_2015,Y,16,751.072584,0,2.5,229,110,65,64.5,3.231250057,0.918000031,0.565093977,1.286692195,3.19749999,1.391136354,0.258061221,1.474667183,0.155891338,103.4000018,4.590000153,6.150000095,39.04749978,4.720000029,15.30249989,11.17999983,14.52874985,4.648125023,21.79127574,25.69442635,22.86725485,21.82271665,15.26317632,20.59079,20.06412842,16.27968968,13.53861776,24.28750017,32.64599991,30.58771447,32.67731329,28.91593772,29.87238656,30.80707127,25.39031645,21.32018275,9.278749934,13.0079998,13.8828633,15.7826582,17.05531204,14.62710229,13.18313307,8.87540479,3.334017086,10.46257825,15.28330691,14.45465852,16.22005678,15.0938879,14.496454,14.53020136,10.90039565,7.851747396,0.909587052,1,1,1,1,0.965712824,0.862507779,0.80953931,41.15824525,-101.9872958,2015,NEH3
WF9/H95,ARH1_2016,N,16.55,794.8368819,0,2,171.5,115,69.5,67,12.62656226,6.052222146,7.859593922,4.411032368,3.769999921,0.095833332,1.834913509,2.950363528,2.931715563,404.0499923,54.46999931,101.1431819,160.496816,7.539999843,0.824999988,46.86636396,14.75181764,90.88318244,16.40757677,14.40289243,17.41332625,19.31399891,17.48165414,22.15918181,19.7781726,18.25208951,17.22596404,20.37124979,20.08666674,25.25253507,26.30445415,29.50681779,32.27019592,33.22074717,33.17606868,32.75999986,8.53968759,10.04999993,14.84655054,15.67568893,20.10318184,20.90335237,23.01320039,23.46584116,23.35664232,8.376579132,8.623890092,12.4075181,13.38568101,16.80499981,18.57005087,20.09384313,20.24603027,19.89808151,0.932198657,0.999841266,1,1,1,1,1,1,34.72952,-90.7603555,2016,ARH1
W10005_0107/PHB47,IAH2_2017,Y,14.6,743.3494726,3.5,13.5,206,84,65,64,2.991935476,4.003749907,5.594154361,1.824159742,2.965909053,1.138616173,3.544395797,5.525860929,3.224964342,92.74999976,32.02999926,86.83999968,64.74363607,5.880909015,11.03545466,133.6850016,39.36636487,98.02272796,18.91811151,22.03083944,18.39067038,21.91300981,21.59707026,21.00058551,18.76246256,16.50136756,14.56336975,16.70258062,25.25375009,21.16444029,28.78792803,31.34295403,31.03890899,27.79230679,26.54138994,25.01808603,3.836129038,9.060000002,9.836484062,14.72352594,17.1804546,18.00485339,15.61890002,13.9478747,12.25710857,5.884356407,10.52058178,9.325556586,14.19611432,16.29393371,16.57150033,14.05801276,12.73803514,11.57992501,0.659274195,1,0.882113053,1,1,1,1,0.976890029,42.06582876,-94.72050129,2017,IAH2
TX714/TX779,WIH1_2020,Y,18.3,726.6160645,0,0,289.5,176,88.5,85.5,1.598387111,6.507143004,4.413520471,5.455426438,9.576153682,6.848251811,1.847198819,1.302442385,3.233674973,49.55000043,91.10000205,54.05307698,191.9769218,14.76999958,75.33076992,75.52923148,17.19923096,99.29769339,20.3303612,17.70938441,19.63774696,21.71928057,19.47191414,18.08778093,19.52506722,17.02277317,12.74244368,13.80935484,15.78214281,24.71870171,28.0331271,31.3961547,28.17125902,26.95535567,26.2427393,20.06715065,1.332903252,5.150000061,13.25869882,14.90724568,18.80923077,17.63741262,14.66820073,13.00544381,8.429758508,4.404075426,5.920121855,11.73838603,13.88054584,17.12955683,14.95247276,13.30208011,12.63591888,8.588509069,0.46481566,0.623010193,1,1,1,0.987099279,0.934776512,0.808464704,43.05505505,-89.52853825,2020,WIH1
B37/MO17,NYH2_2018,N,22.52333333,705.8065699,16,8,210,103.6666667,71,69.33333333,4.152903213,0.855714253,1.31693108,2.056877316,18.60714291,4.17142208,1.796460541,3.71345921,2.001911684,128.7399996,5.989999771,17.50499944,73.5107149,37.6500001,45.13714288,70.0178584,34.82000022,60.53000028,20.64383799,23.73438372,20.97980276,21.28373647,15.72294375,18.26843876,18.50915054,13.77481919,12.83457813,12.82806446,24.72714315,24.76775456,27.60101009,28.96428537,28.5122727,26.91050025,24.01606741,19.66558606,1.452258048,10.48999977,13.07559666,14.8719081,19.08642861,17.4819286,14.95013511,12.80738491,7.865124395,4.113027627,10.74522894,11.82847182,13.74928068,16.05096628,15.06575239,13.37181447,11.42873851,8.144119245,0.351670502,1,0.973410204,0.99504728,1,0.991140913,0.940533101,0.821942422,42.72611075,-76.65530175,2018,NYH2
LH74/PHN82,NYH1_2018,N,20.55,731.1212129,0,5.5,211,98,64.5,64,4.394516057,1.637142931,0.546464292,3.461265884,6.062261837,4.338061718,2.067540981,1.177456758,2.359527655,136.2299978,11.46000051,7.340000123,113.5449994,14.95785693,45.27285745,83.63714323,15.50214277,71.28500016,21.14905797,19.51909583,22.50012197,20.49014312,17.37909559,18.62357236,17.54437735,14.42309006,11.11333684,16.43838702,24.34714304,24.48084385,28.4079325,28.47095262,28.85558784,26.25577716,21.21730113,17.53723965,4.181612903,13.18428578,11.78804566,16.02970596,18.15166677,17.53428468,14.37510127,9.649634667,6.532510054,6.046172102,11.82070517,11.18993529,14.50776692,15.35223703,15.26441478,12.8637381,9.179788733,7.084201569,0.564688941,0.946581643,0.98880424,0.99833546,1,0.984010821,0.898581807,0.740508559,42.72940418,-76.65161667,2018,NYH1
LH74/PHN82,IAH1_2020,N,13.61666667,731.1212129,0.666666667,0.166666667,229,110,65,64,1.688064506,6.196000195,3.0793737,6.533057926,1.271428551,2.673269776,1.85421064,0.708456624,3.755616013,52.32999969,61.96000195,37.23499918,213.6221428,2.198571375,25.9085708,60.11785651,6.012142782,115.3728583,19.46953177,15.04660187,20.64247086,20.31598349,21.99207742,21.09552252,19.7297914,19.80455556,15.11692591,15.87290319,18.70700045,25.72176895,28.50674309,31.92999949,30.87921407,28.61147391,29.37327705,24.63079501,3.348387095,9.753000152,14.65929334,17.38633346,19.85714286,19.28849194,17.27261165,15.46819038,11.83183106,5.5584858,8.125456457,12.65757338,15.09801966,17.89357117,17.09078834,15.12121856,14.7539709,11.47694483,0.621440085,0.927035726,1,1,1,0.998514142,0.992713009,0.918334154,41.19774214,-91.48767072,2020,IAH1
LH74/PHN82,ONH2_2016,Y,19.3,724.6852867,0,1.5,218,115,72.5,68,1.435483875,1.740833327,1.463802716,3.022687524,0.150999999,1.134659085,3.046446673,1.693503778,2.765116665,44.50000012,20.88999993,18.84600039,117.1590009,0.150999999,12.25349994,101.0444998,13.16149993,84.26899996,19.72563927,22.19747464,21.68954048,21.77365896,18.98664827,19.92678304,16.69906166,15.68152671,12.9072029,14.10741935,17.58083336,26.00758685,26.04894451,27.78099985,28.79287246,28.2480382,25.9224786,23.75348014,4.257419363,7.13166666,15.03828811,14.1477789,17.72699971,17.33924119,18.24672102,15.95494667,14.17526013,5.131346137,6.986841243,12.85116395,12.65171997,14.84296497,15.26027205,15.31782021,13.26534606,11.67621189,0.511244241,0.799851209,1,1,1,1,1,0.975829282,42.4530035,-81.88279875,2016,ONH2
B14A/H95,IAH1_2020,N,13.91666667,731.1212129,1.5,7,229,110,65,64,1.688064506,6.196000195,3.0793737,6.533057926,1.271428551,2.673269776,1.85421064,0.708456624,3.755616013,52.32999969,61.96000195,37.23499918,213.6221428,2.198571375,25.9085708,60.11785651,6.012142782,115.3728583,19.46953177,15.04660187,20.64247086,20.31598349,21.99207742,21.09552252,19.7297914,19.80455556,15.11692591,15.87290319,18.70700045,25.72176895,28.50674309,31.92999949,30.87921407,28.61147391,29.37327705,24.63079501,3.348387095,9.753000152,14.65929334,17.38633346,19.85714286,19.28849194,17.27261165,15.46819038,11.83183106,5.5584858,8.125456457,12.65757338,15.09801966,17.89357117,17.09078834,15.12121856,14.7539709,11.47694483,0.621440085,0.927035726,1,1,1,0.998514142,0.992713009,0.918334154,41.19774214,-91.48767072,2020,IAH1
B73/PHM49,NYH3_2019,N,24.1,746.5674357,0.5,6.5,243.5,124.5,75,75,3.722580618,3.873333404,3.769554008,3.757958966,6.56821411,3.88506864,3.604603585,1.929858492,3.709694332,115.3999992,34.86000064,61.04857108,135.2235714,13.13642822,47.6607138,172.5314276,35.27499978,112.0914282,17.9818517,20.79040337,20.53458356,20.20586531,15.56107187,20.47665645,15.7702462,13.42945136,8.802352299,16.21290321,21.91111098,21.5613082,26.8770008,26.27928579,27.19863099,23.33754175,19.77308355,13.39834902,5.322258069,10.30000003,10.31609792,15.50927174,17.62488075,14.92700095,12.00041282,8.027538821,3.378330702,6.134411308,9.414033746,9.318517767,13.52970479,14.11503311,13.40897889,10.69134109,8.327220554,5.109082433,0.665391704,1,0.983452189,1,1,0.970435943,0.837841689,0.510564168,42.7321756,-76.65345463,2019,NYH3
PHN11_OH43_0001/PHB47,GAH1_2016,N,13.75,780.0342518,12,7.5,205,80,56,55.5,6.466250051,4.395000041,0.566421492,2.549627568,3.17469698,5.859943136,4.096967014,2.330999996,2.476261007,206.9200016,35.16000032,6.21000006,86.0200003,9.52409094,52.42727233,105.6731797,11.65499998,76.76409122,15.95696127,18.25385642,20.33100053,20.74024209,20.01064868,19.54302735,19.38198769,19.26953352,18.21451922,23.62687498,22.98249984,28.56134937,29.4983659,33.37075638,32.62719045,33.25026907,34.51499955,33.94928126,11.29749997,10.47000009,15.64744728,16.2846205,20.78287862,20.61269551,21.56927107,22.51809092,22.40467728,10.53971422,9.962440438,14.36481163,15.11313475,19.02952924,18.56859265,19.26668195,20.34390963,19.99415841,0.993928569,1,1,1,1,1,1,1,31.5079175,-83.55854775,2016,GAH1
PHW52/PHN82,TXH1_2020,N,11.625,761.6918622,0,2,180.34,45.72,70,69.25,2.284333333,0,4.613530444,2.949806388,1.362941181,6.741056464,2.844869093,3.829088224,2.301094231,68.53,0,55.97058804,110.7988238,1.362941181,71.52235312,82.32059028,18.97352936,69.29117607,13.91343843,13.3863348,15.08816438,19.79337859,19.48130546,19.24170726,19.77113757,20.7945973,17.91495332,20.02266652,27.17999992,26.60815942,26.52479293,29.39617636,29.12989124,32.2266946,33.03076485,34.59511331,6.794333295,17.20400028,15.2455437,13.65359797,17.29686298,16.61337131,20.73348334,20.06167624,24.24037069,7.901247141,14.27292515,13.38037585,12.76738989,15.58009007,15.11126374,18.39892159,18.53701373,20.50202011,0.821357143,1,0.99243504,0.993791594,1,1,1,0.999042533,30.53781575,-96.4283715,2020,TXH1
TX779/LH195,SCH1_2020,N,14.5575,731.1212129,1.5,6.5,99.25,38.25,58.75,57.75,6.726129055,12.61950016,14.6709951,2.000047064,2.505749965,4.425319405,2.268462711,6.18714998,5.023091868,208.5100007,84.13000107,163.6860008,61.50999924,5.011499929,39.68149965,62.57699943,33.64599986,155.4654979,20.36817608,19.66978326,14.75526058,19.85961082,19.96014466,19.24465486,19.87809105,16.40752662,15.64625104,22.32567731,25.33999968,25.31846332,29.19710574,32.4110003,31.66961065,33.32032281,31.92909988,30.24042268,7.936741977,12.70899997,16.31955663,18.65521183,21.09725013,21.1736526,21.46883008,21.19136654,20.48826235,8.963701593,11.76593586,13.23428606,15.98846211,18.75412521,18.42141037,19.32426,18.56023321,17.40294316,0.984170504,1,0.973950938,1,1,1,1,1,34.62225,-82.736661,2020,SCH1
F42/MO17,OHH1_2020,Y,20.075,720.823731,0,0.25,229,110,60.25,57.5,4.175312527,1.24000001,2.003453903,2.609830299,3.238461531,4.458868342,3.000365612,1.621237519,2.44580479,133.6100008,6.200000048,24.41307693,78.60461595,5.612307695,46.13538504,105.0992289,18.40384625,73.98230748,19.06994028,20.34349766,22.26062964,20.30125672,18.94980258,17.72364635,17.47781057,14.69815231,13.31876726,20.75593752,29.31000023,26.9862925,30.26951119,31.92230738,29.63458284,27.3548547,24.45496262,20.91339716,9.301875014,17.61400032,14.18652547,18.22082699,19.47423084,18.74255468,15.66305293,13.07056974,8.164555027,9.098127154,15.53923951,13.05396234,16.29356655,17.69826911,16.21360084,13.84725457,11.75523116,8.713632263,0.810993302,1,1,1,1,0.998602591,0.941606618,0.857376019,39.85643475,-83.67288725,2020,OHH1
F42/MO17,ONH1_2016,Y,29.6,632.6515425,0,1.5,220,125,84,81.5,1.979032247,2.105714291,0.92181366,1.439738287,4.720833318,2.435439396,4.62931563,1.31185227,2.043303741,61.34999967,29.48000008,13.31600007,60.28400005,10.99249999,28.54150001,172.0475013,11.37649985,61.38049932,20.24883872,21.56727634,23.77365349,22.41142308,19.3081847,20.61473607,17.12813691,15.31534219,11.6349499,10.49290321,16.47999988,25.01561457,25.51466922,28.22516696,27.99415914,27.31356147,24.49017951,20.3886015,-0.735806467,3.753571405,10.93050922,11.61184699,15.55325019,14.71775745,15.07244109,12.71620509,9.185787659,3.269306411,5.688768484,11.09209761,11.56175859,14.2216101,13.76399544,13.57642435,11.5133866,8.776899495,0.291105988,0.684668367,0.99891379,0.988093962,1,0.998165816,0.971212584,0.877977401,43.4997965,-80.451125,2016,ONH1
PB80/PHZ51,WIH1_2016,Y,18.95,826.3729202,0,2.5,269.5,150,73.5,74,2.076129018,1.94750002,4.430291291,4.068377178,0.606590927,8.204471101,6.520888551,7.285801826,4.413191112,64.35999957,23.37000024,50.66818307,153.9786358,1.017727305,87.41727302,222.4604529,58.95590957,134.9268184,19.92805462,20.9108026,19.53546339,20.65690042,18.97296773,19.76360502,17.50876714,15.21370917,12.23883056,16.70258062,17.57583312,27.08182728,26.49130857,27.22159082,28.35833875,27.6700069,25.1458901,22.98674642,3.327419363,4.990833327,14.04723809,14.47423798,17.58636334,16.7186736,17.17399145,14.32051147,12.5735533,5.875866612,6.419508974,12.98865398,12.92924289,14.50224274,14.72651534,14.55658067,12.23924581,10.7486024,0.621198161,0.7653869,1,1,1,0.999967803,0.998306277,0.970976554,43.05632525,-89.53194975,2016,WIH1
CG44/CGR01,WIH2_2018,N,29.9,749.9141173,9.2,2,261.8,130.2,70.8,69.6,3.144193572,1.768571428,3.785071194,5.164846227,1.715952385,3.402224049,3.044948822,9.615599338,3.371772616,97.47000074,12.38,46.28142902,179.8699983,4.560714279,37.70642883,131.4821453,73.47714479,101.7171416,19.25733411,21.12108299,21.47525877,21.2745393,18.31717262,18.53021556,18.66070884,13.62580315,11.37185475,15.52870961,24.66571426,26.09170284,28.23486864,27.86595249,27.65838755,26.70641136,24.92152362,17.96867439,3.195161297,12.95000008,13.88902894,15.13385395,17.40500012,17.0648215,13.77097062,13.5657747,6.887165117,5.289841082,11.57195132,12.6458491,14.08946858,14.71699087,14.50107081,12.89356629,12.23397282,7.279203781,0.580092163,1,1,1,1,0.981419113,0.932006969,0.73866365,43.38075,-89.38645,2018,WIH2
CG60/LH162,NCH1_2015,N,15.15,731.1212129,0,0.5,167.5,79,65,64,3.0140625,9.692856925,3.043308324,7.00027835,0,3.411347986,2.886716411,10.31533332,6.56176467,96.44999999,67.84999847,47.46470581,233.8535261,0,30.12176424,80.44058821,53.94764695,203.4147048,18.56641886,18.5514961,20.38733283,17.18369043,24.39251002,21.03629604,20.30189304,17.27178406,15.58503138,22.38312501,24.94999995,23.18034629,27.40244989,31.82117664,31.76743482,33.30845927,33.22968591,31.16039845,8.592187501,12.50999982,10.48535005,18.40286831,19.92058833,21.46261411,22.34001137,22.61282364,21.92468694,9.285127697,11.46773529,10.15801447,14.99239002,17.87088248,18.60652477,19.71826945,19.84422869,18.53531879,0.955334819,1,0.995809598,1,1,1,1,1,35.29657708,-77.5664625,2015,NCH1
PHW52/PHM49,NYH1_2019,N,21.8,698.2979894,3.5,0.5,245.3333334,122,70.5,70.5,3.742499989,3.13750004,5.753824184,3.193184694,5.054999975,4.679644987,3.141734315,2.115619262,4.095645999,119.7599996,25.10000032,83.05615347,110.7876916,10.59692295,60.83538484,169.67846,49.66846142,126.1984601,19.31204623,22.90652502,19.40556432,20.09548462,19.54416251,18.43271946,14.78687504,11.82668111,8.218362691,18.69937494,22.85875034,22.9010546,27.51683221,28.25012823,26.24284011,22.02988517,19.80082275,11.00573521,7.845625035,10.06374997,12.28813039,16.10263177,16.07333343,14.39934908,10.67406786,8.357505336,1.635690852,7.6395284,9.775213808,10.49055945,14.05854059,14.39300596,12.73828549,9.762895495,8.676471021,3.980466677,0.838560269,0.991875008,1,1,1,0.934962266,0.800347462,0.399612352,42.7288875,-76.65152084,2019,NYH1
PHG80/PHZ51,MIH1_2017,Y,26.6,638.443876,0,6,108,45.5,65.5,66,2.651290334,1.642500043,0.365195355,3.685889798,0.022982455,0.462972321,1.745768067,1.924198947,6.215848807,82.19000036,13.14000034,4.417894763,131.6678931,0.068947365,5.871578781,77.40789432,25.15789459,187.919471,20.75480046,19.52619267,24.47429891,19.89055103,21.94334328,22.12060477,17.47908742,14.76431364,9.641321864,18.99677434,22.1187501,26.44652255,27.49693157,27.7329823,27.82492569,25.37386911,24.10071042,20.63989867,5.961290348,11.91874993,11.36318641,16.0503933,16.08877179,14.96255052,12.27657104,9.93890341,8.936309075,7.303217139,10.01258026,11.86785018,14.06113521,14.11607898,13.75096176,11.67659513,10.59348898,9.148775778,0.770126733,1,1,1,1,0.999072621,0.949278334,0.816440377,42.68116575,-84.49434125,2017,MIH1
PHW52/PHN82,IAH3_2017,Y,21.41666667,747.4255592,0,2,229,110,65,64,4.153750014,4.476666673,3.404720357,2.207347727,0.783636364,2.628276904,1.892687593,2.328876272,1.794257086,132.9200004,67.1500001,54.03954627,78.33863542,1.567272728,28.02681865,71.85545488,19.05045461,54.69545453,16.14493189,17.75127989,18.89303832,22.07985964,20.54923199,20.99384486,19.81852315,17.22919489,15.64326955,15.84312499,15.5066665,21.42652578,27.714982,28.45522753,29.90074383,27.6545798,25.64720852,25.13760955,4.41906251,4.141333344,9.782295063,13.56526933,16.05901469,16.6123348,14.8096002,12.74600627,11.28191352,5.818880471,5.62230391,9.387130072,13.2881535,14.4256186,15.3843105,13.65871261,11.89796048,11.29223634,0.568604913,0.570380948,0.879734313,1,1,1,1,0.979205627,41.9758706,-92.24318881,2017,IAH3
F42/MO17,DEH1_2016,N,19.95,716.9621753,2,7,262,115.5,77.5,76.5,2.701875035,7.431818214,3.891344367,3.01543569,5.358105985,2.453055546,7.028031294,2.624318106,3.1968602,86.46000111,81.75000036,66.39499953,101.6163622,13.33454524,24.02227264,188.3231781,15.05272682,98.58045408,18.33047433,10.1000462,19.40971708,21.02938559,18.25055452,17.64652011,18.94468483,17.7865103,16.44449792,18.09,16.60090897,19.90208421,27.67646738,27.79681775,28.9030859,31.91379825,31.21812112,30.57169607,5.529687506,9.93090907,10.11289786,16.8589893,18.02106052,19.78800518,21.90881045,21.62957593,20.16127331,6.825577378,7.645605865,8.606637786,14.43603228,14.98401645,16.37610101,18.85541374,18.37748956,17.3477875,0.726328134,0.729318176,0.990929859,1,1,1,1,1,38.6482025,-75.44606,2016,DEH1
TX714/PHZ51,IAH3_2017,Y,17.7,731.1212129,0,2,229,110,65,64,4.153750014,4.476666673,3.404720357,2.207347727,0.783636364,2.628276904,1.892687593,2.328876272,1.794257086,132.9200004,67.1500001,54.03954627,78.33863542,1.567272728,28.02681865,71.85545488,19.05045461,54.69545453,16.14493189,17.75127989,18.89303832,22.07985964,20.54923199,20.99384486,19.81852315,17.22919489,15.64326955,15.84312499,15.5066665,21.42652578,27.714982,28.45522753,29.90074383,27.6545798,25.64720852,25.13760955,4.41906251,4.141333344,9.782295063,13.56526933,16.05901469,16.6123348,14.8096002,12.74600627,11.28191352,5.818880471,5.62230391,9.387130072,13.2881535,14.4256186,15.3843105,13.65871261,11.89796048,11.29223634,0.568604913,0.570380948,0.879734313,1,1,1,1,0.979205627,41.9758706,-92.24318881,2017,IAH3
PHN11_OH43_0001/PHB47,NYH2_2015,Y,15.9,731.1212129,0.5,1.5,247,93.5,79.5,79.5,3.814193487,2.822857129,1.806874641,1.427310218,14.28882354,6.323155046,2.553769654,1.263651931,1.70374005,118.2399981,39.5199998,23.5252947,50.99705838,17.86235295,65.18176435,90.43176518,10.71352917,51.74117684,19.21827184,21.58410556,20.44972798,21.8367517,17.34067749,18.34945618,18.49425604,17.55625849,13.84215422,11.26903224,15.86071418,24.70888252,27.12764594,29.5805878,28.55383422,27.75922879,25.11594081,20.73318661,0.676451599,3.065714287,12.68317757,14.19692254,19.48862723,17.66257776,16.12899413,12.03346763,8.797239788,3.458861152,5.522653893,11.65565145,13.2498794,16.56577659,15.18766176,14.16580901,11.53845799,8.731216192,0.261509218,0.568112238,0.971160735,0.994106254,1,0.999864887,0.980226591,0.898542131,42.7324825,-76.65277775,2015,NYH2
B37/MO17,IAH1_2019,Y,26.3,678.3466183,0,2,216,102.5,65,64,8.157187574,0.75333335,7.315577374,1.144389074,0.212857144,0.731688293,3.103679801,5.185721735,4.918979992,261.0300024,4.5200001,87.30642721,32.26642813,0.212857144,8.04857122,121.5035704,46.39999972,147.9399989,18.01904646,22.72114833,18.53868323,20.84617194,19.20093738,21.91428985,16.4832458,14.23349405,11.00878768,22.30999994,27.52999973,24.52617789,31.4481278,28.63047609,29.47870132,27.11002697,25.00731411,20.46577188,10.93062501,14.96333329,14.91684483,20.02766766,18.36452364,16.34071412,15.67686671,13.06746994,9.592819484,10.11779152,13.58137929,12.09039624,17.73903178,15.5681627,15.08353594,13.70818638,12.14295105,9.387875541,0.879263394,1,1,1,1,0.994329881,0.928985237,0.797752907,41.1992562,-91.4941418,2019,IAH1
LH74/PHN82,GAH1_2019,N,15.29,729.0617165,1.5,1.5,172.5,90,61.5,61,4.224827643,1.980000006,1.908236784,2.106472486,0,0.090714284,5.691865924,1.473428559,3.045620547,122.5200016,17.82000005,22.37999977,72.04999958,0,0.725714275,156.5528547,7.367142797,92.8692846,16.4500471,17.48633936,17.40259385,20.9384506,22.51147406,21.84430948,17.66714436,19.76491442,19.71139218,21.20655165,22.58666695,26.81574745,29.5228407,35.04273814,35.70196446,32.62270198,33.62814315,33.36893722,7.214827602,8.595555623,14.04498416,14.47543411,19.21654783,20.58464301,20.89661115,21.78014287,21.253149,8.370628681,9.274220075,12.91642218,14.40044999,18.67726543,19.28313207,18.63395398,19.63555568,19.18049021,0.90216748,0.984365085,1,1,1,1,1,1,31.50582525,-83.55515025,2019,GAH1
PHG39/PHN82,NCH1_2018,N,17.95,731.1212129,0,2,194,94.5,54.25,54,4.157741868,0,6.852651043,4.101575565,0.281428576,2.753968325,7.265916583,9.606714405,8.963617552,128.8899979,0,78.76714403,125.545715,0.410714286,22.4842863,196.6735732,49.18571489,277.8721441,19.15814344,24.86455965,15.13897653,19.38558293,23.18458939,19.6068393,18.38664919,15.55735787,15.52161696,22.42709686,23.6650002,25.05504787,28.99162569,32.21999972,32.77589287,33.41271207,32.57228504,30.53730396,9.272903273,8.262500107,16.63082339,19.21430847,20.43714251,21.48106165,22.41052549,22.8214047,21.52269578,9.383610038,9.710722454,13.07063738,16.1524193,18.32857112,19.12847726,19.83450897,19.67052049,18.05632483,0.990449307,1,1,1,1,1,1,1,35.6667825,-78.492372,2018,NCH1
B73/PHN82,ONH1_2016,Y,31,657.1080619,0,1.5,208,119,85.5,82.5,1.979032247,2.105714291,0.92181366,1.439738287,4.720833318,2.435439396,4.62931563,1.31185227,2.043303741,61.34999967,29.48000008,13.31600007,60.28400005,10.99249999,28.54150001,172.0475013,11.37649985,61.38049932,20.24883872,21.56727634,23.77365349,22.41142308,19.3081847,20.61473607,17.12813691,15.31534219,11.6349499,10.49290321,16.47999988,25.01561457,25.51466922,28.22516696,27.99415914,27.31356147,24.49017951,20.3886015,-0.735806467,3.753571405,10.93050922,11.61184699,15.55325019,14.71775745,15.07244109,12.71620509,9.185787659,3.269306411,5.688768484,11.09209761,11.56175859,14.2216101,13.76399544,13.57642435,11.5133866,8.776899495,0.291105988,0.684668367,0.99891379,0.988093962,1,0.998165816,0.971212584,0.877977401,43.4997965,-80.451125,2016,ONH1
LH195/PHN37,NYH1_2017,N,15.45,731.1212129,0,2.5,221,93.5,77,74.5,4.758709581,4.139999986,2.953024942,5.715506232,4.320872878,2.701732063,2.616328443,1.022630585,3.614268439,147.519997,37.25999987,45.12618999,219.9223815,11.26857107,35.6957141,128.4247627,13.30476207,110.8900009,18.97444351,17.81005277,22.0763727,19.38397475,18.56141379,19.22534974,16.71382568,13.43506643,9.037548332,17.06967752,20.23333359,22.7745171,25.66488699,26.70396817,25.32691524,23.26007272,23.96840526,17.61119819,5.964193534,10.19,10.93717632,15.20362294,16.36293638,14.60656728,11.31793404,11.56685323,6.669544781,6.641127344,8.727253675,10.15270493,12.79474615,13.71935226,12.37567782,10.45035179,10.9124923,7.239151369,0.685760371,1,1,1,1,0.982493678,0.953634339,0.701363064,42.72880835,-76.6515625,2017,NYH1
LH74/PHN82,ONH1_2015,Y,30.4,697.6543968,0,0.5,247.5,147.5,86.5,86.5,1.605625002,2.296315821,1.411426091,1.973297954,0.512941169,3.436769168,2.641035405,1.799953816,2.360571209,51.38000005,43.63000059,20.30117703,73.50294104,0.81882352,40.73352947,103.9364728,19.58470627,71.14882509,18.02169462,20.4737019,23.34007091,22.64543997,20.24065375,18.07254412,18.60447299,14.22755231,12.21920895,9.771562532,12.63473691,23.7578119,26.83441686,29.90941261,27.46928249,26.11972075,22.82201755,18.35250846,-0.327500018,2.045263152,11.01347606,13.31919887,17.43313718,16.50329302,14.06775752,11.69572195,7.013714688,2.851211725,4.201400589,10.67713105,12.77399982,15.76589753,14.15032606,12.63577386,10.48249806,7.379159901,0.167098218,0.403345874,0.957007131,0.991950294,1,0.994472794,0.939113043,0.772366561,43.49741975,-80.44806025,2015,ONH1
PHG39/PHN82,MOH1_2015,N,14.75,731.1212129,0,0.5,187.5,85,77,75.5,3.914838722,3.002727248,2.7038834,5.646226268,2.268750012,1.183333344,4.736744086,1.740401796,3.666491943,121.3600004,33.02999973,34.41999933,178.8712478,5.868750036,10.6500001,140.2618746,11.88312507,113.6612502,18.81846694,18.88703156,16.92919735,21.70591481,15.72154266,19.94530069,18.47422179,20.12873028,17.02653892,18.28451609,18.00181831,23.77805456,28.93028285,29.85593748,31.76118019,30.42140763,28.58050013,28.43143147,5.857096827,7.500000065,15.21487777,17.6487962,21.67281234,21.45979159,20.28182538,17.09899995,17.28669369,7.068544315,7.302193139,11.97142579,15.39796361,17.76437491,18.61048589,17.380694,14.99182695,15.05317439,0.723283405,0.814935086,1,1,1,1,1,1,38.8965375,-92.20800417,2015,MOH1
B37/MO17,GAH1_2018,N,15.37,714.2590863,16.5,2,222.5,120,63,60,4.231249915,1.934999943,5.575464231,3.801027214,1.067857163,3.256190501,3.932246866,3.816857059,2.685023025,135.3999973,11.60999966,76.79571342,135.0185695,1.516428607,29.30571451,107.1921429,19.08428529,83.23571379,16.89130574,18.83037901,19.9789379,20.32622599,17.16636637,17.47509449,19.98058203,18.77657547,18.35496912,25.6268748,28.56500022,25.46428012,27.96417186,30.5753573,30.54857133,31.9994497,33.07128549,33.68336431,12.70062498,14.46999963,11.35988473,14.27301998,20.47928579,20.42444427,20.68398901,21.82542842,22.30905548,11.99291119,13.91639365,11.33534042,13.63652225,17.52732154,17.4865078,18.33967815,19.36985553,19.8838857,0.988973219,1,1,1,1,1,1,1,31.50582525,-83.55515025,2018,GAH1
B14A/MO17,GAH2_2017,N,17.05,721.4673236,18,2,227,114,55.5,55.5,5.215806507,2.59000005,0.877047008,6.976424555,36.66571527,11.68990473,2.766634194,6.717714339,5.237281131,161.6900017,18.13000035,10.98809533,219.4985743,69.630002,116.6428568,77.55666748,33.5885717,162.3557151,18.59375843,20.97986943,21.98193589,18.54567619,14.33990901,17.7663424,19.78523868,18.86354985,17.57616326,25.93516134,24.17571449,30.47339418,29.31252372,29.52904774,29.72980419,32.72601502,32.10511542,30.76784952,12.17225799,9.938571385,16.15324828,18.06353156,20.43476164,19.51114297,21.20992787,20.86352373,19.95543778,11.90954616,10.38538115,15.45655397,15.75249851,16.98190469,16.63412837,18.90169131,18.47155665,17.41241638,0.999631335,0.985714285,1,1,1,1,1,1,33.727145,-83.29821525,2017,GAH2
B14A/H95,SCH1_2020,N,12.935,731.1212129,0.5,1.5,101,36,58,57,6.726129055,12.61950016,14.6709951,2.000047064,2.505749965,4.425319405,2.268462711,6.18714998,5.023091868,208.5100007,84.13000107,163.6860008,61.50999924,5.011499929,39.68149965,62.57699943,33.64599986,155.4654979,20.36817608,19.66978326,14.75526058,19.85961082,19.96014466,19.24465486,19.87809105,16.40752662,15.64625104,22.32567731,25.33999968,25.31846332,29.19710574,32.4110003,31.66961065,33.32032281,31.92909988,30.24042268,7.936741977,12.70899997,16.31955663,18.65521183,21.09725013,21.1736526,21.46883008,21.19136654,20.48826235,8.963701593,11.76593586,13.23428606,15.98846211,18.75412521,18.42141037,19.32426,18.56023321,17.40294316,0.984170504,1,0.973950938,1,1,1,1,1,34.62225,-82.736661,2020,SCH1
LH212HT/LH195,GAH1_2015,Y,13.45,720.1801384,0,2,205,105,64,63,4.231249915,0,5.95843649,3.852603143,2.594000032,2.429925956,4.217759372,2.225466652,2.667397826,135.3999973,0,82.56599903,137.5619979,4.851333332,21.8693336,117.5779999,11.12733326,82.68933261,16.59936112,21.58269278,19.11661296,20.61616366,14.5260024,17.86473659,19.792993,19.1551459,18.46432438,25.43281227,26.81500022,26.00854227,27.82657943,29.9603331,30.57562955,31.8228303,33.58693334,33.75221527,12.50374998,10.5999999,12.24448314,13.90452364,20.76811106,20.25348139,20.64254904,22.17719986,22.29090342,11.85447967,11.72664631,11.94062668,13.41492991,17.36422208,17.41455547,18.23714923,19.83066815,19.89653894,0.988973219,1,1,1,1,1,1,1,31.505771,-83.555095,2015,GAH1
B73/MO17,GAH1_2016,N,13.5,734.339176,5,9,200,100,61.5,58,6.466250051,4.395000041,0.566421492,2.549627568,3.17469698,5.859943136,4.096967014,2.330999996,2.476261007,206.9200016,35.16000032,6.21000006,86.0200003,9.52409094,52.42727233,105.6731797,11.65499998,76.76409122,15.95696127,18.25385642,20.33100053,20.74024209,20.01064868,19.54302735,19.38198769,19.26953352,18.21451922,23.62687498,22.98249984,28.56134937,29.4983659,33.37075638,32.62719045,33.25026907,34.51499955,33.94928126,11.29749997,10.47000009,15.64744728,16.2846205,20.78287862,20.61269551,21.56927107,22.51809092,22.40467728,10.53971422,9.962440438,14.36481163,15.11313475,19.02952924,18.56859265,19.26668195,20.34390963,19.99415841,0.993928569,1,1,1,1,1,1,1,31.5079175,-83.55854775,2016,GAH1
PHB47/PHN82,IAH1_2017,Y,16.65,767.1623994,0,3.5,192.5,83.5,65,64,3.40562493,4.965384584,4.756276119,1.833606587,3.814090996,2.221484887,3.670808328,1.81325484,2.347473118,108.9799978,64.54999959,71.28272616,63.78727258,4.177727374,22.83863677,118.9068186,13.7622725,72.03681816,16.19865167,17.41178014,18.84198651,22.07722619,19.57094626,20.6423577,19.65334879,19.12382584,16.87809105,17.11343735,15.37846162,22.95951679,28.09807267,26.50742381,30.27960591,29.79948923,26.92834941,26.37674051,5.413125027,4.923076978,11.46549016,14.16962528,11.61757578,16.65775237,16.66504091,13.38757222,12.41510662,6.530778339,5.768563812,10.45370215,13.71965113,11.94783378,15.64262598,15.39964617,12.71239892,12.1737806,0.629988832,0.555054952,0.946458762,1,1,1,1,0.998130952,41.19924609,-91.49402296,2017,IAH1
2369/LH123HT,DEH1_2019,Y,21.1,709.2390639,0,3.25,252.75,122,59,57.75,4.885483834,0.129999995,2.22754366,2.838879743,7.092619056,13.09007943,2.376059147,7.246095167,5.291338731,151.4499989,1.169999957,29.41999924,87.75142762,13.32785715,117.8107149,70.17642808,38.82285679,163.7607149,18.09422633,22.52754413,19.09832956,21.10549391,16.87992425,18.38683534,17.43790908,14.47643482,15.18822094,17.49129031,20.55777783,23.08374535,28.61102885,30.70333358,31.53571423,31.96636291,30.10673826,28.44137569,7.04516129,9.184444467,14.30050877,18.34149326,20.74333359,21.70119062,22.68293302,22.03347627,19.57253904,6.992168387,8.735510177,11.41430501,15.6056687,17.71122979,18.59296506,19.259015,18.07354239,16.13042035,0.769815656,0.948412699,0.988507504,1,1,1,1,1,38.670675,-75.433225,2019,DEH1
B14A/MO17,DEH1_2016,Y,19.35,668.0491364,2.5,8.5,268,135.5,78.5,75,2.701875035,7.431818214,3.891344367,3.01543569,5.358105985,2.453055546,7.028031294,2.624318106,3.1968602,86.46000111,81.75000036,66.39499953,101.6163622,13.33454524,24.02227264,188.3231781,15.05272682,98.58045408,18.33047433,10.1000462,19.40971708,21.02938559,18.25055452,17.64652011,18.94468483,17.7865103,16.44449792,18.09,16.60090897,19.90208421,27.67646738,27.79681775,28.9030859,31.91379825,31.21812112,30.57169607,5.529687506,9.93090907,10.11289786,16.8589893,18.02106052,19.78800518,21.90881045,21.62957593,20.16127331,6.825577378,7.645605865,8.606637786,14.43603228,14.98401645,16.37610101,18.85541374,18.37748956,17.3477875,0.726328134,0.729318176,0.990929859,1,1,1,1,1,38.6482025,-75.44606,2016,DEH1
LH82/PHB47,MNH1_2016,Y,20.1,731.1212129,0,2,229,110,67.5,67,2.893225764,0.170000008,5.030425272,6.121705224,6.438583227,6.210954471,8.179238718,7.617170889,9.394742846,89.68999869,1.190000057,67.79499967,212.8530004,13.67999972,65.11499918,295.599999,62.20750045,287.315495,17.89673604,26.28611401,18.122652,20.29948324,15.80941307,17.87578139,16.93568638,15.29315111,12.15008877,17.5148386,25.45428576,24.53269911,27.63337014,28.14450006,28.70269129,27.15887183,24.8505404,22.53032632,6.338387108,9.824285678,13.68155402,15.81410535,17.82425013,18.42635015,16.92976579,13.57123889,11.50456607,6.871134867,10.90204251,11.6566452,13.98369248,15.05511886,15.68076391,14.22086787,11.86153057,10.26982602,0.734527645,1,1,1,1,0.999952477,0.98729881,0.936092645,44.06646925,-93.533648,2016,MNH1
TX779/LH195,TXH3_2019,Y,11.205,806.6339346,0,0,212,62.5,68,68,1.71448275,0.072857141,3.656594302,9.095434564,0.409285716,1.207678571,5.355850783,1.246142852,1.574419343,49.71999974,0.50999999,52.00785631,328.2121388,0.592857139,9.661428571,146.4478573,6.531428533,47.51499965,15.42805705,20.52131135,18.76898834,18.57032559,21.42349659,18.85281525,20.14881361,21.03072751,19.84089234,18.45000007,25.76428577,24.43254944,27.27586732,31.09000002,32.37866099,32.72435205,34.04471448,34.98200776,6.826206914,10.35000004,10.67963154,14.78766739,18.65857179,21.85071427,21.02442735,21.79614282,22.6049739,7.457816468,11.1589152,10.85119479,13.46630403,16.91193677,19.11412105,18.84765314,19.77807102,20.01419559,0.749667494,1,0.945308164,1,1,1,1,0.999698925,30.546318,-96.4329965,2019,TXH3
B73/DK3IIH6,INH1_2016,N,15.45,671.2670995,15,23,274.5,151,62.5,61.5,3.034516148,1.382857186,3.106568823,3.966270256,3.500454469,6.752636371,3.451172643,3.198528118,3.024422797,94.07000059,9.680000305,31.26000059,138.8759105,3.500454469,67.52636371,113.8927274,21.6654544,92.62590972,17.63328649,23.97511796,20.66441577,20.1236558,19.9706746,19.39149484,18.14527656,15.98533716,14.62820237,18.74516109,26.31142807,27.84898846,28.12893417,28.20272714,29.14504538,29.16779001,27.95564941,27.07739093,7.950322636,11.69428553,16.31817922,16.10606538,16.8522731,18.34872752,18.58889605,17.50284626,15.03841012,7.677100472,11.91689015,14.24288378,14.4184555,14.68521604,15.7994256,15.9329094,14.92238151,13.51734692,0.852649763,1,1,1,1,1,1,0.996102814,40.4787595,-86.98982,2016,INH1
B37/MO17,IAH2_2019,Y,22.8,705.3775082,7.5,3,245.5,127,65,64,1.624999978,4.994666719,7.633826981,4.023414549,10.53523836,1.22350002,2.763567443,7.261517829,4.773321835,51.99999928,74.92000079,126.7292866,144.3807149,31.60571507,12.2350002,103.2057142,58.23357121,145.3535721,19.40078695,15.59915857,17.73377221,20.37141966,18.69170743,21.11460887,19.04896103,16.46108124,13.94542613,15.78031255,14.78666655,21.30773964,26.90560141,30.4667857,29.3667858,27.70213024,26.0789087,24.69893011,1.823749996,4.276000045,9.222208134,15.06467224,19.71440506,18.17542877,16.74212177,15.32632928,13.45358666,5.188982368,5.371381143,9.150668224,13.41851256,17.10626668,15.79657396,14.44283917,13.04517908,11.92357614,0.546495539,0.532857125,0.866155154,0.998157434,1,1,1,0.956872449,42.06583499,-94.72067796,2019,IAH2
PHN11_PHG47_0251/PHB47,NEH4_2015,N,13.85,798.6984376,0,2,235,105,65,54.5,2.821875036,0,3.668207424,2.0125769,1.951249957,2.654893884,1.684158262,0.190010425,1.166079967,90.30000114,0,33.89000034,59.04687595,1.951249957,28.04999942,59.1787506,1.401875056,35.09749981,18.84220009,27.31064491,20.41342533,20.52862815,19.03072298,18.81303122,18.33826559,17.15407273,12.68489203,24.01437524,30.79399948,29.66091772,30.90712841,30.81250072,28.65153035,29.50292414,26.73776808,20.93262179,13.35843744,15.59799976,18.4981335,19.26878801,20.26031268,17.34358901,16.24316685,11.04417556,7.09840123,11.80342709,15.44887437,16.14310254,17.09436255,17.53736601,15.18702607,15.25106182,11.88303257,8.618375536,0.931774556,1,1,1,1,0.97284651,0.984144349,0.784438609,41.16732275,-96.41663225,2015,NEH4
LH195/PHZ51,NCH1_2015,N,17.525,731.1212129,0,0,236.75,123.25,65,64,3.0140625,9.692856925,3.043308324,7.00027835,0,3.411347986,2.886716411,10.31533332,6.56176467,96.44999999,67.84999847,47.46470581,233.8535261,0,30.12176424,80.44058821,53.94764695,203.4147048,18.56641886,18.5514961,20.38733283,17.18369043,24.39251002,21.03629604,20.30189304,17.27178406,15.58503138,22.38312501,24.94999995,23.18034629,27.40244989,31.82117664,31.76743482,33.30845927,33.22968591,31.16039845,8.592187501,12.50999982,10.48535005,18.40286831,19.92058833,21.46261411,22.34001137,22.61282364,21.92468694,9.285127697,11.46773529,10.15801447,14.99239002,17.87088248,18.60652477,19.71826945,19.84422869,18.53531879,0.955334819,1,0.995809598,1,1,1,1,1,35.29657708,-77.5664625,2015,NCH1
CG44/CGR01,NYH2_2015,Y,15.85,731.1212129,0,0,210.5,87.5,72.5,72,3.814193487,2.822857129,1.806874641,1.427310218,14.28882354,6.323155046,2.553769654,1.263651931,1.70374005,118.2399981,39.5199998,23.5252947,50.99705838,17.86235295,65.18176435,90.43176518,10.71352917,51.74117684,19.21827184,21.58410556,20.44972798,21.8367517,17.34067749,18.34945618,18.49425604,17.55625849,13.84215422,11.26903224,15.86071418,24.70888252,27.12764594,29.5805878,28.55383422,27.75922879,25.11594081,20.73318661,0.676451599,3.065714287,12.68317757,14.19692254,19.48862723,17.66257776,16.12899413,12.03346763,8.797239788,3.458861152,5.522653893,11.65565145,13.2498794,16.56577659,15.18766176,14.16580901,11.53845799,8.731216192,0.261509218,0.568112238,0.971160735,0.994106254,1,0.999864887,0.980226591,0.898542131,42.7324825,-76.65277775,2015,NYH2
B73/PHZ51,NEH4_2017,N,16.35,773.5983256,7,3.5,194.5,65,65,64,4.590322548,9.024000108,0.479867887,3.811963874,0.538484848,1.684924238,2.267850047,4.65714279,3.86350146,142.299999,90.24000108,5.110000134,117.465454,1.615454544,15.13454541,79.63181698,32.59999953,117.4254543,19.43913734,17.21531701,24.1724839,20.95919975,19.50871722,19.21508163,18.90739129,17.69743939,15.39985704,20.62225799,19.52599983,28.59420128,30.06742287,31.22545445,32.42712118,28.61649727,28.47933405,26.83248677,7.519354824,9.509000063,13.57084537,16.75424147,19.44181835,20.40977276,17.16375472,15.74751643,13.71007622,8.50655754,8.450389052,13.62685976,15.58817353,17.34314748,18.36849178,14.97842881,14.34457974,12.87682879,0.797626729,0.881249991,1,1,1,1,1,0.994264069,41.162,-96.409,2017,NEH4
PHG39/TX205,GAH1_2015,Y,13.85,720.1801384,0,2,210,90,64,62,4.231249915,0,5.95843649,3.852603143,2.594000032,2.429925956,4.217759372,2.225466652,2.667397826,135.3999973,0,82.56599903,137.5619979,4.851333332,21.8693336,117.5779999,11.12733326,82.68933261,16.59936112,21.58269278,19.11661296,20.61616366,14.5260024,17.86473659,19.792993,19.1551459,18.46432438,25.43281227,26.81500022,26.00854227,27.82657943,29.9603331,30.57562955,31.8228303,33.58693334,33.75221527,12.50374998,10.5999999,12.24448314,13.90452364,20.76811106,20.25348139,20.64254904,22.17719986,22.29090342,11.85447967,11.72664631,11.94062668,13.41492991,17.36422208,17.41455547,18.23714923,19.83066815,19.89653894,0.988973219,1,1,1,1,1,1,1,31.505771,-83.555095,2015,GAH1
LH82/PHB47,OHH1_2015,Y,14.1,758.1521028,0,1,209,102,59,59,4.820000016,2.056666652,1.801667061,2.430255425,2.070588264,2.75488235,3.664772063,1.623969288,1.874022108,149.4200005,12.33999991,20.27235275,82.00588303,2.23529414,26.29176468,128.0200007,12.16764697,57.18411674,17.71339239,20.831882,20.85048625,20.93566426,20.28419298,19.59839119,17.66236547,17.23782846,14.83481447,16.95064511,28.03666687,26.64173705,29.01382079,31.07970569,30.59522857,27.99762273,26.69097183,23.34659959,5.9283871,15.42166694,14.66308043,16.74801267,19.23764672,18.74322206,16.69895781,13.90980629,10.26308727,6.580773377,14.04730329,13.19467995,15.08203889,17.16864649,16.69143216,14.53513226,12.92347397,10.29932856,0.672569122,1,1,1,1,1,0.994932126,0.947361455,39.855785,-83.66477375,2015,OHH1
B37/H95,TXH1_2015,N,12.2,774.8855108,0,2,138.5,82.5,71.5,69.5,2.435333351,0.886666695,4.529386736,2.992210444,0,5.407499953,3.236240411,4.528416659,2.205666663,73.06000052,5.320000172,54.16999972,113.7899998,0,59.48249948,89.11249819,24.54499996,66.1699999,13.38128519,15.80308406,13.73749678,19.48289484,22.46598899,19.96463979,19.54848583,19.57031498,18.03135075,19.61999995,26.26833312,25.8489028,26.4780255,30.37177098,28.79539756,31.9014052,33.48070828,34.35516661,6.122333375,12.74499997,15.39155332,13.69439061,15.83385423,15.9580683,20.41172374,21.45270844,23.93220836,7.516768444,12.28221354,13.06030889,12.7550996,15.35592881,14.67426974,18.11040569,19.30603111,20.37775841,0.822428569,1,0.992325397,0.994092815,1,1,1,0.999431249,30.54708625,-96.43393475,2015,TXH1
2369/LH123HT,WIH1_2016,Y,22.3,790.9753262,0,1,267.5,141.5,74.5,75.5,2.076129018,1.94750002,4.430291291,4.068377178,0.606590927,8.204471101,6.520888551,7.285801826,4.413191112,64.35999957,23.37000024,50.66818307,153.9786358,1.017727305,87.41727302,222.4604529,58.95590957,134.9268184,19.92805462,20.9108026,19.53546339,20.65690042,18.97296773,19.76360502,17.50876714,15.21370917,12.23883056,16.70258062,17.57583312,27.08182728,26.49130857,27.22159082,28.35833875,27.6700069,25.1458901,22.98674642,3.327419363,4.990833327,14.04723809,14.47423798,17.58636334,16.7186736,17.17399145,14.32051147,12.5735533,5.875866612,6.419508974,12.98865398,12.92924289,14.50224274,14.72651534,14.55658067,12.23924581,10.7486024,0.621198161,0.7653869,1,1,1,0.999967803,0.998306277,0.970976554,43.05632525,-89.53194975,2016,WIH1
CG44/CGR01,TXH1_2016,Y,17.7,731.1212129,0,2,143.5,34.5,65.5,63.5,1.633666698,16.13999993,0.99702422,4.719865603,0.129393939,3.277272727,13.06232457,0.703636358,1.017125621,49.01000094,112.9799995,14.5313639,177.3549991,0.33090909,36.05,378.0672674,3.179999969,30.53454577,13.9726292,10.72874144,17.88940951,17.80076093,20.55685321,19.77792414,17.90480363,20.8338604,20.14326093,22.32500016,23.95000022,24.48309256,26.40498513,28.5388636,28.63545455,30.12870319,34.35404525,35.58838723,6.034666632,13.33571414,9.675379644,13.12758779,15.78530267,16.33764454,20.13902853,23.08186362,24.00118421,8.473379033,11.29783551,10.5045992,12.46111665,14.43681279,14.72204148,17.12368238,20.53225114,20.87599038,0.915869048,1,0.972225207,1,1,1,1,1,30.54708625,-96.43393475,2016,TXH1
B37/MO17,NYH3_2018,N,25.42,714.0016493,17,20,213,112.5,71,69.5,4.152903213,0.855714253,1.333281551,1.973054112,19.58384622,4.14286014,1.827699262,3.76173812,1.90156246,128.7399996,5.989999771,17.49230713,69.9676929,40.09153858,44.76538462,69.41461665,34.65000019,57.30153882,20.64383799,23.73438372,20.91517994,21.34827616,15.57480097,18.28181198,18.59806785,13.9987834,13.21485935,12.82806446,24.72714315,24.74142799,27.59651287,28.68307664,28.50629367,27.06434367,24.34345721,20.06623908,1.452258048,10.48999977,13.10088293,14.82547593,19.13846159,17.45270631,15.13507682,13.07327349,8.10410419,4.113027627,10.74522894,11.82730489,13.73068126,15.93834835,15.05075648,13.50240047,11.64767513,8.352187515,0.351670502,1,0.973040659,0.995029228,1,0.992439429,0.946636381,0.843044516,42.7261605,-76.6556765,2018,NYH3
B14A/OH43,MOH1_2_2018,N,17.63333333,731.1212129,0,2,222.3333333,109.3333333,54,51,4.419032262,0.120000001,6.56660792,4.995913726,0,0.865952386,4.867908623,7.318145406,3.629241153,136.9900001,0.840000004,71.60142667,150.6285707,0,7.793571472,145.6157139,39.85928573,112.0157138,18.39395777,18.46565301,20.1607481,20.70593221,19.87326009,21.97749135,18.06982858,17.46468943,16.31914076,19.5254839,22.76714298,27.16554273,29.60936822,31.6271427,32.32420578,29.51628185,29.85375934,27.04843165,7.99741943,14.14714282,16.43732974,18.81172612,21.79964249,20.71007941,19.44316189,19.21155699,15.91814144,7.992986492,11.1555316,14.00535673,16.26359619,18.7133926,18.51714259,16.54699664,16.60044059,13.86670431,0.872361758,1,1,1,1,1,1,0.995607144,38.89555425,-92.20964575,2018,MOH1
B97/PHB47,ARH1_2016,N,15.15,805.7779564,0.5,3,183,104.5,69,67,12.62656226,6.052222146,7.859593922,4.411032368,3.769999921,0.095833332,1.834913509,2.950363528,2.931715563,404.0499923,54.46999931,101.1431819,160.496816,7.539999843,0.824999988,46.86636396,14.75181764,90.88318244,16.40757677,14.40289243,17.41332625,19.31399891,17.48165414,22.15918181,19.7781726,18.25208951,17.22596404,20.37124979,20.08666674,25.25253507,26.30445415,29.50681779,32.27019592,33.22074717,33.17606868,32.75999986,8.53968759,10.04999993,14.84655054,15.67568893,20.10318184,20.90335237,23.01320039,23.46584116,23.35664232,8.376579132,8.623890092,12.4075181,13.38568101,16.80499981,18.57005087,20.09384313,20.24603027,19.89808151,0.932198657,0.999841266,1,1,1,1,1,1,34.72952,-90.7603555,2016,ARH1
B14A/H95,NCH1_2020,N,17.25,738.522528,0.5,3,208.125,98.4375,65,64,3.811250031,6.583749771,1.870150701,7.593384547,0.8842857,2.636686467,3.330713381,6.121142871,7.323433169,121.960001,52.66999817,29.28357046,255.9407139,2.652857099,23.48571392,94.03142862,30.32857149,227.0264283,17.79310012,18.2030313,21.90311614,16.62410426,22.73441878,20.97653859,20.54309533,18.15988809,15.65141399,21.6678125,23.21999979,23.34870433,27.04964214,28.2173808,30.95634976,33.07043217,33.2972859,31.24656685,8.082812505,11.53125006,9.51933213,18.09668861,18.19142909,20.58560522,22.1124513,22.85800005,21.91055295,8.88590596,10.34544598,9.896418393,14.69404398,15.249625,17.76881847,19.50312724,19.99035698,18.5620876,0.935200903,1,0.995619773,1,1,1,1,1,35.30009892,-77.57131746,2020,NCH1
LH212HT/LH195,NEH2_2015,N,15.4,753.0033618,0,1,229,110,95.5,95.5,1.358750008,3.755999994,3.031264216,1.286090902,0.286666671,1.657187527,3.751759362,0.157499999,0.616713691,43.48000026,37.55999994,66.29000026,43.49999976,0.860000014,16.57187527,117.6431233,0.944999993,18.99062441,19.53783247,19.98656282,18.8528682,23.65152674,23.21232343,22.7312118,19.62767813,21.61948185,18.20728239,15.03874992,23.15200024,18.66927583,30.14561768,32.37510385,32.60862507,30.36489819,32.31320816,28.31448706,-2.426562488,5.230999994,5.264051067,13.5723423,16.5714581,16.13087479,15.9646131,15.56819047,11.19634675,4.192485347,8.478296732,6.894904354,14.37610508,16.560328,16.47008009,15.3434088,16.05261291,12.83173005,0.519497764,0.97653572,0.809891265,1,1,1,1,0.922021698,41.0514495,-100.7471915,2015,NEH2
CG60/LH162,KSH1_2015,N,15.25,736.9135464,0,2,229,110,85,83.5,0.688124985,3.518749885,2.537239536,4.634326915,6.340784251,4.013516285,5.753010874,3.95559662,1.81791271,22.01999953,28.14999908,47.40176476,147.1705882,9.165882307,38.18235242,161.646473,23.74705871,56.35529401,19.48910828,20.34062409,19.21958791,21.30664108,18.00351726,18.80818483,18.60066932,17.86718078,18.78253622,17.69406253,22.96750021,19.85221485,29.31892792,29.11705877,31.41670577,31.16760655,30.50505886,29.96204923,3.297187492,8.938749969,8.792561365,16.998743,18.09705929,19.84989561,20.1377744,20.03282345,17.06836811,6.184738542,9.476230158,8.381520189,15.38816616,15.61697663,17.65547515,17.65556265,17.32458654,15.75670183,0.6778125,1,0.850138809,1,1,1,1,0.98304554,39.21641775,-96.60482225,2015,KSH1
F42/MO17,ARH2_2017,N,15.65,731.1212129,0,2,188,86,65.5,63,2.789999995,15.83285686,4.776016413,2.853949028,1.142500003,5.651818152,3.905948255,2.4430325,4.688621725,89.27999985,110.829998,61.6427269,88.95863769,3.003181826,52.42863608,105.2449988,13.33772746,145.3472735,17.14489296,19.09436907,20.93439511,19.65670258,19.84409681,19.1211903,18.81176407,19.65259997,17.546866,23.65656266,24.55142866,25.38541455,28.9612549,32.40098458,30.84565692,31.84241473,32.83627249,30.20087953,12.07343751,12.16142872,12.7110645,18.0477898,21.78734854,20.24410098,21.87781566,22.25639174,20.26112908,10.83878158,11.22094165,11.88579938,15.62584547,19.09416656,17.54487895,18.8103181,19.27693671,17.25265116,0.991674107,1,0.97315368,1,1,1,1,1,35.67418125,-90.0752695,2017,ARH2
PHB47/PHZ51,DEH1_2015,Y,17.63333333,706.2356317,0,0.333333333,251,108.6666667,63,61,2.877187484,6.848000002,1.658122271,2.899811139,0.533124998,6.398055441,4.542065261,4.666333417,5.694818618,92.06999949,68.48000002,26.86312445,94.40374921,0.778750002,57.58249897,115.8581242,26.73625046,176.5393772,18.09789148,17.20138936,20.11151884,21.0089777,21.53492481,19.24730516,17.70191113,15.05628078,15.14846735,16.82656264,19.24400005,20.72376954,27.68890342,31.56656283,31.86354174,32.09465687,30.43364003,29.09395151,6.265937505,9.858999991,10.7453803,17.67876376,20.38750017,21.35659703,22.77220607,22.28250884,20.56647162,6.521960329,8.412914767,9.229957748,14.85993723,17.9770315,18.58170739,19.36170697,18.35807444,16.86736745,0.750435273,0.870857151,0.962682184,1,1,1,1,1,38.62935675,-75.4656925,2015,DEH1
TX714/PHZ51,NEH1_2015,N,14.5,790.3317336,0,2,270,140,65,57,2.959062506,0.753999996,4.745632833,2.187040691,0.179999996,3.601448917,1.548000793,0.057812502,1.589214364,94.69000018,3.769999981,46.84999943,63.50812512,0.239999995,39.12187557,55.49499987,0.586250016,47.85812447,19.07194562,25.84699936,20.00593662,19.96245842,20.96463704,17.86296284,18.31175333,17.30405645,12.3794141,23.74906254,30.51399994,29.13009987,30.74148671,30.73750019,28.43858622,29.13031746,26.88374984,20.12342532,13.19218739,15.46999989,18.04036499,19.18092822,19.11281252,17.33248289,15.92131484,11.1533021,6.525200269,11.64481375,15.25955733,15.68336601,16.96891106,16.93845514,15.07345461,14.95183393,12.01070089,8.15887847,0.924598212,1,1,1,1,0.96969665,0.982957588,0.758540943,41.290979,-96.41664325,2015,NEH1
B73/PHN82,NCH1_2019,N,17.7,731.1212129,0,2,229,110,65,64,2.191129027,0,0.107342031,4.775073233,0.466011907,4.533660718,6.24100048,2.370892844,2.941295675,67.92499983,0,1.347142833,143.4146411,0.94178571,36.26928575,165.0100003,13.54249993,91.02821354,18.69452832,25.30126673,21.77382428,19.07893176,22.56876209,20.7892765,19.22903807,18.96679552,16.71087377,25.69580629,28.76666609,32.29891346,30.08294473,33.3002377,33.83080339,32.75741781,32.04927549,30.79691829,13.34274195,12.19133326,19.06280588,18.61089734,20.56851188,21.23558053,21.08131414,19.9046464,19.77832645,12.18436683,13.33597385,17.64216348,16.39126772,18.88342746,19.44075481,18.8247811,17.98080212,17.31161093,1,1,1,1,1,1,1,1,35.67010175,-78.510504,2019,NCH1
B73/DK3IIH6,ARH2_2017,N,15.6,731.1212129,0,2,176.5,80,64.5,63,2.789999995,15.83285686,4.776016413,2.853949028,1.142500003,5.651818152,3.905948255,2.4430325,4.688621725,89.27999985,110.829998,61.6427269,88.95863769,3.003181826,52.42863608,105.2449988,13.33772746,145.3472735,17.14489296,19.09436907,20.93439511,19.65670258,19.84409681,19.1211903,18.81176407,19.65259997,17.546866,23.65656266,24.55142866,25.38541455,28.9612549,32.40098458,30.84565692,31.84241473,32.83627249,30.20087953,12.07343751,12.16142872,12.7110645,18.0477898,21.78734854,20.24410098,21.87781566,22.25639174,20.26112908,10.83878158,11.22094165,11.88579938,15.62584547,19.09416656,17.54487895,18.8103181,19.27693671,17.25265116,0.991674107,1,0.97315368,1,1,1,1,1,35.67418125,-90.0752695,2017,ARH2
B73/PHN82,KSH1_2016,N,14.4,777.4598813,0,2,180,90,89,89,0.381562503,5.593749881,9.031136959,3.981909994,0,0.897724769,5.011421387,3.322424253,5.670073263,12.2100001,44.74999905,140.9509078,148.5090918,0,8.374091108,139.438637,19.93454552,175.7722711,18.43315426,14.04582843,18.34613738,20.88446512,22.70328743,20.59441801,18.34986672,18.15379387,17.32510191,19.15124996,21.70124984,22.33901244,27.19377063,36.31272689,35.17540036,32.01078432,33.85633352,30.76895891,2.130625044,11.46499991,9.568238579,14.2621368,21.58727247,22.04353923,20.78061301,22.71134866,19.49139311,6.3158573,9.667291017,9.626890379,13.35418843,19.56599107,19.14397536,18.06824645,19.12054732,17.03744615,0.741573662,1,0.921279778,0.986042268,0.991287871,0.998977631,0.993550002,1,39.14480675,-96.62898225,2016,KSH1
PB80/PHZ51,GAH1_2015,N,14.2,814.1446605,0.25,9.5,207.5,105,60.25,58,4.231249915,0,5.95843649,3.852603143,2.594000032,2.429925956,4.217759372,2.225466652,2.667397826,135.3999973,0,82.56599903,137.5619979,4.851333332,21.8693336,117.5779999,11.12733326,82.68933261,16.59936112,21.58269278,19.11661296,20.61616366,14.5260024,17.86473659,19.792993,19.1551459,18.46432438,25.43281227,26.81500022,26.00854227,27.82657943,29.9603331,30.57562955,31.8228303,33.58693334,33.75221527,12.50374998,10.5999999,12.24448314,13.90452364,20.76811106,20.25348139,20.64254904,22.17719986,22.29090342,11.85447967,11.72664631,11.94062668,13.41492991,17.36422208,17.41455547,18.23714923,19.83066815,19.89653894,0.988973219,1,1,1,1,1,1,1,31.505771,-83.555095,2015,GAH1
F42/MO17,SCH1_2020,N,12.47,731.1212129,1,4.5,94.5,35,58.5,57.5,6.726129055,12.61950016,14.6709951,2.000047064,2.505749965,4.425319405,2.268462711,6.18714998,5.023091868,208.5100007,84.13000107,163.6860008,61.50999924,5.011499929,39.68149965,62.57699943,33.64599986,155.4654979,20.36817608,19.66978326,14.75526058,19.85961082,19.96014466,19.24465486,19.87809105,16.40752662,15.64625104,22.32567731,25.33999968,25.31846332,29.19710574,32.4110003,31.66961065,33.32032281,31.92909988,30.24042268,7.936741977,12.70899997,16.31955663,18.65521183,21.09725013,21.1736526,21.46883008,21.19136654,20.48826235,8.963701593,11.76593586,13.23428606,15.98846211,18.75412521,18.42141037,19.32426,18.56023321,17.40294316,0.984170504,1,0.973950938,1,1,1,1,1,34.62225,-82.736661,2020,SCH1
B14A/H95,NYH3_2020,N,14.45,746.5674357,0.5,10,247.5,127.5,68.5,68.5,4.422257993,0,1.373865683,3.203515064,6.161458224,3.578657229,2.247619776,1.339995863,2.270768823,137.0899978,0,18.69000064,113.6731244,12.19749978,37.86125033,87.74812532,17.041875,68.54562519,20.94560956,21.78233427,21.55267425,20.63825651,19.18147684,18.87690393,17.75633085,13.93943947,11.5316014,14.59225801,27.97729172,23.60945411,27.89842024,28.17958339,28.76829368,26.51617347,21.47489044,18.12990527,2.644717742,15.68266662,11.3508871,15.53912014,16.43281273,17.50013456,14.53010818,10.52921434,6.891416056,5.000434995,14.04753459,10.70035646,14.11697706,14.42792892,15.19886376,13.03509367,9.604727821,7.356101809,0.471947005,1,0.969562211,0.99553941,1,0.989555914,0.903066166,0.764418635,42.73227475,-76.6513705,2020,NYH3
TX777/LH195,KSH1_2015,N,15.3,760.0828806,0,2,229,110,85,83.5,0.688124985,3.518749885,2.537239536,4.634326915,6.340784251,4.013516285,5.753010874,3.95559662,1.81791271,22.01999953,28.14999908,47.40176476,147.1705882,9.165882307,38.18235242,161.646473,23.74705871,56.35529401,19.48910828,20.34062409,19.21958791,21.30664108,18.00351726,18.80818483,18.60066932,17.86718078,18.78253622,17.69406253,22.96750021,19.85221485,29.31892792,29.11705877,31.41670577,31.16760655,30.50505886,29.96204923,3.297187492,8.938749969,8.792561365,16.998743,18.09705929,19.84989561,20.1377744,20.03282345,17.06836811,6.184738542,9.476230158,8.381520189,15.38816616,15.61697663,17.65547515,17.65556265,17.32458654,15.75670183,0.6778125,1,0.850138809,1,1,1,1,0.98304554,39.21641775,-96.60482225,2015,KSH1
B14A/MO17,MIH1_2016,N,20.1,707.9518787,0,17.5,245,139.5,65,63.5,3.213870927,0.372000003,1.277668238,2.072144594,0.204761899,2.382636341,6.277866916,3.129595251,4.115734243,99.62999874,1.860000014,16.77857134,74.4033328,0.614285696,24.34142835,217.3680916,23.88571438,123.5814282,20.04481233,22.69628944,22.57460654,21.19066928,19.62511718,19.41470496,17.43536011,14.16523572,12.41239439,17.74322581,29.20999985,25.57947765,28.1508514,27.23547651,30.32783564,28.27294529,26.6388532,22.50219404,5.299677434,16.33600006,11.90361174,14.70447611,15.74579377,17.52671,16.25511672,15.58650841,10.86825081,6.615827776,14.89908974,11.62365975,13.82943527,13.70908531,16.01583991,14.48649579,13.48265,10.09129455,0.734400922,1,1,1,1,0.999987733,0.99326559,0.936590208,42.41206675,-84.2952625,2016,MIH1
F42/OH43,INH1_2016,N,17.8,666.7619512,13.5,21,279.5,142.5,61,60,3.034516148,1.382857186,3.106568823,3.966270256,3.500454469,6.752636371,3.451172643,3.198528118,3.024422797,94.07000059,9.680000305,31.26000059,138.8759105,3.500454469,67.52636371,113.8927274,21.6654544,92.62590972,17.63328649,23.97511796,20.66441577,20.1236558,19.9706746,19.39149484,18.14527656,15.98533716,14.62820237,18.74516109,26.31142807,27.84898846,28.12893417,28.20272714,29.14504538,29.16779001,27.95564941,27.07739093,7.950322636,11.69428553,16.31817922,16.10606538,16.8522731,18.34872752,18.58889605,17.50284626,15.03841012,7.677100472,11.91689015,14.24288378,14.4184555,14.68521604,15.7994256,15.9329094,14.92238151,13.51734692,0.852649763,1,1,1,1,1,1,0.996102814,40.4787595,-86.98982,2016,INH1
TX714/PHZ51,NEH2_2015,N,16.6,742.70588,0,1,229,110,96,96,1.358750008,3.755999994,3.031264216,1.286090902,0.286666671,1.657187527,3.751759362,0.157499999,0.616713691,43.48000026,37.55999994,66.29000026,43.49999976,0.860000014,16.57187527,117.6431233,0.944999993,18.99062441,19.53783247,19.98656282,18.8528682,23.65152674,23.21232343,22.7312118,19.62767813,21.61948185,18.20728239,15.03874992,23.15200024,18.66927583,30.14561768,32.37510385,32.60862507,30.36489819,32.31320816,28.31448706,-2.426562488,5.230999994,5.264051067,13.5723423,16.5714581,16.13087479,15.9646131,15.56819047,11.19634675,4.192485347,8.478296732,6.894904354,14.37610508,16.560328,16.47008009,15.3434088,16.05261291,12.83173005,0.519497764,0.97653572,0.809891265,1,1,1,1,0.922021698,41.0514495,-100.7471915,2015,NEH2
PHN11_OH43_0001/PHB47,OHH1_2016,N,15.15,722.7545088,0,2,265.5,119.5,65,64,4.328064465,1.776000023,3.915145208,2.580740659,3.890757626,4.17049496,5.079069289,3.957741935,3.614594814,134.1699984,8.880000114,44.70363614,85.9177286,9.330454675,39.94818193,160.1854537,27.69772666,110.1186362,18.3437644,22.24283047,20.73146956,20.35982518,19.15233416,18.82824642,16.72048491,17.98730955,14.71797893,19.63580645,29.63200035,26.56953589,28.59263588,29.59106055,30.69283836,29.21689182,28.27188687,26.30588322,8.120967747,16.89599972,14.9739129,16.70528562,18.30318191,19.74443426,18.9160149,15.44500838,13.40262461,8.117657052,15.32722009,13.17028057,14.81678154,15.96857054,17.23303236,16.11713161,14.21502474,12.5845871,0.859331788,1,1,1,1,1,0.999172078,0.989049277,39.860924,-83.6755995,2016,OHH1
F42/OH43,GAH1_2020,N,21.855,694.9513078,0.5,1,190,82.5,68,63,4.279687563,0,6.08243138,3.811420537,2.267976227,2.530000055,3.98378478,1.741833346,2.910207357,136.950002,0,84.37571335,135.9278565,4.833571502,22.77000049,107.9378566,9.115000069,90.21642806,16.61263859,21.5972875,19.10636237,20.72286693,14.54687945,18.15584731,20.08605453,19.68634889,18.27781732,25.37343752,26.77166684,25.94144379,27.77824619,29.55357116,30.6518255,31.78195276,33.48178532,33.56322575,12.43875006,10.55666669,12.19035929,13.80720781,20.58059497,20.26111097,20.57386992,21.96838095,22.25456222,11.80508215,11.69113274,11.88989525,13.35432975,17.06708306,17.45646823,18.17996521,19.67032327,19.80166763,0.988537947,1,1,1,1,1,1,1,31.5079775,-83.558517,2020,GAH1
B73/MO17,ONH2_2016,N,20.95,694.4364337,2,19,243.5,129,78,74.5,1.435483875,1.740833327,1.463802716,3.022687524,0.150999999,1.134659085,3.046446673,1.693503778,2.765116665,44.50000012,20.88999993,18.84600039,117.1590009,0.150999999,12.25349994,101.0444998,13.16149993,84.26899996,19.72563927,22.19747464,21.68954048,21.77365896,18.98664827,19.92678304,16.69906166,15.68152671,12.9072029,14.10741935,17.58083336,26.00758685,26.04894451,27.78099985,28.79287246,28.2480382,25.9224786,23.75348014,4.257419363,7.13166666,15.03828811,14.1477789,17.72699971,17.33924119,18.24672102,15.95494667,14.17526013,5.131346137,6.986841243,12.85116395,12.65171997,14.84296497,15.26027205,15.31782021,13.26534606,11.67621189,0.511244241,0.799851209,1,1,1,1,1,0.975829282,42.4530035,-81.88279875,2016,ONH2
CG119/CG108,NYH1_2018,N,16.65,731.1212129,0,2,229,110,61.5,59.5,4.394516057,1.637142931,0.546464292,3.461265884,6.062261837,4.338061718,2.067540981,1.177456758,2.359527655,136.2299978,11.46000051,7.340000123,113.5449994,14.95785693,45.27285745,83.63714323,15.50214277,71.28500016,21.14905797,19.51909583,22.50012197,20.49014312,17.37909559,18.62357236,17.54437735,14.42309006,11.11333684,16.43838702,24.34714304,24.48084385,28.4079325,28.47095262,28.85558784,26.25577716,21.21730113,17.53723965,4.181612903,13.18428578,11.78804566,16.02970596,18.15166677,17.53428468,14.37510127,9.649634667,6.532510054,6.046172102,11.82070517,11.18993529,14.50776692,15.35223703,15.26441478,12.8637381,9.179788733,7.084201569,0.564688941,0.946581643,0.98880424,0.99833546,1,0.984010821,0.898581807,0.740508559,42.72940418,-76.65161667,2018,NYH1
B37/OH43,NEH1_2015,N,14.5,794.1932893,0,2,230,100,65,56,2.959062506,0.753999996,4.745632833,2.187040691,0.179999996,3.601448917,1.548000793,0.057812502,1.589214364,94.69000018,3.769999981,46.84999943,63.50812512,0.239999995,39.12187557,55.49499987,0.586250016,47.85812447,19.07194562,25.84699936,20.00593662,19.96245842,20.96463704,17.86296284,18.31175333,17.30405645,12.3794141,23.74906254,30.51399994,29.13009987,30.74148671,30.73750019,28.43858622,29.13031746,26.88374984,20.12342532,13.19218739,15.46999989,18.04036499,19.18092822,19.11281252,17.33248289,15.92131484,11.1533021,6.525200269,11.64481375,15.25955733,15.68336601,16.96891106,16.93845514,15.07345461,14.95183393,12.01070089,8.15887847,0.924598212,1,1,1,1,0.96969665,0.982957588,0.758540943,41.290979,-96.41664325,2015,NEH1
PHB47/PHZ51,KSH1_2016,N,14.56666667,754.2905471,0,16.66666667,165,65,84.66666667,84.66666667,0.381562503,5.593749881,9.031136959,3.981909994,0,0.897724769,5.011421387,3.322424253,5.670073263,12.2100001,44.74999905,140.9509078,148.5090918,0,8.374091108,139.438637,19.93454552,175.7722711,18.43315426,14.04582843,18.34613738,20.88446512,22.70328743,20.59441801,18.34986672,18.15379387,17.32510191,19.15124996,21.70124984,22.33901244,27.19377063,36.31272689,35.17540036,32.01078432,33.85633352,30.76895891,2.130625044,11.46499991,9.568238579,14.2621368,21.58727247,22.04353923,20.78061301,22.71134866,19.49139311,6.3158573,9.667291017,9.626890379,13.35418843,19.56599107,19.14397536,18.06824645,19.12054732,17.03744615,0.741573662,1,0.921279778,0.986042268,0.991287871,0.998977631,0.993550002,1,39.14480675,-96.62898225,2016,KSH1
B73/PHZ51,MOH1_2_2020,N,16.675,731.1212129,0,0.5,214.5,131.5,55.5,55,2.765624954,8.119999743,10.23533287,1.900197364,6.862941181,7.496322061,3.61617108,2.901626778,3.303786197,88.49999854,40.59999871,96.12411712,56.39411764,8.455882353,68.01117661,117.8082348,21.52705885,101.3270584,18.75466287,21.25211372,22.58999711,20.28617166,20.64270943,17.48834951,18.15902921,17.2011884,14.69335169,22.18656257,30.76999931,28.84882905,30.74339714,30.90558787,31.2308437,28.74780649,29.21697892,24.17436303,12.23093753,19.21800041,17.30516703,20.0610583,19.70343171,21.50444419,18.15153395,17.40346693,12.7162556,10.41798935,16.99399986,15.18178367,17.42227064,17.30450979,18.37429674,15.5665539,15.53509051,11.41105442,0.936383936,1,1,1,1,1,0.996694042,0.965786214,38.8958275,-92.2071575,2020,MOH1
PB80/PHZ51,INH1_2016,N,17.65,731.7648055,21,6,287,151,63.5,64,3.034516148,1.382857186,3.106568823,3.966270256,3.500454469,6.752636371,3.451172643,3.198528118,3.024422797,94.07000059,9.680000305,31.26000059,138.8759105,3.500454469,67.52636371,113.8927274,21.6654544,92.62590972,17.63328649,23.97511796,20.66441577,20.1236558,19.9706746,19.39149484,18.14527656,15.98533716,14.62820237,18.74516109,26.31142807,27.84898846,28.12893417,28.20272714,29.14504538,29.16779001,27.95564941,27.07739093,7.950322636,11.69428553,16.31817922,16.10606538,16.8522731,18.34872752,18.58889605,17.50284626,15.03841012,7.677100472,11.91689015,14.24288378,14.4184555,14.68521604,15.7994256,15.9329094,14.92238151,13.51734692,0.852649763,1,1,1,1,1,1,0.996102814,40.4787595,-86.98982,2016,INH1
LH82/PHB47,WIH2_2016,N,18.625,759.7610843,0,2.75,254,122,60.25,60.75,2.185483832,6.563333432,3.447094458,4.124693788,6.707159024,6.158880111,5.945293137,1.654273513,4.758742445,67.74999878,39.38000059,44.45545418,149.2718189,18.91272705,63.86318129,228.7613642,17.11772738,143.1609097,20.07161814,17.64681498,20.48120554,20.03716075,21.00097141,18.73971629,16.31911952,14.94670844,10.3303759,18.34677419,27.65666644,25.59626749,27.3504729,29.44640147,29.15349181,26.70938079,24.21329019,20.37268081,4.840000014,15.2516667,12.43660419,15.21846351,16.18390156,17.81047537,15.29826924,12.0891497,9.537770322,6.76617685,13.67923016,11.77429452,13.6256578,15.0809804,15.56950508,13.35737665,11.10536848,8.849967039,0.729688939,1,1,1,1,0.998061418,0.979766622,0.886131912,43.32649075,-89.33882925,2016,WIH2
F42/OH43,NEH2_2018,Y,14.95,766.5188068,0,2,286.5,113,65,64,1.223548393,0.707272736,4.763911635,2.422660693,9.359230876,1.187769238,2.22139935,1.060615372,2.655643509,37.93000019,7.780000091,61.58923048,72.52538565,18.71846175,11.03461544,72.02230704,6.795384554,82.07230774,19.8632896,17.86074517,17.24350838,22.63499015,18.62862352,21.21286184,19.62237806,18.45252819,16.56870138,17.6919355,17.47909086,23.04657186,30.81178887,30.82346183,31.15499996,29.41523597,30.138927,26.57117624,3.026129,6.979090886,13.86801705,18.31582591,19.94076905,19.05673485,17.52505525,17.69200753,12.69636803,6.275299993,6.965919572,11.10889174,16.66188215,17.38211544,17.1119836,15.61857368,16.09025205,12.68735507,0.68033411,0.762240243,1,1,1,0.996687975,0.997695055,0.910447978,41.38042275,-96.55988375,2018,NEH2
PHW52/PHN82,MNH1_2016,N,24.55,731.1212129,0,2,229,110,72,70,2.893225764,0.170000008,5.030425272,6.121705224,6.438583227,6.210954471,8.179238718,7.617170889,9.394742846,89.68999869,1.190000057,67.79499967,212.8530004,13.67999972,65.11499918,295.599999,62.20750045,287.315495,17.89673604,26.28611401,18.122652,20.29948324,15.80941307,17.87578139,16.93568638,15.29315111,12.15008877,17.5148386,25.45428576,24.53269911,27.63337014,28.14450006,28.70269129,27.15887183,24.8505404,22.53032632,6.338387108,9.824285678,13.68155402,15.81410535,17.82425013,18.42635015,16.92976579,13.57123889,11.50456607,6.871134867,10.90204251,11.6566452,13.98369248,15.05511886,15.68076391,14.22086787,11.86153057,10.26982602,0.734527645,1,1,1,1,0.999952477,0.98729881,0.936092645,44.06646925,-93.533648,2016,MNH1
PHW52/PHN82,DEH1_2015,Y,21.55,698.941582,0,0,239.5,104.5,64.5,62,2.877187484,6.848000002,1.658122271,2.899811139,0.533124998,6.398055441,4.542065261,4.666333417,5.694818618,92.06999949,68.48000002,26.86312445,94.40374921,0.778750002,57.58249897,115.8581242,26.73625046,176.5393772,18.09789148,17.20138936,20.11151884,21.0089777,21.53492481,19.24730516,17.70191113,15.05628078,15.14846735,16.82656264,19.24400005,20.72376954,27.68890342,31.56656283,31.86354174,32.09465687,30.43364003,29.09395151,6.265937505,9.858999991,10.7453803,17.67876376,20.38750017,21.35659703,22.77220607,22.28250884,20.56647162,6.521960329,8.412914767,9.229957748,14.85993723,17.9770315,18.58170739,19.36170697,18.35807444,16.86736745,0.750435273,0.870857151,0.962682184,1,1,1,1,1,38.62935675,-75.4656925,2015,DEH1
B97/PHB47,WIH1_2017,Y,17.7,731.1212129,0,2,229,110,65,64,3.894838602,1.694000003,3.49156578,6.251914317,26.29780264,12.3515148,1.782621048,1.031219451,2.019413967,120.7399967,16.94000003,60.77000046,238.2086357,55.48409002,148.2181776,77.27181808,11.13545426,60.74545419,17.96009764,21.56986256,18.71582301,20.73316127,19.69440102,19.58726141,19.1692292,15.69151392,12.21998586,16.03451621,20.2119998,20.22998088,26.71060266,27.00553033,27.16428033,24.80808837,24.03641879,21.845045,3.37838715,6.260000002,9.268565708,14.6662765,15.35575767,16.21109857,13.17589581,11.52521119,9.509429623,5.507434962,7.720411242,8.664602637,13.14891279,13.46068042,13.9043846,11.67856357,10.90146065,9.608265423,0.606900932,0.8735357,0.867893568,1,1,0.998220242,0.971647403,0.89569217,43.05668125,-89.5308135,2017,WIH1
B37/OH43,GAH2_2020,N,16.175,704.7339156,1,42,239,136.25,59,57.25,4.57387094,0.441111114,8.353941854,2.596292498,5.733571683,2.103095203,2.179001438,2.485142878,3.918548365,141.7899991,3.970000029,91.39071568,80.77428585,11.41500051,18.92785683,57.71499962,12.42571439,121.4749993,20.66171874,23.27184486,17.58943298,19.5164109,18.75300796,20.35385684,20.26001561,17.11426864,16.01109332,24.32935487,22.81222216,27.25049476,29.76903398,31.23452386,32.73428517,34.13891635,33.4245718,31.64458511,9.683548431,7.437777784,15.07002369,18.41195949,20.46821458,20.95039675,21.2406723,21.91714281,20.83905522,10.34437265,8.95024402,13.55540875,16.15181668,17.85136922,18.84234096,19.40061188,19.58004094,18.23728962,0.993479262,1,1,1,1,1,1,1,33.72355555,-83.30265185,2020,GAH2
W10005_0107/PHB47,NCH1_2016,N,14.45,731.1212129,1.5,7.5,206,101,65,64,2.901562452,3.125714166,7.137907935,4.683034439,4.3177271,0.863030289,5.226283407,5.104181825,4.507668668,92.84999847,21.87999916,91.86318315,160.7736342,8.497726928,8.495454409,139.9318182,26.12772732,139.7377287,16.36857818,22.27138465,15.49498623,18.72849078,21.8793198,21.8664799,18.529992,18.05675722,17.32656161,20.86125001,25.58571407,25.68946269,27.1054564,30.20318166,31.0559697,32.42423852,33.59766701,33.26035177,7.692187494,8.212857212,14.27003911,16.07300028,18.02681784,18.80169681,21.2796372,22.62190931,22.7218182,8.383421821,10.43985322,12.46468669,13.95599298,16.17160042,16.99727481,18.83160592,19.980567,19.86697781,0.913761163,1,1,1,1,1,1,1,35.30015175,-77.57127825,2016,NCH1
WF9/H95,WIH1_2015,Y,37.2,736.2699538,0,0,265.5,142.5,65,64,4.730000059,9.059999784,2.430610682,6.190059866,3.242812514,1.739310909,2.563222068,2.582604527,2.064862235,151.3600019,54.3599987,32.30062549,198.0887501,6.485625029,21.11437514,113.2525011,35.42937557,62.48000012,19.32367544,22.19104989,23.8972515,19.04105101,21.62804324,20.72553659,16.09255797,13.7227876,9.595561915,19.95718755,28.15000025,26.05326099,28.85932006,29.07385437,26.51056077,24.82739399,20.18089026,14.51549808,8.517187543,15.30499983,11.82802944,17.48783518,16.48010375,14.49615378,12.31509137,8.581945626,2.680440183,8.558350873,13.98301754,11.81015597,15.26183828,14.95581898,12.98753542,11.68123469,8.628108428,5.087550731,0.777276777,1,1,1,1,0.929186389,0.833919484,0.505939954,43.05511725,-89.528525,2015,WIH1
PHP02/PHB47,INH1_2015,Y,13.15,706.6646934,0,6,208.5,85.5,64,63.5,2.968064535,5.608750075,2.401797478,2.620596579,1.049062505,3.048312443,3.454130844,1.332533481,1.484370975,92.01000059,44.8700006,26.44312483,85.12437463,1.715625018,30.48312443,116.5724995,9.316249996,45.68062523,19.44608656,13.59046638,21.88315593,21.65689439,20.60130358,19.73326552,18.77560381,17.99738388,15.64927463,15.67580632,21.0562501,27.44396829,29.52449332,32.66781175,30.16981242,28.17317586,28.46934151,25.5406298,3.004516139,13.05249977,15.22068343,16.62214482,19.56843758,18.02818774,16.71489706,16.46563638,12.56847521,5.360930658,9.9438759,13.725819,15.26696414,18.11812466,16.1828721,14.63810214,14.67667849,11.95902497,0.609504607,1,1,1,1,1,1,0.986081101,40.477075,-87.000205,2015,INH1
B73/MO17,OHH1_2016,N,18.55,693.7928411,0,80,281.5,123,65,64,4.328064465,1.776000023,3.915145208,2.580740659,3.890757626,4.17049496,5.079069289,3.957741935,3.614594814,134.1699984,8.880000114,44.70363614,85.9177286,9.330454675,39.94818193,160.1854537,27.69772666,110.1186362,18.3437644,22.24283047,20.73146956,20.35982518,19.15233416,18.82824642,16.72048491,17.98730955,14.71797893,19.63580645,29.63200035,26.56953589,28.59263588,29.59106055,30.69283836,29.21689182,28.27188687,26.30588322,8.120967747,16.89599972,14.9739129,16.70528562,18.30318191,19.74443426,18.9160149,15.44500838,13.40262461,8.117657052,15.32722009,13.17028057,14.81678154,15.96857054,17.23303236,16.11713161,14.21502474,12.5845871,0.859331788,1,1,1,1,1,0.999172078,0.989049277,39.860924,-83.6755995,2016,OHH1
PHB47/PHZ51,GAH2_2016,N,11.5,731.1212129,0,2,263,219,52,50,1.486129045,0,7.316392826,2.079782856,1.718421064,1.264671045,2.43256314,4.61773679,3.235456168,46.07000041,0,60.50999928,55.97210474,3.436842128,10.11736836,67.31736801,23.15894711,100.2847377,20.21189387,22.87583466,19.10112302,21.34036575,17.85876091,19.83818451,18.50479945,15.9975398,17.29687983,27.80677426,30.50400009,32.06010812,34.2138269,34.93842035,34.86282896,34.62455114,33.33373696,32.80003392,13.8351613,16.55600014,19.35906305,20.32019684,22.9621054,21.76434208,22.04984942,22.29670187,20.14649938,13.32566871,15.60302283,17.72531793,18.78372546,20.36638125,19.89190838,19.9091667,19.70080105,18.42340329,1,1,1,1,1,1,1,1,33.717295,-83.3110275,2016,GAH2
W10001_0022/PHB47,NCH1_2015,Y,16.2,731.1212129,0,0,233,118,65,64,3.0140625,9.692856925,3.043308324,7.00027835,0,3.411347986,2.886716411,10.31533332,6.56176467,96.44999999,67.84999847,47.46470581,233.8535261,0,30.12176424,80.44058821,53.94764695,203.4147048,18.56641886,18.5514961,20.38733283,17.18369043,24.39251002,21.03629604,20.30189304,17.27178406,15.58503138,22.38312501,24.94999995,23.18034629,27.40244989,31.82117664,31.76743482,33.30845927,33.22968591,31.16039845,8.592187501,12.50999982,10.48535005,18.40286831,19.92058833,21.46261411,22.34001137,22.61282364,21.92468694,9.285127697,11.46773529,10.15801447,14.99239002,17.87088248,18.60652477,19.71826945,19.84422869,18.53531879,0.955334819,1,0.995809598,1,1,1,1,1,35.29657708,-77.5664625,2015,NCH1
PHN11_PHW65_0323/LH195,ARH2_2018,N,15.28666667,731.1212129,0,2,171.6666667,80.66666667,68.66666667,66,4.523124937,5.877777735,3.202210455,3.225384198,0.461428574,5.0703967,1.707251537,1.546976178,1.915506911,144.739998,52.89999962,46.32285666,103.4992844,0.461428574,45.6335703,42.68714207,7.346428526,59.38071425,17.7541087,19.6455271,19.52097147,20.05684428,23.80737271,19.97823453,19.1297214,18.25489796,18.05597286,19.61875001,21.92000008,22.77345622,28.90718296,31.9800005,30.98396799,32.84130907,33.56595603,31.90391706,8.73406262,10.34777779,11.28771296,17.85430307,18.706429,19.75547635,22.48266054,23.2605133,21.25223495,8.305601359,9.423215554,10.22107903,15.52009327,17.35232514,17.37984482,19.61861005,20.2782542,18.53689778,0.857433028,1,0.994106717,0.995975764,1,1,1,1,35.674241,-90.0749725,2018,ARH2
TX714/PHZ51,NYH2_2016,N,20.75,731.1212129,0,1.5,208.5,117.5,82,75,2.034516133,1.030000001,1.88805842,0.867300396,1.140952366,2.326450204,3.376451109,4.287746575,3.208572451,63.07000011,12.36000001,22.4085716,34.4438095,2.622857094,25.59095225,116.65619,31.75809508,97.82571426,19.21240982,23.35584625,23.40556822,22.17883586,23.94456446,21.25361649,17.18897092,16.17245816,13.35906413,14.04935483,18.68749992,27.50851283,26.23633728,28.78071431,29.31692664,28.41638555,26.44500865,23.15297547,1.686774175,4.439999988,12.92699036,12.85534504,13.89476193,15.65588736,16.863818,13.58818034,10.55762265,4.511298309,6.607155497,12.88765676,12.33330427,13.7996272,14.74166699,14.82295673,12.66050813,10.26842414,0.447315667,0.804761906,0.999400038,0.994542932,1,0.999880088,0.994843294,0.949842165,42.726117,-76.655339,2016,NYH2
TX777/LH195,TXH1_2020,N,13.125,772.954733,0,2,197.485,70.485,71.5,70.75,2.284333333,0,4.613530444,2.949806388,1.362941181,6.741056464,2.844869093,3.829088224,2.301094231,68.53,0,55.97058804,110.7988238,1.362941181,71.52235312,82.32059028,18.97352936,69.29117607,13.91343843,13.3863348,15.08816438,19.79337859,19.48130546,19.24170726,19.77113757,20.7945973,17.91495332,20.02266652,27.17999992,26.60815942,26.52479293,29.39617636,29.12989124,32.2266946,33.03076485,34.59511331,6.794333295,17.20400028,15.2455437,13.65359797,17.29686298,16.61337131,20.73348334,20.06167624,24.24037069,7.901247141,14.27292515,13.38037585,12.76738989,15.58009007,15.11126374,18.39892159,18.53701373,20.50202011,0.821357143,1,0.99243504,0.993791594,1,1,1,0.999042533,30.53781575,-96.4283715,2020,TXH1
B14A/OH43,TXH1_2015,N,10.95,721.4673236,0,2,174,75,67.5,66,2.435333351,0.886666695,4.529386736,2.992210444,0,5.407499953,3.236240411,4.528416659,2.205666663,73.06000052,5.320000172,54.16999972,113.7899998,0,59.48249948,89.11249819,24.54499996,66.1699999,13.38128519,15.80308406,13.73749678,19.48289484,22.46598899,19.96463979,19.54848583,19.57031498,18.03135075,19.61999995,26.26833312,25.8489028,26.4780255,30.37177098,28.79539756,31.9014052,33.48070828,34.35516661,6.122333375,12.74499997,15.39155332,13.69439061,15.83385423,15.9580683,20.41172374,21.45270844,23.93220836,7.516768444,12.28221354,13.06030889,12.7550996,15.35592881,14.67426974,18.11040569,19.30603111,20.37775841,0.822428569,1,0.992325397,0.994092815,1,1,1,0.999431249,30.54708625,-96.43393475,2015,TXH1
LH195/LH82,OHH1_2017,Y,20.125,745.2802504,0,2,229,110,65,64,4.401935447,12.29571451,4.299880116,6.252045262,18.36299991,4.892395558,3.195317293,3.431958172,3.794688752,136.4599988,86.0700016,53.63949916,223.8204996,40.86499989,50.26800107,124.097,30.99400014,115.4320013,19.0647902,19.03427505,21.00226491,20.15032754,19.69555429,18.89580098,18.69837911,16.0400155,13.85510684,20.47903239,25.43142836,25.24002704,27.25803818,28.09541678,28.73270468,26.30456447,24.69395371,24.25720733,8.011935501,13.44999967,12.59882409,15.91673102,16.75358336,18.39824095,14.97688189,13.11535887,11.81284403,8.407228033,12.106522,11.63721293,13.8931373,14.6377479,15.63224373,13.07252875,11.66012039,11.13333271,0.85352535,1,1,1,1,0.996926048,1,0.96495674,39.855785,-83.66477375,2017,OHH1
CG119/CG108,MIH1_2020,N,15.05,727.9032498,17,7.5,200,84.25,52,50.5,4.984838709,2.447142908,2.78018427,2.64718347,5.506875038,1.476884461,2.688717092,6.006552647,2.65185957,154.53,17.13000035,30.43499947,89.07562375,6.053750038,16.17374991,112.2143753,49.72375022,79.8756258,20.40588462,19.28742858,24.32683064,21.06964646,18.47526628,19.40802789,18.05267967,13.18055513,11.8632568,17.75483874,24.12857165,28.18736501,29.25734834,30.47187495,29.12451894,27.19720882,23.65947149,18.53645566,5.91032262,13.18571418,13.36449351,15.87753885,17.57625037,17.40439215,14.2199518,12.09430501,6.603961046,6.886871568,11.64218502,13.33305563,14.86544572,16.04104967,15.33737973,13.2580117,11.17810785,7.349100415,0.70564517,0.993469382,1,1,1,0.990981538,0.929873564,0.775463757,42.7085775,-84.4705825,2020,MIH1
B37/MO17,GAH1_2016,N,14.9,747.8546209,13.5,6,200,100,61.5,58,6.466250051,4.395000041,0.566421492,2.549627568,3.17469698,5.859943136,4.096967014,2.330999996,2.476261007,206.9200016,35.16000032,6.21000006,86.0200003,9.52409094,52.42727233,105.6731797,11.65499998,76.76409122,15.95696127,18.25385642,20.33100053,20.74024209,20.01064868,19.54302735,19.38198769,19.26953352,18.21451922,23.62687498,22.98249984,28.56134937,29.4983659,33.37075638,32.62719045,33.25026907,34.51499955,33.94928126,11.29749997,10.47000009,15.64744728,16.2846205,20.78287862,20.61269551,21.56927107,22.51809092,22.40467728,10.53971422,9.962440438,14.36481163,15.11313475,19.02952924,18.56859265,19.26668195,20.34390963,19.99415841,0.993928569,1,1,1,1,1,1,1,31.5079175,-83.55854775,2016,GAH1
LH195/LH82,IAH4_2015,N,17.9,720.1801384,2,7,213.5,106,65,64,1.42451612,4.854615514,2.513668144,6.351127419,5.46999979,2.154687441,1.85099418,0.335758934,4.064770202,44.15999973,63.11000168,35.58999979,218.2399999,10.93999958,20.30812445,58.48687407,2.377500039,125.1143763,19.83997888,19.28772805,16.02270398,20.69822917,17.27718186,21.35831173,20.17303565,19.59360772,15.6142427,15.83032262,16.78769229,22.26164163,27.88725423,29.37999988,31.52784708,28.69895342,30.18404469,25.46833276,2.473548389,5.024615425,13.48280789,16.59868734,20.37374985,19.78628468,17.37298211,16.89515858,12.68514048,5.318693913,6.228847238,10.78291245,14.47529064,16.87687486,17.66054739,15.18141656,15.71210426,12.05907357,0.585391697,0.659230777,0.98994413,1,1,1,1,0.952600636,41.19970961,-91.49362406,2015,IAH4
PHG39/PHN82,SCH1_2019,N,15.75,731.1212129,0,2,207.01,72.39,55.5,57,3.522580645,3.026666641,1.832071666,3.15534991,1.497023807,2.439880971,1.838213127,1.715047598,2.162465429,109.2,18.15999985,19.94999987,97.87357193,2.846428582,21.92714303,50.9164284,9.481428444,67.0364283,18.2238054,19.24788825,19.83816148,19.9388592,17.79349522,20.88775084,19.93011295,20.19525604,17.6553152,24.08129043,27.55666669,26.86360264,30.30302253,30.15095266,31.81823454,32.87501498,31.84457125,32.33357145,10.7222581,15.88833332,14.78977791,18.33498627,20.49666657,19.48954379,21.18366564,19.1694286,20.16504603,10.62715993,13.88239503,13.27455789,16.3672742,17.32380961,17.64580353,19.00989067,17.48787314,18.15917061,0.967315668,1,1,1,1,1,1,1,34.62248225,-82.73756775,2019,SCH1
B14A/OH43,WIH2_2015,N,44.15,792.9061041,0,0,244,132,65,64,3.126774188,2.655000041,4.103605878,5.336067251,1.868823528,3.142847566,3.066358713,6.463272165,3.426278957,96.92999983,15.93000025,53.58117651,186.0694135,5.435882344,36.03705852,132.4747064,52.80117733,103.4994124,19.63646212,20.57311455,21.5892617,21.07111177,18.36300238,19.20517036,18.54583572,13.68038168,11.37476292,15.6409678,24.97666677,26.11823115,28.09529077,27.51588227,27.91298604,26.4469062,23.95331443,17.63645543,3.355806466,13.62666686,13.88922494,15.17788174,17.2276475,16.92946091,13.73434519,12.63733902,6.343913375,5.370860554,11.93138906,12.65256426,14.04290221,14.43586033,14.57588984,12.76646014,11.49482956,7.023163717,0.588214292,1,1,1,1,0.979783322,0.914260835,0.715230077,43.3264485,-89.33359975,2015,WIH2
TX777/LH195,IAH1_2015,Y,19.75,752.3597692,4.5,15.5,302,158.5,65,64,1.566451638,2.213076954,8.402418557,1.323463692,0.084411761,2.297359398,2.93999255,2.37101191,2.732793763,48.56000078,28.7700004,122.1399999,43.52999979,0.168823523,22.82352863,100.1182349,16.67000003,83.81294001,20.43214903,18.85811498,14.63317728,22.31276759,19.14227258,22.20806523,19.83862588,18.33763158,15.0581957,16.08774191,16.64538457,21.84697853,28.7334183,30.26852911,31.30747052,29.05105531,29.39636272,24.66946357,1.839032284,4.865384661,13.12892854,16.86768962,20.05941139,18.05705196,16.3929614,15.43749916,11.17229855,5.447129731,6.098188577,10.48240964,14.99632473,17.16639266,16.72884186,14.96924927,14.77137221,11.30644361,0.593087559,0.682994502,0.988452545,1,1,0.997626801,1,0.896934674,41.9980952,-93.69336973,2015,IAH1
B73/PHM49,INH1_2020,N,26.145,686.1340889,0,2,225.2,104.7,68.5,65.5,2.63064515,6.092222161,2.380905542,2.638028789,0.629411796,2.977235278,3.349803369,1.095052516,1.575144189,81.54999965,54.82999945,26.35000017,86.90176377,0.755294155,29.77235278,114.9176474,7.60117643,48.41470517,19.12040675,14.46862051,21.68340347,21.75389977,20.24839053,19.66959435,18.78188958,18.00828299,15.45076636,15.20677414,20.6899999,27.1104927,29.42650107,32.0752936,30.36388222,28.15834081,28.66782236,25.41333794,2.934193564,11.51555562,15.17811918,16.46944194,19.37588254,18.23752946,16.66734055,16.5683672,12.52337519,5.193705795,9.337664252,13.54219901,15.16026165,17.73146127,16.3694037,14.61167179,14.83949529,11.90095499,0.576025338,0.994801587,1,1,1,1,1,0.975702381,40.4787965,-86.9895995,2020,INH1
WF9/H95,ONH2_2017,N,22.85,871.4244034,1.5,23.5,256,115,44,38.5,3.566774253,5.816000056,0.640467161,2.602850346,0.276190468,0.553043346,1.774150425,1.832219351,2.40528059,110.5700018,58.16000056,8.999047586,96.02571482,0.552380936,6.918571438,78.70857161,24.06619065,72.98142847,18.8542372,16.74867072,24.21291039,19.37094181,21.19715784,20.84705237,17.61151759,14.253685,9.927824707,15.7532257,18.68899984,23.40262829,26.34974997,26.59380949,26.86065013,24.57225317,22.91748616,20.00596815,5.764838726,10.96000004,12.03359118,16.18007827,16.63301581,15.91920336,13.14574071,11.27177775,10.10650586,6.141928302,8.38660306,10.68394655,13.52521671,13.7753985,13.64998718,11.58821465,10.41552723,9.107414304,0.598502303,0.966571423,1,1,1,0.999084662,0.956230826,0.8300025,42.45293025,-81.8827315,2017,ONH2
F42/MO17,WIH1_2019,Y,20.35,702.1595451,0,0,256.665,144.17,65,65,3.104193578,4.990909143,3.989206625,5.063632664,7.174102343,5.657788874,3.979490855,4.117971668,7.043559998,96.23000091,54.90000057,56.46538491,184.9676922,7.656153606,56.9199983,170.6046141,43.34153838,211.8461548,19.32800511,20.47989629,21.14585761,19.94081469,20.4834897,19.00171798,17.70480678,14.70759561,11.13260624,14.4303226,19.6027272,23.71186264,26.54399323,29.1737175,29.51828996,25.99775321,22.10125555,19.22207941,3.044193574,6.375454621,11.90649765,15.02653282,17.46782019,18.4264638,14.78313726,11.24849031,9.42963116,4.974875238,7.497369644,10.75801096,13.26663909,15.42227287,16.03343447,12.80151602,10.12875121,8.730340077,0.520449311,0.882272729,0.994529143,0.999440504,1,0.998245342,0.92932789,0.792629622,43.060857,-89.494068,2019,WIH1
B73/MO17,TXH1-Late_2018,N,10.35,704.7339156,0,2,267,87.5,61.5,61.5,3.579375003,7.22999986,0.880950212,3.393996506,5.74642872,3.619146949,3.455600496,0.428285708,2.278709721,114.5400001,43.37999916,11.7107143,109.309285,11.49285744,35.41714406,87.15857094,2.141428539,70.64000136,15.18905504,16.98149872,20.4111462,19.99876216,15.81608334,20.1152116,19.58230121,16.39417859,18.61523184,25.42156261,25.48166672,24.9240565,29.86096768,30.55928573,31.11103384,33.47173554,33.67857067,35.62923946,13.73406251,14.7233332,12.14174484,16.97683375,21.17380969,19.92907914,21.60030195,24.8844286,24.53525352,12.24876106,12.9546326,11.47321097,15.6369769,17.86869493,17.49319399,19.34856645,20.63058471,20.90474588,0.995234379,0.961607144,1,1,1,0.999944236,0.999152383,0.999033412,30.546318,-96.4329965,2018,TXH1-Late
LH195/LH82,IAH2_2017,Y,15.6,754.2905471,0,17.25,185.75,83.75,65,64,2.991935476,4.003749907,5.594154361,1.824159742,2.965909053,1.138616173,3.544395797,5.525860929,3.224964342,92.74999976,32.02999926,86.83999968,64.74363607,5.880909015,11.03545466,133.6850016,39.36636487,98.02272796,18.91811151,22.03083944,18.39067038,21.91300981,21.59707026,21.00058551,18.76246256,16.50136756,14.56336975,16.70258062,25.25375009,21.16444029,28.78792803,31.34295403,31.03890899,27.79230679,26.54138994,25.01808603,3.836129038,9.060000002,9.836484062,14.72352594,17.1804546,18.00485339,15.61890002,13.9478747,12.25710857,5.884356407,10.52058178,9.325556586,14.19611432,16.29393371,16.57150033,14.05801276,12.73803514,11.57992501,0.659274195,1,0.882113053,1,1,1,1,0.976890029,42.06582876,-94.72050129,2017,IAH2
PHW52/PHN82,OHH1_2015,N,16.35,787.7573632,0,1,249,101.5,66,63,4.820000016,2.056666652,1.801667061,2.430255425,2.070588264,2.75488235,3.664772063,1.623969288,1.874022108,149.4200005,12.33999991,20.27235275,82.00588303,2.23529414,26.29176468,128.0200007,12.16764697,57.18411674,17.71339239,20.831882,20.85048625,20.93566426,20.28419298,19.59839119,17.66236547,17.23782846,14.83481447,16.95064511,28.03666687,26.64173705,29.01382079,31.07970569,30.59522857,27.99762273,26.69097183,23.34659959,5.9283871,15.42166694,14.66308043,16.74801267,19.23764672,18.74322206,16.69895781,13.90980629,10.26308727,6.580773377,14.04730329,13.19467995,15.08203889,17.16864649,16.69143216,14.53513226,12.92347397,10.29932856,0.672569122,1,1,1,1,1,0.994932126,0.947361455,39.855785,-83.66477375,2015,OHH1
PHB47/PHZ51,MOH2_2015,N,13.86666667,731.1212129,0,1.333333333,236.6666667,100,71.66666667,70.33333333,3.914838722,3.534545422,2.891676029,5.446623968,2.505882375,1.1137255,5.068586465,0.980448186,4.011119538,121.3600004,38.87999964,35.23176398,173.6929392,5.011764751,10.0235295,148.9223525,6.487058864,124.3447057,19.08701148,18.12534948,17.16717858,21.59629129,16.88945411,20.34516158,18.32895435,19.90608894,16.95494386,18.756129,18.24727275,23.87322904,29.02836507,30.59176479,31.93248319,30.27285599,28.73220747,28.34062618,6.152580692,8.059091026,15.30129973,17.80114352,21.94705907,21.39261428,20.17023127,17.40519331,17.20941189,7.288196993,7.58478923,12.05891064,15.51775091,18.26941193,18.66254873,17.2518739,15.21359182,14.97078901,0.75554147,0.814935086,1,1,1,1,1,1,38.89807917,-92.2079,2015,MOH2
TX951/LH195,SCH1_2020,N,13.77,731.1212129,2,2.5,93.5,34,57.5,56.5,6.726129055,12.61950016,14.6709951,2.000047064,2.505749965,4.425319405,2.268462711,6.18714998,5.023091868,208.5100007,84.13000107,163.6860008,61.50999924,5.011499929,39.68149965,62.57699943,33.64599986,155.4654979,20.36817608,19.66978326,14.75526058,19.85961082,19.96014466,19.24465486,19.87809105,16.40752662,15.64625104,22.32567731,25.33999968,25.31846332,29.19710574,32.4110003,31.66961065,33.32032281,31.92909988,30.24042268,7.936741977,12.70899997,16.31955663,18.65521183,21.09725013,21.1736526,21.46883008,21.19136654,20.48826235,8.963701593,11.76593586,13.23428606,15.98846211,18.75412521,18.42141037,19.32426,18.56023321,17.40294316,0.984170504,1,0.973950938,1,1,1,1,1,34.62225,-82.736661,2020,SCH1
B73/PHZ51,WIH1_2017,Y,18.32222222,733.9816245,0,2,249.6666667,123.8888889,71.33333333,70.77777778,3.894838602,1.694000003,3.49156578,6.251914317,26.29780264,12.3515148,1.782621048,1.031219451,2.019413967,120.7399967,16.94000003,60.77000046,238.2086357,55.48409002,148.2181776,77.27181808,11.13545426,60.74545419,17.96009764,21.56986256,18.71582301,20.73316127,19.69440102,19.58726141,19.1692292,15.69151392,12.21998586,16.03451621,20.2119998,20.22998088,26.71060266,27.00553033,27.16428033,24.80808837,24.03641879,21.845045,3.37838715,6.260000002,9.268565708,14.6662765,15.35575767,16.21109857,13.17589581,11.52521119,9.509429623,5.507434962,7.720411242,8.664602637,13.14891279,13.46068042,13.9043846,11.67856357,10.90146065,9.608265423,0.606900932,0.8735357,0.867893568,1,1,0.998220242,0.971647403,0.89569217,43.05668125,-89.5308135,2017,WIH1
PB80/PHZ51,KSH1_2016,Y,17.8,754.2905471,0,2,160,45,91,91,0.381562503,5.593749881,9.031136959,3.981909994,0,0.897724769,5.011421387,3.322424253,5.670073263,12.2100001,44.74999905,140.9509078,148.5090918,0,8.374091108,139.438637,19.93454552,175.7722711,18.43315426,14.04582843,18.34613738,20.88446512,22.70328743,20.59441801,18.34986672,18.15379387,17.32510191,19.15124996,21.70124984,22.33901244,27.19377063,36.31272689,35.17540036,32.01078432,33.85633352,30.76895891,2.130625044,11.46499991,9.568238579,14.2621368,21.58727247,22.04353923,20.78061301,22.71134866,19.49139311,6.3158573,9.667291017,9.626890379,13.35418843,19.56599107,19.14397536,18.06824645,19.12054732,17.03744615,0.741573662,1,0.921279778,0.986042268,0.991287871,0.998977631,0.993550002,1,39.14480675,-96.62898225,2016,KSH1
B37/OH43,ONH2_2015,Y,25.25,722.1109162,0,0.5,285,147.5,78.5,78.5,1.876451608,4.282666683,1.928005431,1.58261263,10.80264742,1.923208582,3.114388399,4.294901914,2.356388962,58.16999984,64.24000025,23.61999965,57.22470651,21.60529484,21.1552944,115.5017658,31.56294079,72.1164696,18.95380112,18.76709785,21.17743809,22.45418875,20.04103015,18.4543581,18.45373918,15.80078253,13.34539525,11.17387095,14.38466663,23.91200153,26.61279381,30.15176526,27.65053462,26.77986929,25.87464046,20.7920557,2.006774224,5.636000033,13.64950245,15.64688346,19.32647026,18.51812829,16.74694623,15.4972221,11.03054456,3.742938436,5.617129505,11.53065914,13.52353119,16.78542678,15.13421866,13.95153495,13.1846932,9.37660249,0.276970043,0.589690475,0.985132406,1,1,1,0.993019959,0.931831119,42.45408625,-81.8816065,2015,ONH2
TX777/LH195,OHH1_2015,Y,15.8,796.7676598,0,2,260.5,118,66,66,4.820000016,2.056666652,1.801667061,2.430255425,2.070588264,2.75488235,3.664772063,1.623969288,1.874022108,149.4200005,12.33999991,20.27235275,82.00588303,2.23529414,26.29176468,128.0200007,12.16764697,57.18411674,17.71339239,20.831882,20.85048625,20.93566426,20.28419298,19.59839119,17.66236547,17.23782846,14.83481447,16.95064511,28.03666687,26.64173705,29.01382079,31.07970569,30.59522857,27.99762273,26.69097183,23.34659959,5.9283871,15.42166694,14.66308043,16.74801267,19.23764672,18.74322206,16.69895781,13.90980629,10.26308727,6.580773377,14.04730329,13.19467995,15.08203889,17.16864649,16.69143216,14.53513226,12.92347397,10.29932856,0.672569122,1,1,1,1,1,0.994932126,0.947361455,39.855785,-83.66477375,2015,OHH1
B73/PHN82,SDH1_2015,N,24.2,651.3157284,0,1,153,85,73.5,73.5,1.890000034,2.68444448,2.847212523,0.928406021,1.08916667,1.213193166,1.12388612,3.994558873,0.570569385,58.59000105,24.16000032,33.86000057,31.14874977,1.720000006,12.77624983,39.02562428,27.90249949,17.65812508,21.16446504,23.3864585,24.03054242,23.94878495,21.74335716,21.42490048,20.60212775,16.27746828,15.18579983,19.04290341,22.5888888,27.20826416,30.46229654,29.54760476,31.86073879,31.47770382,29.48664523,24.89733582,4.208709664,8.468888919,11.69082143,14.25969647,14.29062517,16.06534098,14.02269822,14.11578116,6.942900096,6.807516906,9.210660666,12.27390437,14.67606113,14.18888263,15.81431879,15.00552731,14.17539039,9.834808296,0.77025346,0.983690483,1,1,1,0.983472358,0.961069402,0.950039755,44.208745,-102.928745,2015,SDH1
B73/MO17,WIH1_2015,Y,32.7,716.3185827,0,0,266.5,155,65,64,4.730000059,9.059999784,2.430610682,6.190059866,3.242812514,1.739310909,2.563222068,2.582604527,2.064862235,151.3600019,54.3599987,32.30062549,198.0887501,6.485625029,21.11437514,113.2525011,35.42937557,62.48000012,19.32367544,22.19104989,23.8972515,19.04105101,21.62804324,20.72553659,16.09255797,13.7227876,9.595561915,19.95718755,28.15000025,26.05326099,28.85932006,29.07385437,26.51056077,24.82739399,20.18089026,14.51549808,8.517187543,15.30499983,11.82802944,17.48783518,16.48010375,14.49615378,12.31509137,8.581945626,2.680440183,8.558350873,13.98301754,11.81015597,15.26183828,14.95581898,12.98753542,11.68123469,8.628108428,5.087550731,0.777276777,1,1,1,1,0.929186389,0.833919484,0.505939954,43.05511725,-89.528525,2015,WIH1
B37/MO17,NCH1_2015,Y,18.1,731.1212129,0,0,238,120,65,64,3.0140625,9.692856925,3.043308324,7.00027835,0,3.411347986,2.886716411,10.31533332,6.56176467,96.44999999,67.84999847,47.46470581,233.8535261,0,30.12176424,80.44058821,53.94764695,203.4147048,18.56641886,18.5514961,20.38733283,17.18369043,24.39251002,21.03629604,20.30189304,17.27178406,15.58503138,22.38312501,24.94999995,23.18034629,27.40244989,31.82117664,31.76743482,33.30845927,33.22968591,31.16039845,8.592187501,12.50999982,10.48535005,18.40286831,19.92058833,21.46261411,22.34001137,22.61282364,21.92468694,9.285127697,11.46773529,10.15801447,14.99239002,17.87088248,18.60652477,19.71826945,19.84422869,18.53531879,0.955334819,1,0.995809598,1,1,1,1,1,35.29657708,-77.5664625,2015,NCH1
B14A/H95,NYH2_2016,N,19.6,731.1212129,2,6.5,166,90,79.5,77,2.034516133,1.030000001,1.88805842,0.867300396,1.140952366,2.326450204,3.376451109,4.287746575,3.208572451,63.07000011,12.36000001,22.4085716,34.4438095,2.622857094,25.59095225,116.65619,31.75809508,97.82571426,19.21240982,23.35584625,23.40556822,22.17883586,23.94456446,21.25361649,17.18897092,16.17245816,13.35906413,14.04935483,18.68749992,27.50851283,26.23633728,28.78071431,29.31692664,28.41638555,26.44500865,23.15297547,1.686774175,4.439999988,12.92699036,12.85534504,13.89476193,15.65588736,16.863818,13.58818034,10.55762265,4.511298309,6.607155497,12.88765676,12.33330427,13.7996272,14.74166699,14.82295673,12.66050813,10.26842414,0.447315667,0.804761906,0.999400038,0.994542932,1,0.999880088,0.994843294,0.949842165,42.726117,-76.655339,2016,NYH2
PHG39/PHN82,MNH1_2016,Y,22.3,731.1212129,0,2,229,110,73.5,71.5,2.893225764,0.170000008,5.030425272,6.121705224,6.438583227,6.210954471,8.179238718,7.617170889,9.394742846,89.68999869,1.190000057,67.79499967,212.8530004,13.67999972,65.11499918,295.599999,62.20750045,287.315495,17.89673604,26.28611401,18.122652,20.29948324,15.80941307,17.87578139,16.93568638,15.29315111,12.15008877,17.5148386,25.45428576,24.53269911,27.63337014,28.14450006,28.70269129,27.15887183,24.8505404,22.53032632,6.338387108,9.824285678,13.68155402,15.81410535,17.82425013,18.42635015,16.92976579,13.57123889,11.50456607,6.871134867,10.90204251,11.6566452,13.98369248,15.05511886,15.68076391,14.22086787,11.86153057,10.26982602,0.734527645,1,1,1,1,0.999952477,0.98729881,0.936092645,44.06646925,-93.533648,2016,MNH1
W10005_0107/PHB47,ARH1_2016,N,14.95,807.7087343,0,2,161.5,100,67,65.5,12.62656226,6.052222146,7.859593922,4.411032368,3.769999921,0.095833332,1.834913509,2.950363528,2.931715563,404.0499923,54.46999931,101.1431819,160.496816,7.539999843,0.824999988,46.86636396,14.75181764,90.88318244,16.40757677,14.40289243,17.41332625,19.31399891,17.48165414,22.15918181,19.7781726,18.25208951,17.22596404,20.37124979,20.08666674,25.25253507,26.30445415,29.50681779,32.27019592,33.22074717,33.17606868,32.75999986,8.53968759,10.04999993,14.84655054,15.67568893,20.10318184,20.90335237,23.01320039,23.46584116,23.35664232,8.376579132,8.623890092,12.4075181,13.38568101,16.80499981,18.57005087,20.09384313,20.24603027,19.89808151,0.932198657,0.999841266,1,1,1,1,1,1,34.72952,-90.7603555,2016,ARH1
B73/PHN82,GAH2_2020,N,14.8375,737.7180372,3,26.375,237.375,123.75,61.75,59.125,4.57387094,0.441111114,8.353941854,2.596292498,5.733571683,2.103095203,2.179001438,2.485142878,3.918548365,141.7899991,3.970000029,91.39071568,80.77428585,11.41500051,18.92785683,57.71499962,12.42571439,121.4749993,20.66171874,23.27184486,17.58943298,19.5164109,18.75300796,20.35385684,20.26001561,17.11426864,16.01109332,24.32935487,22.81222216,27.25049476,29.76903398,31.23452386,32.73428517,34.13891635,33.4245718,31.64458511,9.683548431,7.437777784,15.07002369,18.41195949,20.46821458,20.95039675,21.2406723,21.91714281,20.83905522,10.34437265,8.95024402,13.55540875,16.15181668,17.85136922,18.84234096,19.40061188,19.58004094,18.23728962,0.993479262,1,1,1,1,1,1,1,33.72355555,-83.30265185,2020,GAH2
TX951/LH195,DEH1_2016,Y,28.85,698.941582,0,15.5,276.5,154.5,78.5,79,2.701875035,7.431818214,3.891344367,3.01543569,5.358105985,2.453055546,7.028031294,2.624318106,3.1968602,86.46000111,81.75000036,66.39499953,101.6163622,13.33454524,24.02227264,188.3231781,15.05272682,98.58045408,18.33047433,10.1000462,19.40971708,21.02938559,18.25055452,17.64652011,18.94468483,17.7865103,16.44449792,18.09,16.60090897,19.90208421,27.67646738,27.79681775,28.9030859,31.91379825,31.21812112,30.57169607,5.529687506,9.93090907,10.11289786,16.8589893,18.02106052,19.78800518,21.90881045,21.62957593,20.16127331,6.825577378,7.645605865,8.606637786,14.43603228,14.98401645,16.37610101,18.85541374,18.37748956,17.3477875,0.726328134,0.729318176,0.990929859,1,1,1,1,1,38.6482025,-75.44606,2016,DEH1
CG44/CGR01,INH1_2018,Y,13.99,863.1864179,0,2,203.5,100.5,54.5,54.5,2.767096756,4.68454543,2.7337539,2.608245307,0.180000007,3.094468228,3.412660528,0.546071422,1.653962344,85.77999943,51.52999973,31.28214284,86.61642764,0.256428582,29.52071404,116.6621433,3.926428522,50.80214219,18.97651723,17.84080185,18.4751702,21.91502565,21.1577316,19.53552192,18.82147066,19.16946561,15.73843824,16.02451609,18.1199998,25.33039297,28.95851984,31.36964308,31.15694425,28.16765345,28.4284546,26.00206774,3.260645186,6.861818249,15.08608447,16.0398559,19.18499974,18.88806934,16.73005964,15.8360335,13.18834038,5.572938243,7.259226835,12.75390782,14.76719288,17.27732141,17.05840253,14.63863294,14.40004061,12.39915253,0.613732714,0.707012975,1,1,1,1,1,0.979968538,40.4787825,-86.9898145,2018,INH1
PHN11_OH43_0001/PHB47,ARH1_2016,N,15.4,799.9856229,0.5,2,170,104.5,68.5,65.5,12.62656226,6.052222146,7.859593922,4.411032368,3.769999921,0.095833332,1.834913509,2.950363528,2.931715563,404.0499923,54.46999931,101.1431819,160.496816,7.539999843,0.824999988,46.86636396,14.75181764,90.88318244,16.40757677,14.40289243,17.41332625,19.31399891,17.48165414,22.15918181,19.7781726,18.25208951,17.22596404,20.37124979,20.08666674,25.25253507,26.30445415,29.50681779,32.27019592,33.22074717,33.17606868,32.75999986,8.53968759,10.04999993,14.84655054,15.67568893,20.10318184,20.90335237,23.01320039,23.46584116,23.35664232,8.376579132,8.623890092,12.4075181,13.38568101,16.80499981,18.57005087,20.09384313,20.24603027,19.89808151,0.932198657,0.999841266,1,1,1,1,1,1,34.72952,-90.7603555,2016,ARH1
PHW52/PHM49,WIH1_2015,Y,38.1,771.6675477,0,0,257.5,141,65,64,4.730000059,9.059999784,2.430610682,6.190059866,3.242812514,1.739310909,2.563222068,2.582604527,2.064862235,151.3600019,54.3599987,32.30062549,198.0887501,6.485625029,21.11437514,113.2525011,35.42937557,62.48000012,19.32367544,22.19104989,23.8972515,19.04105101,21.62804324,20.72553659,16.09255797,13.7227876,9.595561915,19.95718755,28.15000025,26.05326099,28.85932006,29.07385437,26.51056077,24.82739399,20.18089026,14.51549808,8.517187543,15.30499983,11.82802944,17.48783518,16.48010375,14.49615378,12.31509137,8.581945626,2.680440183,8.558350873,13.98301754,11.81015597,15.26183828,14.95581898,12.98753542,11.68123469,8.628108428,5.087550731,0.777276777,1,1,1,1,0.929186389,0.833919484,0.505939954,43.05511725,-89.528525,2015,WIH1
PHG80/PHZ51,DEH1_2015,Y,19.85,679.6338035,0,0,280,148,68,65.5,2.877187484,6.848000002,1.658122271,2.899811139,0.533124998,6.398055441,4.542065261,4.666333417,5.694818618,92.06999949,68.48000002,26.86312445,94.40374921,0.778750002,57.58249897,115.8581242,26.73625046,176.5393772,18.09789148,17.20138936,20.11151884,21.0089777,21.53492481,19.24730516,17.70191113,15.05628078,15.14846735,16.82656264,19.24400005,20.72376954,27.68890342,31.56656283,31.86354174,32.09465687,30.43364003,29.09395151,6.265937505,9.858999991,10.7453803,17.67876376,20.38750017,21.35659703,22.77220607,22.28250884,20.56647162,6.521960329,8.412914767,9.229957748,14.85993723,17.9770315,18.58170739,19.36170697,18.35807444,16.86736745,0.750435273,0.870857151,0.962682184,1,1,1,1,1,38.62935675,-75.4656925,2015,DEH1
WF9/H95,MIH1_2016,N,20.5,697.0108042,0,16.5,204.5,108,64,62.5,3.213870927,0.372000003,1.277668238,2.072144594,0.204761899,2.382636341,6.277866916,3.129595251,4.115734243,99.62999874,1.860000014,16.77857134,74.4033328,0.614285696,24.34142835,217.3680916,23.88571438,123.5814282,20.04481233,22.69628944,22.57460654,21.19066928,19.62511718,19.41470496,17.43536011,14.16523572,12.41239439,17.74322581,29.20999985,25.57947765,28.1508514,27.23547651,30.32783564,28.27294529,26.6388532,22.50219404,5.299677434,16.33600006,11.90361174,14.70447611,15.74579377,17.52671,16.25511672,15.58650841,10.86825081,6.615827776,14.89908974,11.62365975,13.82943527,13.70908531,16.01583991,14.48649579,13.48265,10.09129455,0.734400922,1,1,1,1,0.999987733,0.99326559,0.936590208,42.41206675,-84.2952625,2016,MIH1
F42/OH43,NYH2_2019,Y,19.96666667,734.9827686,3.5,2.5,245.1666667,127.1666667,69.83333333,69.16666667,3.722580618,3.873333404,3.775457026,3.802397661,4.637142726,4.204990808,3.398979968,2.823191607,3.703221173,115.3999992,34.86000064,60.3757139,137.1514286,9.274285453,51.14714244,162.2557133,52.58999984,112.9585706,17.9818517,20.79040337,20.47381334,20.12131004,17.75572211,20.43491569,15.89805393,11.9646884,8.550151526,16.21290321,21.91111098,21.50181499,26.85703989,26.63857151,27.37846155,23.54873757,18.10625893,13.03721199,5.322258069,10.30000003,10.29481231,15.55148496,16.86547597,15.01097073,12.10049902,6.865122249,3.164741908,6.134411308,9.414033746,9.284856483,13.53502553,13.97316997,13.53140509,10.78045964,7.367712917,4.9030616,0.665391704,1,0.983534167,1,1,0.983842121,0.777563161,0.485846779,42.73221403,-76.65248675,2019,NYH2
PHN11_PHW65_0323/LH195,IAH4_2015,N,16.7,715.6749901,0,5,243,118,65,64,1.42451612,4.854615514,2.513668144,6.351127419,5.46999979,2.154687441,1.85099418,0.335758934,4.064770202,44.15999973,63.11000168,35.58999979,218.2399999,10.93999958,20.30812445,58.48687407,2.377500039,125.1143763,19.83997888,19.28772805,16.02270398,20.69822917,17.27718186,21.35831173,20.17303565,19.59360772,15.6142427,15.83032262,16.78769229,22.26164163,27.88725423,29.37999988,31.52784708,28.69895342,30.18404469,25.46833276,2.473548389,5.024615425,13.48280789,16.59868734,20.37374985,19.78628468,17.37298211,16.89515858,12.68514048,5.318693913,6.228847238,10.78291245,14.47529064,16.87687486,17.66054739,15.18141656,15.71210426,12.05907357,0.585391697,0.659230777,0.98994413,1,1,1,1,0.952600636,41.19970961,-91.49362406,2015,IAH4
B37/OH43,MOH1_1_2018,N,18.16666667,731.1212129,0,3.333333333,248,121.3333333,55.66666667,53.66666667,4.419032262,0.120000001,6.56660792,4.995913726,0,0.865952386,4.867908623,7.318145406,3.629241153,136.9900001,0.840000004,71.60142667,150.6285707,0,7.793571472,145.6157139,39.85928573,112.0157138,18.39395777,18.46565301,20.1607481,20.70593221,19.87326009,21.97749135,18.06982858,17.46468943,16.31914076,19.5254839,22.76714298,27.16554273,29.60936822,31.6271427,32.32420578,29.51628185,29.85375934,27.04843165,7.99741943,14.14714282,16.43732974,18.81172612,21.79964249,20.71007941,19.44316189,19.21155699,15.91814144,7.992986492,11.1555316,14.00535673,16.26359619,18.7133926,18.51714259,16.54699664,16.60044059,13.86670431,0.872361758,1,1,1,1,1,1,0.995607144,38.89791675,-92.20952075,2018,MOH1
B14A/OH43,NYH1_2019,N,24.7,675.7722478,0.5,14.5,279.1666667,153.3333333,70,70,3.742499989,3.13750004,5.753824184,3.193184694,5.054999975,4.679644987,3.141734315,2.115619262,4.095645999,119.7599996,25.10000032,83.05615347,110.7876916,10.59692295,60.83538484,169.67846,49.66846142,126.1984601,19.31204623,22.90652502,19.40556432,20.09548462,19.54416251,18.43271946,14.78687504,11.82668111,8.218362691,18.69937494,22.85875034,22.9010546,27.51683221,28.25012823,26.24284011,22.02988517,19.80082275,11.00573521,7.845625035,10.06374997,12.28813039,16.10263177,16.07333343,14.39934908,10.67406786,8.357505336,1.635690852,7.6395284,9.775213808,10.49055945,14.05854059,14.39300596,12.73828549,9.762895495,8.676471021,3.980466677,0.838560269,0.991875008,1,1,1,0.934962266,0.800347462,0.399612352,42.7288875,-76.65152084,2019,NYH1
F42/H95,DEH1_2016,Y,22.4,727.9032498,0,2,254.5,135,77.5,76,2.701875035,7.431818214,3.891344367,3.01543569,5.358105985,2.453055546,7.028031294,2.624318106,3.1968602,86.46000111,81.75000036,66.39499953,101.6163622,13.33454524,24.02227264,188.3231781,15.05272682,98.58045408,18.33047433,10.1000462,19.40971708,21.02938559,18.25055452,17.64652011,18.94468483,17.7865103,16.44449792,18.09,16.60090897,19.90208421,27.67646738,27.79681775,28.9030859,31.91379825,31.21812112,30.57169607,5.529687506,9.93090907,10.11289786,16.8589893,18.02106052,19.78800518,21.90881045,21.62957593,20.16127331,6.825577378,7.645605865,8.606637786,14.43603228,14.98401645,16.37610101,18.85541374,18.37748956,17.3477875,0.726328134,0.729318176,0.990929859,1,1,1,1,1,38.6482025,-75.44606,2016,DEH1
PHB47/PHZ51,NEH3_2015,N,14.53333333,771.0239551,0,0,229,110,64,62.66666667,3.231250057,0.918000031,0.565093977,1.286692195,3.19749999,1.391136354,0.258061221,1.474667183,0.155891338,103.4000018,4.590000153,6.150000095,39.04749978,4.720000029,15.30249989,11.17999983,14.52874985,4.648125023,21.79127574,25.69442635,22.86725485,21.82271665,15.26317632,20.59079,20.06412842,16.27968968,13.53861776,24.28750017,32.64599991,30.58771447,32.67731329,28.91593772,29.87238656,30.80707127,25.39031645,21.32018275,9.278749934,13.0079998,13.8828633,15.7826582,17.05531204,14.62710229,13.18313307,8.87540479,3.334017086,10.46257825,15.28330691,14.45465852,16.22005678,15.0938879,14.496454,14.53020136,10.90039565,7.851747396,0.909587052,1,1,1,1,0.965712824,0.862507779,0.80953931,41.15824525,-101.9872958,2015,NEH3
WF9/H95,GAH1_2015,N,14.2,759.439288,0,29,150,75,62,59.5,4.231249915,0,5.95843649,3.852603143,2.594000032,2.429925956,4.217759372,2.225466652,2.667397826,135.3999973,0,82.56599903,137.5619979,4.851333332,21.8693336,117.5779999,11.12733326,82.68933261,16.59936112,21.58269278,19.11661296,20.61616366,14.5260024,17.86473659,19.792993,19.1551459,18.46432438,25.43281227,26.81500022,26.00854227,27.82657943,29.9603331,30.57562955,31.8228303,33.58693334,33.75221527,12.50374998,10.5999999,12.24448314,13.90452364,20.76811106,20.25348139,20.64254904,22.17719986,22.29090342,11.85447967,11.72664631,11.94062668,13.41492991,17.36422208,17.41455547,18.23714923,19.83066815,19.89653894,0.988973219,1,1,1,1,1,1,1,31.505771,-83.555095,2015,GAH1
PHN11_PHG47_0251/PHB47,ARH2_2017,N,17.1,731.1212129,0,2,199.5,85.5,66.5,64,2.789999995,15.83285686,4.776016413,2.853949028,1.142500003,5.651818152,3.905948255,2.4430325,4.688621725,89.27999985,110.829998,61.6427269,88.95863769,3.003181826,52.42863608,105.2449988,13.33772746,145.3472735,17.14489296,19.09436907,20.93439511,19.65670258,19.84409681,19.1211903,18.81176407,19.65259997,17.546866,23.65656266,24.55142866,25.38541455,28.9612549,32.40098458,30.84565692,31.84241473,32.83627249,30.20087953,12.07343751,12.16142872,12.7110645,18.0477898,21.78734854,20.24410098,21.87781566,22.25639174,20.26112908,10.83878158,11.22094165,11.88579938,15.62584547,19.09416656,17.54487895,18.8103181,19.27693671,17.25265116,0.991674107,1,0.97315368,1,1,1,1,1,35.67418125,-90.0752695,2017,ARH2
B37/H95,DEH1_2020,N,24.1375,697.0108042,3.75,9.875,243.875,124,65.25,62.625,3.884838689,2.918749928,0.484801506,3.712682555,3.963928495,10.54878945,3.680508849,4.08975176,5.319973187,120.4299994,23.34999943,5.74999997,113.1935704,6.565714155,94.92928366,102.5935729,23.16642891,164.6128593,19.34389959,17.33862388,21.23126246,20.37262205,20.84469896,18.13380163,16.82964191,15.50064315,15.14081803,17.43483888,21.1624999,25.02143811,29.01024665,32.25440507,31.30417669,31.95048154,29.3682824,28.21514964,6.792903194,12.85250008,15.40184434,18.86790491,21.28607132,21.93053571,22.84339264,21.06525136,19.30786859,6.86665098,10.04482466,12.64072343,16.02028347,18.72161765,18.60397455,19.32804006,17.22313801,15.91003144,0.79362904,0.982098209,1,1,1,1,1,1,38.628981,-75.46566025,2020,DEH1
LH195/PHZ51,NCH1_2017,N,16.96666667,731.1212129,0,1.833333333,228.5,106.6666667,65,64,5.929354779,4.097142833,0.297958702,3.860588722,6.673809642,5.437090039,2.513672686,1.67758051,4.140460835,183.8099982,28.67999983,4.023333254,115.8195228,10.90952401,51.84571517,65.15761944,9.68857149,128.3542859,16.84796118,19.66078799,22.20077414,19.20396089,15.77249108,20.54839894,18.7994723,19.26606379,16.40835168,26.07000006,23.57857159,28.17011276,29.72614366,31.01404729,30.48814813,32.54721675,31.95695904,30.43138246,13.64064524,11.25142826,15.69757802,18.87536398,22.57674573,19.84793622,22.28039625,21.2748593,20.81350234,12.56442422,10.48784987,14.26665949,16.36044911,18.79940835,17.21144066,19.38557496,18.57336573,17.65269876,0.998329492,1,1,1,1,1,1,1,35.29663725,-77.5668065,2017,NCH1
CG44/CGR01,WIH3_2020,Y,17.4,715.6749901,0,0.25,223.25,105.25,57.5,56,2.733870995,5.446666638,6.112394342,4.74655674,3.655208389,1.04360979,2.527373572,3.69928986,2.61452892,84.75000083,32.67999983,82.9068754,167.6149986,8.003125131,12.58312517,113.8450009,40.74312496,78.93437568,20.41919384,18.2775027,21.33639865,20.40337995,19.49413761,18.99324058,17.80850823,14.15156863,10.1168501,15.48354838,26.52499994,25.39100386,27.30541678,28.00124967,27.24401428,25.77617537,21.78088819,14.67245705,3.106129019,15.18500026,12.31273591,15.12317531,16.14624966,16.31340126,13.17330579,9.92591724,4.431311843,5.287102842,13.2823578,11.70416503,13.61992535,14.28505882,13.97808988,12.29059579,9.657643491,5.630137727,0.571854837,1,1,1,1,0.965668942,0.879609054,0.560799012,44.115703,-89.54491325,2020,WIH3
W10001_0022/PHB47,TXH1_2015,N,10.35,747.8546209,0,2,152.5,83.5,65.5,64.5,2.435333351,0.886666695,4.529386736,2.992210444,0,5.407499953,3.236240411,4.528416659,2.205666663,73.06000052,5.320000172,54.16999972,113.7899998,0,59.48249948,89.11249819,24.54499996,66.1699999,13.38128519,15.80308406,13.73749678,19.48289484,22.46598899,19.96463979,19.54848583,19.57031498,18.03135075,19.61999995,26.26833312,25.8489028,26.4780255,30.37177098,28.79539756,31.9014052,33.48070828,34.35516661,6.122333375,12.74499997,15.39155332,13.69439061,15.83385423,15.9580683,20.41172374,21.45270844,23.93220836,7.516768444,12.28221354,13.06030889,12.7550996,15.35592881,14.67426974,18.11040569,19.30603111,20.37775841,0.822428569,1,0.992325397,0.994092815,1,1,1,0.999431249,30.54708625,-96.43393475,2015,TXH1
PB80/PHZ51,ILH1_2016,Y,16.85,707.9518787,0,2,249,125.5,73.5,71.5,2.976905237,4.388409027,2.266536067,5.61207631,2.384848472,3.596551307,3.312350719,4.357499975,4.793790319,93.71999985,46.35499933,33.46068128,180.4177266,4.628863606,41.73386359,104.1413657,28.32431801,148.2020453,18.82488241,16.77241452,21.32061235,20.18653607,20.74234538,18.07981042,18.8666989,17.85818253,16.07680721,18.05081144,19.20204525,23.0422997,29.42292662,27.90308728,26.97317812,29.60218573,29.15938829,28.17592877,4.960040295,8.531272602,10.4507586,17.10049505,15.99717794,16.84881478,19.41054858,18.84383108,17.09740687,6.781235125,7.969267807,10.17119166,15.41614171,14.29579798,14.15384892,16.51995977,16.04951253,14.84458937,0.666766271,0.897956159,0.946860721,1,1,1,1,0.999883117,40.0607245,-88.2338815,2016,ILH1
B14A/MO17,MOH1_2017,Y,17.4,731.1212129,1,4.5,244.5,135,62.5,61.5,8.937741737,9.40166688,2.512230721,3.318030003,5.035714369,1.794490762,1.996986524,1.220079397,1.67255761,277.0699939,56.41000128,33.26619119,103.9014299,11.93095259,15.87761924,65.30142803,7.334762096,51.25476209,18.72482054,18.08832916,22.62422694,21.00800173,18.77514496,19.93438148,19.70533138,19.36646121,17.34329115,21.92032254,25.32999992,25.47495036,29.30087203,30.46650729,32.25412016,29.92026774,28.22145964,28.04827898,10.06000005,15.27666648,12.99827088,17.39768618,19.78222205,21.21359122,18.70404881,16.33857143,14.9717184,9.612847321,12.76903024,11.94928206,15.49761919,17.12130987,18.67277384,16.20463701,14.48208578,13.92850008,0.915472353,1,1,1,1,1,1,0.999239796,38.89264,-92.2057525,2017,MOH1
LH74/PHN82,DEH1_2020,N,19.85,717.9275642,0.125,2.5,206.5,113.625,61,61.5,3.884838689,2.918749928,0.484801506,3.712682555,3.963928495,10.54878945,3.680508849,4.08975176,5.319973187,120.4299994,23.34999943,5.74999997,113.1935704,6.565714155,94.92928366,102.5935729,23.16642891,164.6128593,19.34389959,17.33862388,21.23126246,20.37262205,20.84469896,18.13380163,16.82964191,15.50064315,15.14081803,17.43483888,21.1624999,25.02143811,29.01024665,32.25440507,31.30417669,31.95048154,29.3682824,28.21514964,6.792903194,12.85250008,15.40184434,18.86790491,21.28607132,21.93053571,22.84339264,21.06525136,19.30786859,6.86665098,10.04482466,12.64072343,16.02028347,18.72161765,18.60397455,19.32804006,17.22313801,15.91003144,0.79362904,0.982098209,1,1,1,1,1,1,38.628981,-75.46566025,2020,DEH1
PHN11_PHW65_0323/LH195,WIH1_2018,Y,22.3975,788.465315,0,2,245.5,117.5,70.75,70.75,1.609999989,7.097692302,4.543300024,5.384655594,12.90857152,6.684415526,1.835393967,1.490247701,3.282350194,49.90999967,92.26999992,56.1414287,188.537143,17.774286,73.52857079,76.14071582,18.50214262,100.642856,20.21844376,17.61529163,19.67186989,21.74517717,19.19342093,18.08513378,19.62003162,16.98075827,12.74863056,13.31193533,16.25923072,24.73561688,28.00164855,31.39095186,28.11097395,26.99453296,26.15077082,19.9357303,1.183225821,5.521538512,13.28283365,14.89542408,18.89249983,17.62870117,14.61713968,12.9208708,8.385953947,4.208379921,6.163069931,11.75441076,13.86262536,17.16453014,14.91796624,13.29691021,12.54059059,8.511099252,0.430714275,0.66777473,1,1,1,0.987929958,0.939058758,0.805939432,43.0544,-89.5317,2018,WIH1
B37/OH43,ONH1_2016,Y,32.6,628.1463942,0,2,221,115,83.5,80.5,1.979032247,2.105714291,0.92181366,1.439738287,4.720833318,2.435439396,4.62931563,1.31185227,2.043303741,61.34999967,29.48000008,13.31600007,60.28400005,10.99249999,28.54150001,172.0475013,11.37649985,61.38049932,20.24883872,21.56727634,23.77365349,22.41142308,19.3081847,20.61473607,17.12813691,15.31534219,11.6349499,10.49290321,16.47999988,25.01561457,25.51466922,28.22516696,27.99415914,27.31356147,24.49017951,20.3886015,-0.735806467,3.753571405,10.93050922,11.61184699,15.55325019,14.71775745,15.07244109,12.71620509,9.185787659,3.269306411,5.688768484,11.09209761,11.56175859,14.2216101,13.76399544,13.57642435,11.5133866,8.776899495,0.291105988,0.684668367,0.99891379,0.988093962,1,0.998165816,0.971212584,0.877977401,43.4997965,-80.451125,2016,ONH1
LH82/PHB47,MIH1_2017,Y,20.45,675.1286552,0,6.5,96,47,62.5,62.5,2.651290334,1.642500043,0.365195355,3.685889798,0.022982455,0.462972321,1.745768067,1.924198947,6.215848807,82.19000036,13.14000034,4.417894763,131.6678931,0.068947365,5.871578781,77.40789432,25.15789459,187.919471,20.75480046,19.52619267,24.47429891,19.89055103,21.94334328,22.12060477,17.47908742,14.76431364,9.641321864,18.99677434,22.1187501,26.44652255,27.49693157,27.7329823,27.82492569,25.37386911,24.10071042,20.63989867,5.961290348,11.91874993,11.36318641,16.0503933,16.08877179,14.96255052,12.27657104,9.93890341,8.936309075,7.303217139,10.01258026,11.86785018,14.06113521,14.11607898,13.75096176,11.67659513,10.59348898,9.148775778,0.770126733,1,1,1,1,0.999072621,0.949278334,0.816440377,42.68116575,-84.49434125,2017,MIH1
TX714/TX779,SCH1_2018,N,20.325,731.1212129,0,2,163,97.5,64,64.5,5.509375073,3.372500002,5.775327928,7.728127661,4.71095229,3.130603142,3.123485158,2.01328566,5.79306447,176.3000023,26.98000002,97.60999952,245.6735731,5.415714213,31.8442854,83.93428482,10.53785687,179.5849986,18.64772365,19.28692877,21.1730546,18.16318131,18.84742333,19.2548603,19.994513,19.31783344,16.30139442,22.53906247,22.53374982,23.09020479,27.61870045,28.0654766,28.90856809,32.58479132,33.48333298,31.1168664,9.301562469,9.311250091,8.762400081,17.50665347,16.7615475,18.38295894,21.20797915,21.67128537,20.80767273,9.591191253,9.400074843,9.574505228,14.76793775,14.51962258,15.72381397,18.86169653,19.45105318,17.96288574,0.951841518,1,0.982626499,0.991514695,1,1,1,1,34.6223015,-82.7364835,2018,SCH1
2369/LH123HT,ONH1_2017,Y,33.7,648.7413579,0,2.5,285,145,83.5,83.5,4.42290319,4.904999876,1.545173221,3.420435244,1.695375006,2.594700004,1.855534774,1.54565171,2.383111348,137.1099989,49.04999876,23.52600009,140.8034994,5.378000009,36.46150006,95.23350107,29.85300009,72.44250006,18.65662235,17.08545341,23.10813164,20.12586768,18.11232318,19.44819915,16.33652997,11.62209215,7.957733996,13.94322577,18.20700026,22.35689536,24.80045755,25.17183321,25.2296929,22.79396283,22.13957367,13.29532023,3.578387066,9.706999969,10.10387851,14.12185296,14.82349991,13.63261195,10.3904862,9.847475595,3.166289439,4.958212412,8.025894563,9.659097931,11.97096233,12.35740613,11.98311106,9.953455995,10.0654016,5.273375752,0.439723498,0.877642858,1,1,1,0.972410901,0.840292505,0.515578473,43.49546,-80.42596875,2017,ONH1
W10004_0216/PHZ51,NCH1_2017,Y,17.7,731.1212129,0,2,229,110,65,64,5.929354779,4.097142833,0.297958702,3.860588722,6.673809642,5.437090039,2.513672686,1.67758051,4.140460835,183.8099982,28.67999983,4.023333254,115.8195228,10.90952401,51.84571517,65.15761944,9.68857149,128.3542859,16.84796118,19.66078799,22.20077414,19.20396089,15.77249108,20.54839894,18.7994723,19.26606379,16.40835168,26.07000006,23.57857159,28.17011276,29.72614366,31.01404729,30.48814813,32.54721675,31.95695904,30.43138246,13.64064524,11.25142826,15.69757802,18.87536398,22.57674573,19.84793622,22.28039625,21.2748593,20.81350234,12.56442422,10.48784987,14.26665949,16.36044911,18.79940835,17.21144066,19.38557496,18.57336573,17.65269876,0.998329492,1,1,1,1,1,1,1,35.29663725,-77.5668065,2017,NCH1
F42/MO17,GAH2_2017,N,16,747.2110283,20,1.5,243.5,125,55,55,5.215806507,2.59000005,0.877047008,6.976424555,36.66571527,11.68990473,2.766634194,6.717714339,5.237281131,161.6900017,18.13000035,10.98809533,219.4985743,69.630002,116.6428568,77.55666748,33.5885717,162.3557151,18.59375843,20.97986943,21.98193589,18.54567619,14.33990901,17.7663424,19.78523868,18.86354985,17.57616326,25.93516134,24.17571449,30.47339418,29.31252372,29.52904774,29.72980419,32.72601502,32.10511542,30.76784952,12.17225799,9.938571385,16.15324828,18.06353156,20.43476164,19.51114297,21.20992787,20.86352373,19.95543778,11.90954616,10.38538115,15.45655397,15.75249851,16.98190469,16.63412837,18.90169131,18.47155665,17.41241638,0.999631335,0.985714285,1,1,1,1,1,1,33.727145,-83.29821525,2017,GAH2
CG60/LH162,MIH1_2017,N,13.025,669.0145253,0,3.25,87.25,42.75,56.25,56.25,2.651290334,1.642500043,0.365195355,3.685889798,0.022982455,0.462972321,1.745768067,1.924198947,6.215848807,82.19000036,13.14000034,4.417894763,131.6678931,0.068947365,5.871578781,77.40789432,25.15789459,187.919471,20.75480046,19.52619267,24.47429891,19.89055103,21.94334328,22.12060477,17.47908742,14.76431364,9.641321864,18.99677434,22.1187501,26.44652255,27.49693157,27.7329823,27.82492569,25.37386911,24.10071042,20.63989867,5.961290348,11.91874993,11.36318641,16.0503933,16.08877179,14.96255052,12.27657104,9.93890341,8.936309075,7.303217139,10.01258026,11.86785018,14.06113521,14.11607898,13.75096176,11.67659513,10.59348898,9.148775778,0.770126733,1,1,1,1,0.999072621,0.949278334,0.816440377,42.68116575,-84.49434125,2017,MIH1
F42/OH43,WIH1_2019,N,23.25,707.9518787,0,0,248.335,135.835,72.5,71,3.104193578,4.990909143,3.989206625,5.063632664,7.174102343,5.657788874,3.979490855,4.117971668,7.043559998,96.23000091,54.90000057,56.46538491,184.9676922,7.656153606,56.9199983,170.6046141,43.34153838,211.8461548,19.32800511,20.47989629,21.14585761,19.94081469,20.4834897,19.00171798,17.70480678,14.70759561,11.13260624,14.4303226,19.6027272,23.71186264,26.54399323,29.1737175,29.51828996,25.99775321,22.10125555,19.22207941,3.044193574,6.375454621,11.90649765,15.02653282,17.46782019,18.4264638,14.78313726,11.24849031,9.42963116,4.974875238,7.497369644,10.75801096,13.26663909,15.42227287,16.03343447,12.80151602,10.12875121,8.730340077,0.520449311,0.882272729,0.994529143,0.999440504,1,0.998245342,0.92932789,0.792629622,43.060857,-89.494068,2019,WIH1
B14A/MO17,COH1_2017,N,42.675,568.9358734,1.75,25.25,232.75,119.25,77,75,3.393124943,0,0.001708684,0.360843908,0.891428554,3.560382097,1.42287895,1.565670675,1.770870451,108.5799982,0,0.02904762,12.29476177,1.600476163,43.78523833,56.48285717,21.02523811,53.20285701,22.26802993,25.65694836,25.9931063,24.2875628,21.26982858,19.37652668,19.65631787,15.92591012,11.99136935,20.38624986,26.27857154,29.00990249,30.95750085,32.84396765,29.24597739,27.87075516,24.49812031,17.64004964,4.676250031,9.955714362,11.44166305,13.33492254,15.64190474,14.2894836,11.55992968,8.650869984,2.505724526,7.387813889,11.22152513,12.97827389,14.53136664,16.23032426,14.11586508,12.58015619,10.40568176,6.007000116,0.859799101,1,1,1,1,0.978368119,0.882220332,0.653649732,40.64850025,-104.9997825,2017,COH1
B73/PHZ51,COH1_2017,N,36.975,599.828319,0.5,17.75,244.5,125.75,77,75.5,3.393124943,0,0.001708684,0.360843908,0.891428554,3.560382097,1.42287895,1.565670675,1.770870451,108.5799982,0,0.02904762,12.29476177,1.600476163,43.78523833,56.48285717,21.02523811,53.20285701,22.26802993,25.65694836,25.9931063,24.2875628,21.26982858,19.37652668,19.65631787,15.92591012,11.99136935,20.38624986,26.27857154,29.00990249,30.95750085,32.84396765,29.24597739,27.87075516,24.49812031,17.64004964,4.676250031,9.955714362,11.44166305,13.33492254,15.64190474,14.2894836,11.55992968,8.650869984,2.505724526,7.387813889,11.22152513,12.97827389,14.53136664,16.23032426,14.11586508,12.58015619,10.40568176,6.007000116,0.859799101,1,1,1,1,0.978368119,0.882220332,0.653649732,40.64850025,-104.9997825,2017,COH1
B14A/H95,OHH1_2016,N,20.2,716.3185827,0,44.5,280.5,143.5,65,64,4.328064465,1.776000023,3.915145208,2.580740659,3.890757626,4.17049496,5.079069289,3.957741935,3.614594814,134.1699984,8.880000114,44.70363614,85.9177286,9.330454675,39.94818193,160.1854537,27.69772666,110.1186362,18.3437644,22.24283047,20.73146956,20.35982518,19.15233416,18.82824642,16.72048491,17.98730955,14.71797893,19.63580645,29.63200035,26.56953589,28.59263588,29.59106055,30.69283836,29.21689182,28.27188687,26.30588322,8.120967747,16.89599972,14.9739129,16.70528562,18.30318191,19.74443426,18.9160149,15.44500838,13.40262461,8.117657052,15.32722009,13.17028057,14.81678154,15.96857054,17.23303236,16.11713161,14.21502474,12.5845871,0.859331788,1,1,1,1,1,0.999172078,0.989049277,39.860924,-83.6755995,2016,OHH1
PHW52/PHM49,NEH4_2015,N,15.3,787.1137705,0,2,240,115,65,54,2.821875036,0,3.668207424,2.0125769,1.951249957,2.654893884,1.684158262,0.190010425,1.166079967,90.30000114,0,33.89000034,59.04687595,1.951249957,28.04999942,59.1787506,1.401875056,35.09749981,18.84220009,27.31064491,20.41342533,20.52862815,19.03072298,18.81303122,18.33826559,17.15407273,12.68489203,24.01437524,30.79399948,29.66091772,30.90712841,30.81250072,28.65153035,29.50292414,26.73776808,20.93262179,13.35843744,15.59799976,18.4981335,19.26878801,20.26031268,17.34358901,16.24316685,11.04417556,7.09840123,11.80342709,15.44887437,16.14310254,17.09436255,17.53736601,15.18702607,15.25106182,11.88303257,8.618375536,0.931774556,1,1,1,1,0.97284651,0.984144349,0.784438609,41.16732275,-96.41663225,2015,NEH4
F42/OH43,IAH4_2019,Y,37,656.7862656,1.75,0.5,246.25,117.25,61.5,59.25,7.44874995,0,6.508814674,5.652572602,2.433809479,0.731547632,2.455795253,7.856419535,5.758725846,238.3599984,0,89.12928634,169.456428,4.779285618,8.60571444,106.5300014,62.81714391,173.1250012,18.61457558,24.25652275,18.80062453,19.64217675,17.01762246,21.29967345,16.82875041,12.82062273,10.73648339,20.72718754,29.98400002,24.57226332,29.58102216,28.11761892,27.58625519,26.21902431,25.70162766,18.66579105,8.655312385,16.39199963,13.30590142,18.52555793,18.42333308,15.4118289,14.78252205,14.57801647,7.354403302,8.719182336,15.28713381,11.55896644,16.12377034,15.4195504,13.79277779,12.9189296,12.78184671,8.051480754,0.866629464,1,1,1,1,0.996735112,0.969646609,0.721601517,42.03193798,-93.79333213,2019,IAH4
TX951/LH195,ONH2_2016,N,24,736.2699538,4.5,10.5,256,140,81,75.5,1.435483875,1.740833327,1.463802716,3.022687524,0.150999999,1.134659085,3.046446673,1.693503778,2.765116665,44.50000012,20.88999993,18.84600039,117.1590009,0.150999999,12.25349994,101.0444998,13.16149993,84.26899996,19.72563927,22.19747464,21.68954048,21.77365896,18.98664827,19.92678304,16.69906166,15.68152671,12.9072029,14.10741935,17.58083336,26.00758685,26.04894451,27.78099985,28.79287246,28.2480382,25.9224786,23.75348014,4.257419363,7.13166666,15.03828811,14.1477789,17.72699971,17.33924119,18.24672102,15.95494667,14.17526013,5.131346137,6.986841243,12.85116395,12.65171997,14.84296497,15.26027205,15.31782021,13.26534606,11.67621189,0.511244241,0.799851209,1,1,1,1,1,0.975829282,42.4530035,-81.88279875,2016,ONH2
B14A/OH43,ONH1_2017,Y,17.7,731.1212129,0,2,229,110,65,64,4.42290319,4.904999876,1.545173221,3.420435244,1.695375006,2.594700004,1.855534774,1.54565171,2.383111348,137.1099989,49.04999876,23.52600009,140.8034994,5.378000009,36.46150006,95.23350107,29.85300009,72.44250006,18.65662235,17.08545341,23.10813164,20.12586768,18.11232318,19.44819915,16.33652997,11.62209215,7.957733996,13.94322577,18.20700026,22.35689536,24.80045755,25.17183321,25.2296929,22.79396283,22.13957367,13.29532023,3.578387066,9.706999969,10.10387851,14.12185296,14.82349991,13.63261195,10.3904862,9.847475595,3.166289439,4.958212412,8.025894563,9.659097931,11.97096233,12.35740613,11.98311106,9.953455995,10.0654016,5.273375752,0.439723498,0.877642858,1,1,1,0.972410901,0.840292505,0.515578473,43.49546,-80.42596875,2017,ONH1
B14A/MO17,DEH1_2019,N,21.3,700.2287673,0,2.5,223.25,101.5,60.5,59.25,4.885483834,0.129999995,2.22754366,2.838879743,7.092619056,13.09007943,2.376059147,7.246095167,5.291338731,151.4499989,1.169999957,29.41999924,87.75142762,13.32785715,117.8107149,70.17642808,38.82285679,163.7607149,18.09422633,22.52754413,19.09832956,21.10549391,16.87992425,18.38683534,17.43790908,14.47643482,15.18822094,17.49129031,20.55777783,23.08374535,28.61102885,30.70333358,31.53571423,31.96636291,30.10673826,28.44137569,7.04516129,9.184444467,14.30050877,18.34149326,20.74333359,21.70119062,22.68293302,22.03347627,19.57253904,6.992168387,8.735510177,11.41430501,15.6056687,17.71122979,18.59296506,19.259015,18.07354239,16.13042035,0.769815656,0.948412699,0.988507504,1,1,1,1,1,38.670675,-75.433225,2019,DEH1
B37/H95,COH1_2017,N,34.3,625.2502274,6,18.25,235.5,105.5,78.5,75,3.393124943,0,0.001708684,0.360843908,0.891428554,3.560382097,1.42287895,1.565670675,1.770870451,108.5799982,0,0.02904762,12.29476177,1.600476163,43.78523833,56.48285717,21.02523811,53.20285701,22.26802993,25.65694836,25.9931063,24.2875628,21.26982858,19.37652668,19.65631787,15.92591012,11.99136935,20.38624986,26.27857154,29.00990249,30.95750085,32.84396765,29.24597739,27.87075516,24.49812031,17.64004964,4.676250031,9.955714362,11.44166305,13.33492254,15.64190474,14.2894836,11.55992968,8.650869984,2.505724526,7.387813889,11.22152513,12.97827389,14.53136664,16.23032426,14.11586508,12.58015619,10.40568176,6.007000116,0.859799101,1,1,1,1,0.978368119,0.882220332,0.653649732,40.64850025,-104.9997825,2017,COH1
B73/PHN82,ONH1_2015,Y,40,732.4083981,0,1,250,127.5,88.5,88.5,1.605625002,2.296315821,1.411426091,1.973297954,0.512941169,3.436769168,2.641035405,1.799953816,2.360571209,51.38000005,43.63000059,20.30117703,73.50294104,0.81882352,40.73352947,103.9364728,19.58470627,71.14882509,18.02169462,20.4737019,23.34007091,22.64543997,20.24065375,18.07254412,18.60447299,14.22755231,12.21920895,9.771562532,12.63473691,23.7578119,26.83441686,29.90941261,27.46928249,26.11972075,22.82201755,18.35250846,-0.327500018,2.045263152,11.01347606,13.31919887,17.43313718,16.50329302,14.06775752,11.69572195,7.013714688,2.851211725,4.201400589,10.67713105,12.77399982,15.76589753,14.15032606,12.63577386,10.48249806,7.379159901,0.167098218,0.403345874,0.957007131,0.991950294,1,0.994472794,0.939113043,0.772366561,43.49741975,-80.44806025,2015,ONH1
B73/TX779,NYH3_2020,N,13.7,470.466203,0,1,270.5,148.5,77,75,4.422257993,0,1.373865683,3.203515064,6.161458224,3.578657229,2.247619776,1.339995863,2.270768823,137.0899978,0,18.69000064,113.6731244,12.19749978,37.86125033,87.74812532,17.041875,68.54562519,20.94560956,21.78233427,21.55267425,20.63825651,19.18147684,18.87690393,17.75633085,13.93943947,11.5316014,14.59225801,27.97729172,23.60945411,27.89842024,28.17958339,28.76829368,26.51617347,21.47489044,18.12990527,2.644717742,15.68266662,11.3508871,15.53912014,16.43281273,17.50013456,14.53010818,10.52921434,6.891416056,5.000434995,14.04753459,10.70035646,14.11697706,14.42792892,15.19886376,13.03509367,9.604727821,7.356101809,0.471947005,1,0.969562211,0.99553941,1,0.989555914,0.903066166,0.764418635,42.73227475,-76.6513705,2020,NYH3
B14A/H95,DEH1_2018,N,19.75,737.2353427,0,3.75,206.75,103.75,69.5,69.5,3.413225795,4.724545566,2.007753279,2.760624154,0.287142856,8.862777665,3.915865231,4.933581623,5.971971652,105.8099996,51.97000122,28.2621423,90.35856978,0.861428567,79.76499898,101.102142,26.37928568,184.7400021,18.24738333,20.30334785,18.96061465,21.19242313,20.3949075,18.85770366,17.73482038,14.47844699,15.08372737,17.38161278,18.28454564,22.01469092,28.14795471,32.28714262,31.68230149,32.09286912,30.42106803,28.79790015,6.703871004,7.41363637,12.85857977,17.97497576,22.0019049,21.31992057,22.76420594,22.26141136,20.21526036,6.825711165,7.366383816,10.38385741,15.21158117,19.10753111,18.47850441,19.35879976,18.34204267,16.58274325,0.781601378,0.839058448,0.989425295,1,1,1,1,1,38.65164475,-75.44913625,2018,DEH1
LH195/LH82,NCH1_2015,Y,17.75,731.1212129,0,0,175.5,84,65,64,3.0140625,9.692856925,3.043308324,7.00027835,0,3.411347986,2.886716411,10.31533332,6.56176467,96.44999999,67.84999847,47.46470581,233.8535261,0,30.12176424,80.44058821,53.94764695,203.4147048,18.56641886,18.5514961,20.38733283,17.18369043,24.39251002,21.03629604,20.30189304,17.27178406,15.58503138,22.38312501,24.94999995,23.18034629,27.40244989,31.82117664,31.76743482,33.30845927,33.22968591,31.16039845,8.592187501,12.50999982,10.48535005,18.40286831,19.92058833,21.46261411,22.34001137,22.61282364,21.92468694,9.285127697,11.46773529,10.15801447,14.99239002,17.87088248,18.60652477,19.71826945,19.84422869,18.53531879,0.955334819,1,0.995809598,1,1,1,1,1,35.29657708,-77.5664625,2015,NCH1
CG44/CGR01,GAH2_2018,Y,14,754.9341397,1.5,2,207,73,50,49,4.849677459,0.472857135,6.389842835,2.50728713,2.625000003,3.795198411,2.499668454,2.828785729,3.724124467,150.3400012,3.309999943,84.90856965,76.95785742,5.387857173,33.84785713,66.14142865,15.06428581,115.4478585,20.49558812,21.88511535,20.33298503,19.15998772,23.51626716,19.70790798,20.02489003,19.42019064,16.00793598,23.5748387,25.80428559,25.09824669,29.4338755,32.57678595,32.30446448,33.95531338,34.12885699,31.99587548,8.787742034,10.57714278,11.20780819,18.18961495,18.46904782,20.57888879,21.25284753,21.08492862,21.01629033,9.717543295,11.3392147,11.23425566,15.89113211,17.53376954,18.44167663,19.31882395,19.47290933,18.49284767,0.993778801,1,1,1,1,1,1,1,33.71560925,-83.30894675,2018,GAH2
PHG29/PHG47,KSH1_2016,N,13.6,742.70588,0,2,155,70,93,93,0.381562503,5.593749881,9.031136959,3.981909994,0,0.897724769,5.011421387,3.322424253,5.670073263,12.2100001,44.74999905,140.9509078,148.5090918,0,8.374091108,139.438637,19.93454552,175.7722711,18.43315426,14.04582843,18.34613738,20.88446512,22.70328743,20.59441801,18.34986672,18.15379387,17.32510191,19.15124996,21.70124984,22.33901244,27.19377063,36.31272689,35.17540036,32.01078432,33.85633352,30.76895891,2.130625044,11.46499991,9.568238579,14.2621368,21.58727247,22.04353923,20.78061301,22.71134866,19.49139311,6.3158573,9.667291017,9.626890379,13.35418843,19.56599107,19.14397536,18.06824645,19.12054732,17.03744615,0.741573662,1,0.921279778,0.986042268,0.991287871,0.998977631,0.993550002,1,39.14480675,-96.62898225,2016,KSH1
PHW52/PHN82,NYH3_2018,Y,25.725,652.0880395,0,2,187.5,86,71,70.5,4.152903213,0.855714253,1.333281551,1.973054112,19.58384622,4.14286014,1.827699262,3.76173812,1.90156246,128.7399996,5.989999771,17.49230713,69.9676929,40.09153858,44.76538462,69.41461665,34.65000019,57.30153882,20.64383799,23.73438372,20.91517994,21.34827616,15.57480097,18.28181198,18.59806785,13.9987834,13.21485935,12.82806446,24.72714315,24.74142799,27.59651287,28.68307664,28.50629367,27.06434367,24.34345721,20.06623908,1.452258048,10.48999977,13.10088293,14.82547593,19.13846159,17.45270631,15.13507682,13.07327349,8.10410419,4.113027627,10.74522894,11.82730489,13.73068126,15.93834835,15.05075648,13.50240047,11.64767513,8.352187515,0.351670502,1,0.973040659,0.995029228,1,0.992439429,0.946636381,0.843044516,42.7261605,-76.6556765,2018,NYH3
2369/LH123HT,IAH1_2019,Y,24,699.5851746,0,5,235,110,65,64,8.157187574,0.75333335,7.315577374,1.144389074,0.212857144,0.731688293,3.103679801,5.185721735,4.918979992,261.0300024,4.5200001,87.30642721,32.26642813,0.212857144,8.04857122,121.5035704,46.39999972,147.9399989,18.01904646,22.72114833,18.53868323,20.84617194,19.20093738,21.91428985,16.4832458,14.23349405,11.00878768,22.30999994,27.52999973,24.52617789,31.4481278,28.63047609,29.47870132,27.11002697,25.00731411,20.46577188,10.93062501,14.96333329,14.91684483,20.02766766,18.36452364,16.34071412,15.67686671,13.06746994,9.592819484,10.11779152,13.58137929,12.09039624,17.73903178,15.5681627,15.08353594,13.70818638,12.14295105,9.387875541,0.879263394,1,1,1,1,0.994329881,0.928985237,0.797752907,41.1992562,-91.4941418,2019,IAH1
B73/PHZ51,NEH2_2015,N,14.35,759.439288,0,0.5,229,110,94,94,1.358750008,3.755999994,3.031264216,1.286090902,0.286666671,1.657187527,3.751759362,0.157499999,0.616713691,43.48000026,37.55999994,66.29000026,43.49999976,0.860000014,16.57187527,117.6431233,0.944999993,18.99062441,19.53783247,19.98656282,18.8528682,23.65152674,23.21232343,22.7312118,19.62767813,21.61948185,18.20728239,15.03874992,23.15200024,18.66927583,30.14561768,32.37510385,32.60862507,30.36489819,32.31320816,28.31448706,-2.426562488,5.230999994,5.264051067,13.5723423,16.5714581,16.13087479,15.9646131,15.56819047,11.19634675,4.192485347,8.478296732,6.894904354,14.37610508,16.560328,16.47008009,15.3434088,16.05261291,12.83173005,0.519497764,0.97653572,0.809891265,1,1,1,1,0.922021698,41.0514495,-100.7471915,2015,NEH2
PHG39/PHN82,NYH3_2019,Y,23.2,677.7030257,1,0.5,236,118,77,76.5,3.722580618,3.873333404,3.769554008,3.757958966,6.56821411,3.88506864,3.604603585,1.929858492,3.709694332,115.3999992,34.86000064,61.04857108,135.2235714,13.13642822,47.6607138,172.5314276,35.27499978,112.0914282,17.9818517,20.79040337,20.53458356,20.20586531,15.56107187,20.47665645,15.7702462,13.42945136,8.802352299,16.21290321,21.91111098,21.5613082,26.8770008,26.27928579,27.19863099,23.33754175,19.77308355,13.39834902,5.322258069,10.30000003,10.31609792,15.50927174,17.62488075,14.92700095,12.00041282,8.027538821,3.378330702,6.134411308,9.414033746,9.318517767,13.52970479,14.11503311,13.40897889,10.69134109,8.327220554,5.109082433,0.665391704,1,0.983452189,1,1,0.970435943,0.837841689,0.510564168,42.7321756,-76.65345463,2019,NYH3
