"Hybrid","Env","moisture","test_weight","root_lodging","stalk_lodging","plant_height","ear_height","silk","pollen","Rain_1","Rain_2","Rain_3","Rain_5","Rain_6","Rain_7","Rain_8","Rain_10","Rain_11","AccPrecip_1","AccPrecip_2","AccPrecip_3","AccPrecip_5","AccPrecip_6","AccPrecip_7","AccPrecip_8","AccPrecip_10","AccPrecip_11","Radn_1","Radn_2","Radn_3","Radn_5","Radn_6","Radn_7","Radn_8","Radn_10","Radn_11","MaxT_1","MaxT_2","MaxT_3","MaxT_5","MaxT_6","MaxT_7","MaxT_8","MaxT_10","MaxT_11","MinT_1","MinT_2","MinT_3","MinT_5","MinT_6","MinT_7","MinT_8","MinT_10","MinT_11","ThermalTime_1","ThermalTime_2","ThermalTime_3","ThermalTime_5","ThermalTime_6","ThermalTime_7","ThermalTime_8","ThermalTime_10","ThermalTime_11","TempStress_1","TempStress_2","TempStress_3","TempStress_5","TempStress_7","TempStress_8","TempStress_10","TempStress_11","latitude","longitude","year","field_location","ID"
"B37/H95","IAH4_2017",20.225,715.67499005952,0,2,229,110,65,64,3.05419361206793,4.63857133047921,5.65428284440315,2.35614602206887,0.14500000260093,0.823262633699359,3.0299399841441,2.50648539721385,3.02203274721158,94.6800019741058,32.4699993133545,92.5500001907349,79.8100001811981,0.29000000520186,7.93136371265758,110.043181820349,17.6581818705255,91.7922727492723,19.6043462753296,22.3785518918719,18.8162880805234,21.4694011437152,22.4233230460774,21.2695237410189,19.151369503563,15.9420575880557,15.341385783443,17.8393548227126,25.2142854418073,21.7675578492375,28.8834045222006,30.8898489258506,30.9933841088806,28.3060990673118,26.2662246385522,25.9343880588008,4.95258065529408,10.1399999346052,10.2470841328658,15.0215020746586,17.4712879585497,18.0760807755018,15.8066246452854,13.8702660153955,12.5135465144736,6.57524394811711,10.823012742074,9.64996062135486,14.3656457039619,16.2281010402398,16.5739815495123,14.3659785216558,12.5754656563723,12.0621406847053,0.727396317478698,1,0.91008219867215,1,1,1,1,0.9871688305106,41.99455432,-93.69030947,2017,"IAH4",1
"2369/LH123HT","IAH3_2019",24.35,700.22876725248,1,0,260,135,65,64,2.87967741873956,8.32583327094714,8.51498268664919,3.93025379619713,0.537380945114862,2.30548409999363,2.30643291365225,9.35084180503475,5.38576807027222,89.2699999809265,99.9099992513657,122.184284857341,140.485713907651,1.61214283534459,22.5078568799155,97.5699995500701,77.3099997895105,164.0414292046,18.1142603966498,18.1443339188894,18.3413321123021,20.201027617392,20.300838129861,21.1054272636535,19.1415173112962,15.0396348400181,12.8306827393911,16.6003224618973,18.1858332951864,22.2454307275236,27.0961160085109,28.6041666212536,30.1634999048142,27.5966134857582,25.6273498156714,23.1327250613961,3.49709678080774,6.01583334803581,10.9452180639278,15.708069757536,18.1813099157243,18.4487380724105,15.5540504778692,14.1479336357171,12.0451344325606,5.80312239518703,7.04880735416509,9.97752924339372,13.7421048026589,15.4370156630591,16.3669887817759,13.8976006035477,12.4340048497443,10.9470109781651,0.634539169100572,0.718095231978666,0.92633768065977,1,1,1,0.993248299575176,0.897879883262644,41.97593131,-92.24310603,2019,"IAH3",1
"B73/PHN82","NYH2_2017",21.15,706.02110080512,0,21.5,244,119,78,76.5,4.98580635363056,2.59333333704207,3.45371500532324,5.89688957038573,0.94807019150048,3.20841810925976,2.37965572681416,2.69433302149013,3.3979729822606,154.559996962547,23.3400000333786,55.2357888974641,222.98894784325,1.76315789473684,41.8126309106224,117.779474443511,23.6378949959027,104.191053542652,18.9189640937313,18.2290218141344,21.6231091311596,19.2816943373654,21.2024165956598,18.916781590673,16.9740698632348,13.8804367561403,9.43949481778822,16.549032380504,19.8011112213135,22.3488199715029,25.6546189886677,27.1610527540508,25.3148987975818,23.2880304669988,24.2514658183566,18.2446084072576,5.23967740420372,10.2422222031487,10.5593938701109,15.2177031552253,15.8735966682434,14.8450433481215,11.5614248973978,11.1539849421825,7.35242725274508,6.26789810278045,8.57074783107705,9.79388514165009,12.8009794426063,13.6890467322532,12.4613839915646,10.5515557799113,10.876639235376,7.68889693415974,0.638917053418775,1,1,1,1,0.981507474576186,0.966916282342149,0.722284214210263,42.73248125,-76.65275025,2017,"NYH2",1
"PHN11_OH43_0001/PHB47","SDH1_2015",13.8,689.28769276416,0,2,162,73.5,65,64.5,1.89000003376315,2.68444448047214,2.84721252258907,0.928406020685138,1.08916666979591,1.21319316571409,1.12388611954165,3.99455887308239,0.570569385236773,58.5900010466576,24.1600003242493,33.8600005656481,31.148749768734,1.72000000625849,12.7762498259544,39.0256242752075,27.9024994894862,17.6581250801682,21.1644650428526,23.3864585028754,24.0305424227224,23.9487849489623,21.7433571616809,21.4249004835432,20.6021277482611,16.2774682791546,15.1857998291828,19.0429034079275,22.5888888041178,27.2082641597216,30.462296538412,29.5476047595342,31.8607387889515,31.4777038165944,29.4866452272578,24.897335823114,4.20870966368145,8.46888891855876,11.6908214324257,14.2596964676466,14.2906251748403,16.0653409849514,14.0226982217202,14.1157811645306,6.94290009588376,6.80751690571185,9.21066066646885,12.2739043710277,14.6760611342004,14.1888826298485,15.8143187909023,15.0055273063528,14.1753903925901,9.83480829576472,0.770253459523831,0.983690483229501,1,1,1,0.983472358000217,0.961069401861592,0.950039755118484,44.208745,-102.928745,2015,"SDH1",1
"B14A/OH43","ARH2_2016",13.25,731.12121286656,0,1.5,202.5,109,64,62.5,5.78093742206693,12.265000184377,3.71212020820834,7.02228860006285,1.10500001907349,0.295568184419112,1.93128791351543,1.45469692692612,6.28083569178483,184.989997506142,73.5900011062622,50.6740907539021,233.205909837376,2.21000003814697,2.36454547535289,51.2972726388411,7.65681795640425,194.70590644533,17.7645711898804,17.2271962165833,20.1405853736324,19.8064448117891,18.8826211727027,19.79738723148,18.6944065441324,19.8885487758752,15.607143551723,21.0278125703335,25.6983334223429,24.8822470662624,27.5574788870291,33.1628784988866,33.3801704536785,32.4072806330723,33.7124844464389,31.3768475300406,8.51718754693866,14.1383333206177,13.2669300286413,16.7583488235741,22.7915153503418,23.2152275497263,22.5635331248055,22.9502423373136,22.3752492012516,8.62630812400512,12.3761800663264,11.7581879605187,14.4664485465038,19.8918990278765,20.2426308826887,19.4302420192383,20.2373530270853,18.8112695233672,0.958649555088154,1,1,1,1,1,1,1,35.838614,-90.66530155,2016,"ARH2",1
"B73/PHN82","TXH1_2019",10.855,853.371630458112,0,0,198,68.5,68.5,68,1.71448274965173,0.072857141494751,3.656594302147,9.09543456371003,0.409285715648106,1.20767857134342,5.35585078307965,1.24614285230637,1.57441934339828,49.7199997399002,0.509999990463257,52.0078563094139,328.212138780526,0.592857139451163,9.66142857074738,146.447857277734,6.531428532941,47.5149996536119,15.4280570457722,20.5213113512312,18.768988344457,18.5703255916766,21.4234965869359,18.852815253394,20.148813605732,21.0307275136312,19.8408923398148,18.4500000723477,25.7642857687814,24.4325494379212,27.2758673216928,31.0900000163487,32.3786609854017,32.7243520483546,34.0447144826253,34.9820077594341,6.8262069143098,10.3500000408718,10.6796315414328,14.7876673923985,18.6585717882429,21.8507142748152,21.0244273483534,21.7961428233555,22.6049738996772,7.4578164675981,11.1589152046898,10.8511947929525,13.4663040330347,16.9119367665064,19.1141210544432,18.8476531392514,19.7780710195599,20.0141955883191,0.749667494461454,1,0.945308164445992,1,1,1,1,0.999698925164804,30.546318,-96.4329965,2019,"TXH1",2
"W10005_0107/PHB47","DEH1_2015",17.25,709.88265650688,0,0.5,236.5,111.5,61.5,60.5,2.877187483944,6.84800000190735,1.65812227065002,2.89981113868033,0.533124998211861,6.39805544084973,4.54206526084818,4.66633341695581,5.69481861783612,92.069999486208,68.4800000190735,26.8631244525313,94.403749205172,0.778750002384186,57.5824989676476,115.858124211431,26.7362504601479,176.53937715292,18.0978914797306,17.2013893604279,20.1115188355204,21.0089776981854,21.5349248051643,19.2473051614232,17.7019111319721,15.0562807784194,15.1484673523134,16.8265626430511,19.2440000534058,20.7237695406926,27.6889034218542,31.5665628314018,31.8635417355431,32.09465687106,30.4336400264785,29.0939515059994,6.26593750482425,9.85899999141693,10.7453803031313,17.6787637613727,20.387500166893,21.3565970261892,22.772206074744,22.282508844421,20.5664716151453,6.52196032901766,8.41291476735724,9.22995774812798,14.8599372331721,17.9770314991474,18.5817073937474,19.3617069706047,18.3580744354498,16.8673674529789,0.750435272946821,0.870857151065554,0.962682183853112,1,1,1,1,1,38.62935675,-75.4656925,2015,"DEH1",1
"PHW52/PHM49","GAH1_2020",18.08,705.37750818816,0.5,1.5,175,80,66.5,65,4.27968756295741,0,6.08243138020408,3.81142053665399,2.26797622726077,2.53000005464705,3.98378478018425,1.74183334594681,2.91020735672542,136.950002014637,0,84.3757133483887,135.927856496402,4.83357150214059,22.7700004918235,107.937856589045,9.11500006914139,90.216428058488,16.61263859272,21.597287495931,19.1063623666566,20.7228669323379,14.5468794504801,18.1558473072355,20.0860545342815,19.6863488855816,18.2778173152203,25.3734375238419,26.7716668446859,25.9414437889232,27.7782461895112,29.5535711560931,30.6518254961286,31.7819527581035,33.481785315559,33.5632257461548,12.4387500640005,10.556666692098,12.1903592865197,13.8072078123191,20.5805949710664,20.2611109718444,20.573869922599,21.9683809507461,22.2545622197164,11.8050821453841,11.6911327448693,11.8898952454891,13.3543297450153,17.0670830635797,17.4564682339865,18.1799652092781,19.6703232683732,19.801667626888,0.988537947248135,1,1,1,1,1,1,1,31.5079775,-83.558517,2020,"GAH1",1
"B73/PHZ51","NYH1_2017",16.9,731.12121286656,2.5,11.5,239,122.5,79,76.5,4.75870958066756,4.13999998569489,2.95302494204596,5.71550623200518,4.32087287827144,2.70173206300027,2.61632844338824,1.02263058497457,3.61426843911905,147.519997000694,37.259999871254,45.1261899925414,219.922381491888,11.2685710702624,35.6957141047432,128.424762705962,13.3047620654106,110.890000857058,18.9744435125782,17.8100527657403,22.0763726985416,19.3839747471171,18.5614137876601,19.2253497353029,16.7138256789592,13.4350664320207,9.03754833240572,17.0696775221056,20.2333335876465,22.7745171017373,25.664886994249,26.7039681691972,25.3269152449164,23.2600727170173,23.9684052634079,17.611198191458,5.96419353350516,10.1900000042386,10.9371763249011,15.2036229448209,16.362936383202,14.6065672757674,11.3179340366411,11.5668532308226,6.66954478092379,6.64112734378757,8.72725367499605,10.1527049274721,12.7947461464451,13.7193522643836,12.3756778221065,10.4503517934596,10.9124923049431,7.23915136927561,0.685760370631646,1,1,1,1,0.982493677824514,0.953634339212795,0.701363064221172,42.72880835,-76.6515625,2017,"NYH1",1
"PHG29/PHG47","MIH1_2016",14.75,729.83402763264,0,17,211,105.5,59.5,66,3.21387092721078,0.372000002861023,1.27766823751149,2.07214459371672,0.20476189870683,2.3826363414913,6.27786691564838,3.12959525082612,4.11573424348527,99.6299987435341,1.86000001430511,16.7785713445573,74.4033328010922,0.614285696120489,24.3414283479963,217.368091578285,23.8857143783853,123.581428226261,20.0448123255084,22.6962894439697,22.5746065354076,21.1906692752228,19.6251171808394,19.4147049585978,17.4353601100157,14.1652357247952,12.412394394877,17.7432258052211,29.2099998474121,25.5794776543011,28.1508514012466,27.2354765089731,30.3278356370472,28.2729452857857,26.6388532040611,22.5021940360482,5.29967743350613,16.3360000610352,11.9036117370239,14.7044761053872,15.7457937664456,17.5267100049304,16.2551167156484,15.5865084050104,10.8682508092492,6.61582777611151,14.8990897437943,11.6236597478117,13.829435271034,13.7090853107975,16.0158399076304,14.4864957883775,13.4826500001342,10.0912945511251,0.734400921702934,1,1,1,1,0.999987732756559,0.993265589821636,0.936590208093553,42.41206675,-84.2952625,2016,"MIH1",1
"CG108/CGR03","IAH4_2017",17.8,730.4776202496,0.5,1.5,198.5,100,65,65,3.05419361206793,4.63857133047921,5.65428284440315,2.35614602206887,0.14500000260093,0.823262633699359,3.0299399841441,2.50648539721385,3.02203274721158,94.6800019741058,32.4699993133545,92.5500001907349,79.8100001811981,0.29000000520186,7.93136371265758,110.043181820349,17.6581818705255,91.7922727492723,19.6043462753296,22.3785518918719,18.8162880805234,21.4694011437152,22.4233230460774,21.2695237410189,19.151369503563,15.9420575880557,15.341385783443,17.8393548227126,25.2142854418073,21.7675578492375,28.8834045222006,30.8898489258506,30.9933841088806,28.3060990673118,26.2662246385522,25.9343880588008,4.95258065529408,10.1399999346052,10.2470841328658,15.0215020746586,17.4712879585497,18.0760807755018,15.8066246452854,13.8702660153955,12.5135465144736,6.57524394811711,10.823012742074,9.64996062135486,14.3656457039619,16.2281010402398,16.5739815495123,14.3659785216558,12.5754656563723,12.0621406847053,0.727396317478698,1,0.91008219867215,1,1,1,1,0.9871688305106,41.99455432,-93.69030947,2017,"IAH4",1
"PHN11_PHG47_0251/PHB47","IAH4_2017",17.1,722.75450884608,7.5,1.5,221.5,105.5,68,65,3.05419361206793,4.63857133047921,5.65428284440315,2.35614602206887,0.14500000260093,0.823262633699359,3.0299399841441,2.50648539721385,3.02203274721158,94.6800019741058,32.4699993133545,92.5500001907349,79.8100001811981,0.29000000520186,7.93136371265758,110.043181820349,17.6581818705255,91.7922727492723,19.6043462753296,22.3785518918719,18.8162880805234,21.4694011437152,22.4233230460774,21.2695237410189,19.151369503563,15.9420575880557,15.341385783443,17.8393548227126,25.2142854418073,21.7675578492375,28.8834045222006,30.8898489258506,30.9933841088806,28.3060990673118,26.2662246385522,25.9343880588008,4.95258065529408,10.1399999346052,10.2470841328658,15.0215020746586,17.4712879585497,18.0760807755018,15.8066246452854,13.8702660153955,12.5135465144736,6.57524394811711,10.823012742074,9.64996062135486,14.3656457039619,16.2281010402398,16.5739815495123,14.3659785216558,12.5754656563723,12.0621406847053,0.727396317478698,1,0.91008219867215,1,1,1,1,0.9871688305106,41.99455432,-93.69030947,2017,"IAH4",1
"B37/OH43","NCH1_2017",17.7,731.12121286656,0,2,229,110,65,64,5.92935477918194,4.0971428326198,0.297958701828474,3.8605887218635,6.67380964188349,5.43709003925323,2.5136726855367,1.67758050992105,4.1404608350745,183.80999815464,28.6799998283386,4.0233332543146,115.819522829283,10.9095240093413,51.8457151651382,65.1576194422586,9.6885714899926,128.354285887309,16.8479611796717,19.660787991115,22.200774141109,19.2039608935909,15.7724910842048,20.5483989412822,18.7994722996277,19.2660637939868,16.4083516821151,26.0700000639885,23.5785715920585,28.1701127560743,29.7261436573129,31.0140472896515,30.4881481291756,32.5472167507523,31.9569590380403,30.4313824649231,13.6406452425065,11.251428263528,15.697578023226,18.8753639802544,22.5767457295978,19.8479362164856,22.2803962481536,21.2748593008167,20.8135023424702,12.5644242151493,10.4878498696085,14.2666594933888,16.3604491100229,18.7994083488786,17.2114406625619,19.3855749588707,18.573365725773,17.6526987585521,0.998329492208595,1,1,1,1,1,1,1,35.29663725,-77.5668065,2017,"NCH1",1
"PHG80/PHZ51","NEH3_2015",15.75,748.49821352448,0,0,229,110,65,64,3.23125005699694,0.918000030517578,0.565093977294324,1.28669219481814,3.19749999046326,1.39113635366613,0.258061220527439,1.47466718299048,0.155891338361218,103.400001823902,4.59000015258789,6.15000009536743,39.0474997758865,4.72000002861023,15.3024998903275,11.1799998283386,14.5287498533726,4.64812502264977,21.7912757396698,25.6944263458252,22.867254847038,21.8227166540337,15.2631763219833,20.5907900008288,20.0641284227863,16.2796896759308,13.5386177646183,24.2875001728535,32.6459999084473,30.5877144724061,32.6773132882273,28.9159377217293,29.872386563908,30.8070712705365,25.3903164518473,21.3201827481664,9.27874993439764,13.0079998016357,13.882863304929,15.7826582019676,17.055312037468,14.6271022883329,13.1831330674245,8.87540479026961,3.33401708582752,10.4625782483436,15.2833069114413,14.4546585187703,16.2200567809637,15.0938879027355,14.4964540010227,14.5302013640258,10.9003956474841,7.85174739566555,0.909587052451181,1,1,1,1,0.965712824155829,0.862507779461642,0.809539309558486,41.15824525,-101.9872958,2015,"NEH3",1
"PHG39/PHN82","DEH1_2015",20.6,733.05199071744,0,0,244,115.5,65,62.5,2.877187483944,6.84800000190735,1.65812227065002,2.89981113868033,0.533124998211861,6.39805544084973,4.54206526084818,4.66633341695581,5.69481861783612,92.069999486208,68.4800000190735,26.8631244525313,94.403749205172,0.778750002384186,57.5824989676476,115.858124211431,26.7362504601479,176.53937715292,18.0978914797306,17.2013893604279,20.1115188355204,21.0089776981854,21.5349248051643,19.2473051614232,17.7019111319721,15.0562807784194,15.1484673523134,16.8265626430511,19.2440000534058,20.7237695406926,27.6889034218542,31.5665628314018,31.8635417355431,32.09465687106,30.4336400264785,29.0939515059994,6.26593750482425,9.85899999141693,10.7453803031313,17.6787637613727,20.387500166893,21.3565970261892,22.772206074744,22.282508844421,20.5664716151453,6.52196032901766,8.41291476735724,9.22995774812798,14.8599372331721,17.9770314991474,18.5817073937474,19.3617069706047,18.3580744354498,16.8673674529789,0.750435272946821,0.870857151065554,0.962682183853112,1,1,1,1,1,38.62935675,-75.4656925,2015,"DEH1",1
"TX951/LH195","WIH1_2020",33.45,683.49535921152,0,0,265,149,79.5,78.5,1.59838711061785,6.50714300359998,4.41352047113916,5.45542643820132,9.57615368182843,6.84825181127428,1.84719881902334,1.30244238470478,3.23367497316562,49.5500004291534,91.1000020503998,54.0530769802057,191.976921805969,14.7699995774489,75.3307699240171,75.5292314841197,17.1992309551973,99.2976933901127,20.3303611970717,17.7093844073159,19.6377469573902,21.7192805749651,19.4719141446627,18.0877809324465,19.5250672167142,17.0227731666303,12.7424436758233,13.8093548359409,15.7821428094591,24.7187017149516,28.033127103902,31.3961546971248,28.1712590197583,26.9553556739421,26.2427392980096,20.067150654637,1.33290325153259,5.15000006104154,13.2586988238647,14.9072456821681,18.8092307677636,17.6374126180902,14.6682007343716,13.0054438131186,8.42975850841346,4.40407542638638,5.92012185452547,11.7383860300671,13.8805458366735,17.1295568336927,14.9524727582334,13.3020801105566,12.6359188849815,8.58850906873917,0.464815660178112,0.623010193140303,1,1,1,0.987099279404792,0.934776512387789,0.808464704181206,43.05505505,-89.52853825,2020,"WIH1",1
"PB80/PHZ51","DEH1_2017",19.8,743.3494725888,0,1.5,250.5,133,65.5,65,2.91718745790422,6.20142868586949,3.00780289028715,3.51798387630548,1.21142852117145,1.63275129076034,5.21425936785246,11.3193468755605,4.88273070798553,93.349998652935,43.4100008010864,45.3457148869832,126.779048942384,1.26857137680054,15.4833330313365,157.85333279201,69.2480949220203,151.3147630578,17.0564796179533,17.7322864532471,20.7109648054357,19.5738604252989,19.1555669421241,20.8859280858721,18.2123717552112,18.1575605574108,16.5860739368814,20.2662499845028,24.6614287240165,21.7224504345482,26.8229896455589,30.3507143656413,30.3114816221611,30.695552993145,28.4309092143225,27.2970235560896,9.32593758031726,14.1957142693656,10.687522006195,16.7585521273381,19.9063490004767,19.8815078785811,21.2169032219805,18.721444546014,17.9144449122429,8.6904799528833,12.0840231421066,9.78793426930988,14.1243186804428,17.1548256791078,17.1405073545012,17.9479055635566,15.6354630937149,14.7461382337137,0.907287955683257,1,0.959736116003801,1,1,1,1,1,38.67025825,-75.4333645,2017,"DEH1",1
"LH82/PHB47","IAH3_2015",16.9,742.70587997184,0,7,236,117,65,64,1.88812499120831,2.91357139178685,3.78481399490418,6.97192884345098,0,3.25750006437302,1.48738522759636,2.54144646929843,4.50744494696458,60.4199997186661,40.7899994850159,55.4399998188019,241.660000324249,0,32.5750006437302,50.3143747076392,24.6850003898144,138.775626681745,19.8017279356718,20.0399833406721,15.9141292010857,20.6828349141208,21.6913648645083,21.2442863583565,20.6378456393082,18.6830175797854,14.9219848873154,14.6418750584126,16.6814285005842,21.6371087993342,27.6137224668604,30.8788542747498,30.3035624980927,28.5962540049038,28.5165626687663,24.3338990757542,0.832500039599836,3.60071423649788,12.2454287241307,16.0517815224708,19.4736456473668,18.1100625455379,15.9931958270939,14.3037321656942,10.6490121472687,4.60513154837493,5.78749983119766,10.114657753447,14.1164012039241,17.1762499610583,16.2539166939567,14.5767076625307,13.9758338636144,10.8754278827313,0.501462055137381,0.634540812549542,0.981270752987184,1,1,1,0.968879462565695,0.933929792194543,41.97585629,-92.24291804,2015,"IAH3",1
"LH212HT/LH195","TXH1_2015",11.55,747.21102829056,0,2,165,84,74,71.5,2.43533335079749,0.886666695276896,4.52938673555072,2.99221044445753,0,5.40749995274977,3.23624041097661,4.52841665893793,2.20566666349769,73.0600005239248,5.32000017166138,54.1699997186661,113.789999812841,0,59.4824994802475,89.1124981939793,24.5449999645352,66.1699999049306,13.3812851905823,15.8030840555827,13.7374967764585,19.4828948425706,22.4659889936447,19.9646397883242,19.5484858334502,19.5703149755796,18.0313507497311,19.6199999491374,26.2683331171672,25.848902795857,26.4780255046089,30.3717709779739,28.7953975634141,31.9014051962311,33.4807082811991,34.3551666140556,6.12233337461948,12.7449999650319,15.3915533218787,13.6943906096253,15.8338542282581,15.9580683003772,20.411723735246,21.4527084350586,23.9322083592415,7.516768443821,12.2822135372146,13.060308889571,12.755099602335,15.355928811491,14.6742697351608,18.1104056886089,19.3060311124189,20.3777584063178,0.822428569446007,1,0.992325396748542,0.994092814847258,1,1,1,0.999431249499321,30.54708625,-96.43393475,2015,"TXH1",1
"LH198/PHZ51","OHH1_2017",16.025,786.14838161664,0,2,229,110,65,64,4.40193544664691,12.2957145145961,4.29988011636302,6.25204526150179,18.3629999076327,4.89239555808631,3.19531729304598,3.431958171936,3.79468875169434,136.459998846054,86.0700016021729,53.6394991636276,223.820499566197,40.8649998873472,50.2680010676384,124.096999973059,30.9940001368523,115.432001267374,19.0647902027253,19.0342750549316,21.0022649127082,20.1503275418602,19.6955542882284,18.8958009767532,18.6983791102966,16.0400154962856,13.8551068441073,20.4790323934247,25.431428364345,25.2400270438728,27.2580381755079,28.0954167842865,28.7327046767148,26.3045644702003,24.6939537054533,24.2572073293261,8.01193550132936,13.4499996730259,12.5988240944101,15.9167310176739,16.7535833597183,18.3982409451225,14.9768818892318,13.115358865932,11.8128440258155,8.40722803270821,12.106521996237,11.6372129301586,13.8931373004777,14.6377478966591,15.6322437267281,13.0725287527822,11.6601203930959,11.1333327080566,0.85352534955273,1,1,1,1,0.996926047829299,1,0.964956739838543,39.855785,-83.66477375,2017,"OHH1",1
"B37/H95","NYH1_2019",24.35,704.09032295424,35.5,5,273.66666665,153.33333335,71.5,72,3.74249998852611,3.13750004023314,5.75382418421519,3.19318469405372,5.05499997505775,4.67964498742798,3.14173431505368,2.11561926224602,4.09564599909039,119.759999632835,25.1000003218651,83.0561534670683,110.787691554198,10.5969229478102,60.8353848365637,169.678460007677,49.6684614184957,126.198460106666,19.3120462298393,22.906525015831,19.4055643197987,20.0954846191366,19.5441625057123,18.4327194563736,14.7868750412398,11.8266811133142,8.21836269058601,18.6993749439716,22.8587503433228,22.9010546045212,27.5168322059324,28.2501282325158,26.2428401066707,22.0298851708133,19.800822747137,11.0057352093984,7.84562503546476,10.0637499690056,12.2881303876188,16.102631765372,16.0733334345695,14.3993490828565,10.6740678622988,8.35750533580157,1.63569085205791,7.63952840037155,9.77521380841136,10.4905594472129,14.0585405915596,14.3930059612616,12.7382854892206,9.76289549498727,8.6764710214225,3.98046667720391,0.838560268548982,0.991875007748604,1,1,1,0.934962265626692,0.800347461722585,0.399612351739001,42.7288875,-76.65152084,2019,"NYH1",2
"PHW52/PHN82","SCH1_2018",15.455,731.12121286656,0,2,209,105.5,57.5,64,5.50937507301569,3.37250000238419,5.77532792752829,7.72812766098977,4.71095229046685,3.13060314183971,3.12348515829066,2.01328565960839,5.79306446956599,176.300002336502,26.9800000190735,97.6099995204381,245.673573059695,5.41571421282632,31.8442854029792,83.9342848232814,10.5378568683352,179.584998556546,18.6477236524224,19.2869287729263,21.173054595667,18.1631813069703,18.8474233264015,19.2548603041347,19.9945130026415,19.3178334372384,16.3013944175386,22.5390624701977,22.5337498188019,23.0902047939223,27.6187004518251,28.0654765991938,28.9085680901058,32.584791315526,33.4833329836528,31.116866401813,9.30156246945262,9.31125009059906,8.76240008069966,17.5066534747267,16.7615474973406,18.3829589417142,21.2079791456952,21.6712853658767,20.8076727291406,9.59119125294698,9.40007484305004,9.57450522783795,14.7679377529716,14.5196225818089,15.7238139666896,18.8616965293534,19.451053178185,17.9628857433375,0.951841517750706,1,0.982626498534951,0.991514694994028,1,1,1,1,34.6223015,-82.7364835,2018,"SCH1",1
"2369/LH123HT","SCH1_2020",13.875,731.12121286656,3,7.5,104.5,42,57.5,56.5,6.72612905502319,12.6195001602173,14.6709951034396,2.00004706411726,2.50574996471405,4.42531940539678,2.2684627114437,6.18714998006821,5.02309186842493,208.510000705719,84.1300010681152,163.686000823975,61.5099992394447,5.0114999294281,39.6814996480942,62.5769994258881,33.6459998607636,155.465497928858,20.3681760849491,19.6697832584381,14.7552605822739,19.8596108181735,19.9601446628571,19.2446548587746,19.8780910530624,16.407526623408,15.6462510356339,22.325677311805,25.3399996757507,25.3184633196214,29.1971057408356,32.4110002994537,31.6696106500096,33.3203228086908,31.9290998840332,30.2404226837363,7.9367419769687,12.7089999675751,16.319556633101,18.6552118308069,21.0972501277924,21.173652598593,21.4688300754659,21.1913665390015,20.4882623517641,8.96370159284429,11.7659358628616,13.234286057093,15.9884621138667,18.754125213623,18.4214103661816,19.3242599964586,18.5602332115173,17.4029431579922,0.984170503605346,1,0.97395093803367,1,1,1,1,1,34.62225,-82.736661,2020,"SCH1",2
"LH82/PHB47","ONH1_2016",26.35,664.18758070272,0,3.5,183,95.5,79,77,1.97903224729723,2.10571429133415,0.921813660111247,1.4397382865638,4.72083331843217,2.43543939581423,4.62931562992959,1.31185226971093,2.04330374064945,61.349999666214,29.4800000786781,13.3160000681877,60.2840000450611,10.9924999892712,28.5415000140667,172.047501341999,11.3764998450875,61.3804993152618,20.2488387169376,21.5672763415745,23.7736534890274,22.4114230831704,19.3081846952438,20.6147360729449,17.1281369087258,15.3153421936676,11.6349498992261,10.4929032143085,16.4799998828343,25.0156145674307,25.5146692195041,28.2251669565837,27.9941591414538,27.3135614713641,24.4901795066248,20.388601503087,-0.735806467131742,3.75357140520854,10.9305092215939,11.6118469940074,15.5532501856486,14.7177574468381,15.072441088201,12.7162050899814,9.18578765883922,3.26930641138453,5.68876848413294,11.0920976145976,11.5617585881532,14.221610104509,13.7639954370179,13.5764243452927,11.5133866018644,8.77689949507841,0.291105987941889,0.684668366749752,0.998913789733904,0.988093962379835,1,0.998165816322577,0.971212583726985,0.877977400556158,43.4997965,-80.451125,2016,"ONH1",2
"PHG80/PHZ51","GAH1_2017",13.65,747.85462090752,0,4.5,195,80,60,59,1.92968747392297,5.73000001907349,0.343252103133586,3.44928658477499,2.10761896769206,4.58677246557972,5.88411512674098,3.46279361891368,5.79033786946544,61.749999165535,45.8400001525879,4.18523797534761,115.462857757296,3.16142845153809,44.2476188795907,164.396192306564,18.0028569698334,179.500473953429,16.8024901300669,20.1373232603073,20.1734204678472,19.2707622430691,21.2048014383467,16.6798162969963,18.1585808485972,19.3751740168011,17.7370458682012,23.5584374964237,24.7612497806549,28.7388454609341,29.029321913538,29.7903175656758,30.1182594269041,30.8846873649595,33.0415872604128,32.3946695928383,8.65499997884035,9.07374995946884,13.8160128648753,15.9456908272656,16.8514287131173,20.0705928338268,21.0580026966177,22.2436510176886,22.0341169412967,9.93516597929203,10.3201673994425,13.6844889022653,14.8136399848139,15.5596332003494,17.1078969773464,17.9595982908683,19.6134998817186,19.1980031961101,0.883437499936138,1,1,1,1,1,1,1,31.50794425,-83.55854475,2017,"GAH1",2
"B73/PHN82","ONH2_2015",28.9,741.41869473792,0,0,272.5,149,81,79.5,1.8764516076734,4.28266668319702,1.92800543142355,1.5826126299147,10.8026474223417,1.92320858157255,3.11438839923848,4.29490191426152,2.35638896233292,58.1699998378754,64.2400002479553,23.6199996471405,57.2247065095341,21.6052948446835,21.155294397298,115.501765766565,31.5629407868666,72.1164696006214,18.9538011243266,18.7670978546143,21.1774380927546,22.4541887468383,20.0410301545087,18.4543581008911,18.4537391837158,15.8007825277989,13.3453952521331,11.1738709480532,14.384666633606,23.912001533754,26.6127938053419,30.1517652623794,27.6505346247219,26.7798692937751,25.8746404647827,20.7920556972632,2.00677422361989,5.63600003321966,13.6495024548441,15.646883458515,19.3264702628641,18.5181282879835,16.7469462265247,15.4972220963123,11.0305445628027,3.74293843582847,5.61712950522319,11.5306591381689,13.5235311876304,16.7854267763897,15.1342186639452,13.9515349469929,13.1846932018183,9.37660248979743,0.276970042748385,0.589690475094886,0.985132405558233,1,1,1,0.993019958754548,0.931831119234909,42.45408625,-81.8816065,2015,"ONH2",3
"WF9/H95","GAH1_2017",12.45,700.87235986944,0,4.5,180,70,62,61,1.92968747392297,5.73000001907349,0.343252103133586,3.44928658477499,2.10761896769206,4.58677246557972,5.88411512674098,3.46279361891368,5.79033786946544,61.749999165535,45.8400001525879,4.18523797534761,115.462857757296,3.16142845153809,44.2476188795907,164.396192306564,18.0028569698334,179.500473953429,16.8024901300669,20.1373232603073,20.1734204678472,19.2707622430691,21.2048014383467,16.6798162969963,18.1585808485972,19.3751740168011,17.7370458682012,23.5584374964237,24.7612497806549,28.7388454609341,29.029321913538,29.7903175656758,30.1182594269041,30.8846873649595,33.0415872604128,32.3946695928383,8.65499997884035,9.07374995946884,13.8160128648753,15.9456908272656,16.8514287131173,20.0705928338268,21.0580026966177,22.2436510176886,22.0341169412967,9.93516597929203,10.3201673994425,13.6844889022653,14.8136399848139,15.5596332003494,17.1078969773464,17.9595982908683,19.6134998817186,19.1980031961101,0.883437499936138,1,1,1,1,1,1,1,31.50794425,-83.55854475,2017,"GAH1",1
"CG44/CGR01","ONH2_2017",16.35,913.9015160832,1,4,222,90.5,34,32.5,3.5667742529223,5.81600005626678,0.640467161488946,2.60285034576314,0.27619046824319,0.553043346265297,1.77415042468807,1.8322193505358,2.40528059047854,110.570001840591,58.1600005626678,8.99904758589608,96.0257148231779,0.55238093648638,6.91857143810817,78.7085716128349,24.0661906514849,72.9814284727687,18.8542372026751,16.7486707210541,24.2129103871374,19.3709418074881,21.1971578446646,20.8470523735834,17.6115175917995,14.25368499546,9.92782470727663,15.7532256957023,18.6889998435974,23.4026282865202,26.349749969441,26.5938094911121,26.8606501324273,24.5722531696102,22.9174861617247,20.0059681545616,5.76483872628981,10.960000038147,12.0335911848343,16.1800782706558,16.6330158142816,15.9192033646599,13.1457407086605,11.2717777505092,10.1065058561854,6.14192830243868,8.3866030604193,10.6839465453898,13.5252167119854,13.7753985037319,13.6499871813553,11.5882146496872,10.4155272324174,9.10741430426533,0.598502302774086,0.966571422985622,1,1,1,0.999084662263501,0.956230826192702,0.830002500100802,42.45293025,-81.8827315,2017,"ONH2",1
"PHB47/PHN82","MNH1_2015",16.6,742.70587997184,0,0,228,98,71,71,2.67645166525918,6.10285712991442,1.58721610445111,4.7077263256623,2.09382353109472,4.68577535931227,5.9350156688025,2.22326150676053,2.19878814463244,82.9700016230345,42.7199999094009,19.590000131551,155.007059007883,3.96529412269592,52.2323524741565,227.094708481256,20.9011769756017,67.401177584358,19.816934616335,15.8754692077637,21.6281845751118,20.6523619261065,17.2143456515144,21.1212332316686,17.7408483022691,14.5374503953005,12.0629753461599,17.4338709308255,22.6300002506801,27.2892179925706,28.4642367103754,28.3652941759895,28.0789971632116,26.1408952283773,24.7325950747879,17.9009570518097,4.56741930688581,13.7342856270926,14.30007362468,16.8971689663296,18.654117640327,16.1974599531415,14.7564351113732,13.5728072906729,6.63464769243789,6.28381609962703,10.8743797711898,13.2690560805916,14.8702380832727,15.6411451436446,14.3539204313244,12.9900637188381,12.4683668720892,7.55733067966644,0.72298386648366,1,1,1,1,0.97770300313998,0.878626049359361,0.7212296457923,44.07038575,-93.53519625,2015,"MNH1",1
"W10005_0107/PHB47","GAH1_2017",12.95,688.6441001472,0,2,155,65,56.5,56,1.92968747392297,5.73000001907349,0.343252103133586,3.44928658477499,2.10761896769206,4.58677246557972,5.88411512674098,3.46279361891368,5.79033786946544,61.749999165535,45.8400001525879,4.18523797534761,115.462857757296,3.16142845153809,44.2476188795907,164.396192306564,18.0028569698334,179.500473953429,16.8024901300669,20.1373232603073,20.1734204678472,19.2707622430691,21.2048014383467,16.6798162969963,18.1585808485972,19.3751740168011,17.7370458682012,23.5584374964237,24.7612497806549,28.7388454609341,29.029321913538,29.7903175656758,30.1182594269041,30.8846873649595,33.0415872604128,32.3946695928383,8.65499997884035,9.07374995946884,13.8160128648753,15.9456908272656,16.8514287131173,20.0705928338268,21.0580026966177,22.2436510176886,22.0341169412967,9.93516597929203,10.3201673994425,13.6844889022653,14.8136399848139,15.5596332003494,17.1078969773464,17.9595982908683,19.6134998817186,19.1980031961101,0.883437499936138,1,1,1,1,1,1,1,31.50794425,-83.55854475,2017,"GAH1",2
"PHN11_PHW65_0323/LH195","NYH2_2018",19.6833333333333,733.523958636544,0,2,196.666666666667,99.3333333333333,70.6666666666667,72,4.15290321265497,0.855714253016881,1.31693108037102,2.05687731597006,18.6071429092304,4.17142207984413,1.79646054057165,3.7134592103056,2.00191168391851,128.739999592304,5.98999977111816,17.5049994406956,73.5107148954911,37.6500000993588,45.137142878558,70.0178583988122,34.8200002163649,60.5300002843142,20.6438379902993,23.734383719308,20.979802756266,21.2837364687676,15.7229437487466,18.2684387615749,18.5091505369441,13.7748191949597,12.8345781276578,12.8280644647537,24.7271431514195,24.7677545588972,27.6010100898047,28.9642853736877,28.5122726960616,26.9105002489963,24.0160674085693,19.6655860562055,1.45225804755765,10.4899997711182,13.0755966585126,14.8719080974443,19.0864286082132,17.4819285981067,14.9501351065933,12.8073849135839,7.86512439486738,4.11302762674546,10.7452289392157,11.828471820398,13.7492806797528,16.0509662796631,15.0657523924464,13.3718144658096,11.4287385087198,8.14411924534505,0.351670501693603,1,0.973410203661018,0.995047280170266,1,0.991140912992252,0.940533101368687,0.821942421986262,42.72611075,-76.65530175,2018,"NYH2",1
"B73/PHN82","NEH2_2018",14.4,772.311140352,0,2,268.5,109,65,64,1.22354839309569,0.707272735509005,4.76391163477479,2.42266069272827,9.35923087596893,1.18776923774654,2.22139935021973,1.06061537239578,2.65564350872566,37.9300001859665,7.78000009059906,61.5892304823949,72.5253856457197,18.7184617519379,11.034615443303,72.0223070428922,6.79538455376258,82.0723077448515,19.8632896023412,17.8607451698997,17.2435083841872,22.6349901528079,18.628623522245,21.2128618370773,19.6223780615579,18.4525281914861,16.5687013774395,17.691935500791,17.4790908640081,23.0465718636968,30.8117888702973,30.823461826031,31.1549999628312,29.4152359702256,30.1389270020929,26.5711762356107,3.02612899964856,6.97909088568254,13.8680170539226,18.3158259088611,19.9407690488375,19.0567348488376,17.5250552467636,17.6920075343205,12.6963680309468,6.27529999293415,6.96591957194354,11.1088917397853,16.6618821512434,17.3821154374343,17.1119836026383,15.6185736804764,16.0902520506476,12.6873550713879,0.680334109864477,0.762240243422521,1,1,1,0.996687975382261,0.997695055112734,0.910447977617617,41.38042275,-96.55988375,2018,"NEH2",4
"CG44/CGR01","MNH1_2016",16.525,731.12121286656,0,2,229,110,70,69,2.89322576407463,0.170000008174351,5.03042527209908,6.12170522401334,6.43858322699865,6.21095447112214,8.17923871751135,7.61717088871532,9.39474284643768,89.6899986863136,1.19000005722046,67.7949996709824,212.853000384569,13.6799997210503,65.1149991810322,295.599999034405,62.2075004458427,287.315494990349,17.8967360373466,26.286114011492,18.122651996026,20.2994832360595,15.8094130674998,17.8757813947851,16.9356863757804,15.2931511149142,12.1500887665185,17.5148386032351,25.4542857578823,24.5326991112838,27.6333701421214,28.1445000648499,28.7026912923293,27.1588718316529,24.8505404014058,22.530326319715,6.33838710765685,9.82428567750113,13.6815540208608,15.8141053471531,17.8242501338323,18.4263501505418,16.9297657858623,13.571238894951,11.5045660662643,6.87113486692201,10.9020425096258,11.6566452042554,13.9836924770311,15.0551188632125,15.6807639131871,14.2208678743316,11.8615305728452,10.2698260241427,0.73452764457684,1,1,1,1,0.999952476900843,0.987298810035877,0.93609264544991,44.06646925,-93.533648,2016,"MNH1",2
"PHW52/PHM49","GAH1_2017",13.05,735.62636118528,0,2,170,80,63,62,1.92968747392297,5.73000001907349,0.343252103133586,3.44928658477499,2.10761896769206,4.58677246557972,5.88411512674098,3.46279361891368,5.79033786946544,61.749999165535,45.8400001525879,4.18523797534761,115.462857757296,3.16142845153809,44.2476188795907,164.396192306564,18.0028569698334,179.500473953429,16.8024901300669,20.1373232603073,20.1734204678472,19.2707622430691,21.2048014383467,16.6798162969963,18.1585808485972,19.3751740168011,17.7370458682012,23.5584374964237,24.7612497806549,28.7388454609341,29.029321913538,29.7903175656758,30.1182594269041,30.8846873649595,33.0415872604128,32.3946695928383,8.65499997884035,9.07374995946884,13.8160128648753,15.9456908272656,16.8514287131173,20.0705928338268,21.0580026966177,22.2436510176886,22.0341169412967,9.93516597929203,10.3201673994425,13.6844889022653,14.8136399848139,15.5596332003494,17.1078969773464,17.9595982908683,19.6134998817186,19.1980031961101,0.883437499936138,1,1,1,1,1,1,1,31.50794425,-83.55854475,2017,"GAH1",2
"PHP02/PHB47","IAH1_2017",16.15,738.84432427008,0,3,187.5,80,65,64,3.40562492981553,4.9653845842068,4.75627611908435,1.83360658706262,3.81409099607757,2.22148488699788,3.67080832802223,1.81325483980117,2.34747311753145,108.979997754097,64.5499995946884,71.2827261577953,63.7872725833546,4.17772737416354,22.8386367667805,118.906818606637,13.7622724988244,72.0368181575428,16.1986516714096,17.4117801372822,18.8419865113308,22.0772261853777,19.5709462599321,20.6423577019663,19.6533487855188,19.1238258402757,16.8780910515948,17.1134373545647,15.3784616176899,22.9595167923024,28.098072667094,26.507423805468,30.2796059126806,29.7994892260695,26.9283494144291,26.376740509697,5.4131250269711,4.92307697809659,11.465490162608,14.1696252786347,11.6175757754933,16.6577523703527,16.6650409071547,13.3875722172112,12.4151066155028,6.53077833948335,5.76856381165309,10.4537021498713,13.7196511279626,11.9478337828281,15.6426259768559,15.399646170179,12.7123989246095,12.1737806011652,0.629988832066634,0.555054952155103,0.946458761983939,1,1,1,1,0.998130952344312,41.19924609,-91.49402296,2017,"IAH1",1
"PHB47/PHN82","WIH2_2020",23.95,701.902108056576,15,0.8,262.2,127.4,70.4,67.9,1.1422580634394,7.375000166893,3.77260581252768,4.52814362453003,15.9141182057998,3.015240613152,2.84839565074973,6.55966530763758,3.07398353471626,35.4099999666214,73.7500016689301,42.9699998795986,163.85058797107,31.017648192013,33.167646744672,117.769998585477,59.8417637593606,94.4582346818026,20.7395305633545,16.0435289859772,21.2335467472143,21.5809324497532,19.013702953563,17.8857325232603,19.3201351466252,13.5754002692457,12.272545038289,13.5699999486246,18.9109997749329,26.0938682995642,28.2322474952916,29.4664707183838,27.7542245528277,27.0932210297011,24.8050967536966,19.0018905391654,0.762580661163215,9.39699988365173,13.9989215824361,14.995891181738,17.745293897741,17.4980746284526,14.228931024336,13.2921105861382,7.45939913371709,4.17689721425512,8.10798713911043,12.6867740438147,14.0244437879696,15.6641148886257,14.7079063257275,13.2058895334275,12.2696061473378,7.83396025684224,0.443168195200578,0.881928566523961,1,1,1,0.990384734248417,0.880973436890861,0.780679990755404,43.294786,-89.383968,2020,"WIH2",2
"LH198/PHZ51","WIH1_2016",19.3,800.30741918976,0,3.25,260.75,139,73,72.5,2.07612901829904,1.94750002026558,4.43029129058702,4.06837717818273,0.606590926647186,8.20447110085448,6.520888551421,7.2858018260261,4.4131911117893,64.3599995672703,23.370000243187,50.6681830666282,153.97863580422,1.01772730458866,87.4172730174932,222.460452949459,58.9559095664458,134.926818408749,19.9280546249882,20.9108026027679,19.5354633918175,20.656900418312,18.9729677330364,19.7636050157311,17.5087671369867,15.2137091671578,12.2388305592514,16.7025806211656,17.5758331219355,27.0818272779223,26.4913085721608,27.2215908223932,28.3583387540392,27.670006898165,25.1458900986296,22.9867464155046,3.3274193627219,4.99083332717419,14.0472380898586,14.4742379762581,17.5863633372567,16.7186735984708,17.173991451041,14.3205114663249,12.5735533033509,5.87586661218575,6.41950897413704,12.98865397587,12.9292428934718,14.50224274263,14.726515337733,14.5565806693068,12.2392458124565,10.7486023953999,0.621198160548089,0.765386900199311,1,1,1,0.999967802990051,0.998306276607307,0.970976554260314,43.05632525,-89.53194975,2016,"WIH1",2
"B37/MO17","NCH1_2020",16.75,703.1249340288,32,0.5,220.3125,109.375,65,64,3.81125003128545,6.58374977111816,1.87015070111794,7.59338454735375,0.884285699753534,2.63668646698906,3.33071338060501,6.12114287103925,7.32343316943415,121.960001001135,52.6699981689453,29.2835704556533,255.940713865416,2.6528570992606,23.4857139246804,94.0314286180905,30.3285714898791,227.026428252459,17.7931001186371,18.2030313014984,21.9031161387958,16.624104256889,22.7344187781924,20.9765385862381,20.5430953276098,18.1598880904061,15.6514139856611,21.6678124964237,23.2199997901917,23.3487043310554,27.0496421427954,28.21738079616,30.9563497626592,33.0704321677563,33.2972858973912,31.2465668471727,8.08281250484288,11.5312500596046,9.51933213031121,18.0966886080901,18.1914290927705,20.5856052201892,22.1124512970464,22.8580000468663,21.9105529499493,8.88590596036503,10.345445976376,9.896418392683,14.6940439801602,15.2496249982652,17.7688184726376,19.5031272394627,19.9903569790644,18.562087597318,0.935200902566846,1,0.995619772597503,1,1,1,1,1,35.30009892,-77.57131746,2020,"NCH1",1
"B73/TX779","INH1_2020",32.77,703.28583218304,0,2,246.575,129.125,73,70.25,2.63064515013849,6.09222216076321,2.38090554163418,2.63802878915032,0.629411795560051,2.97723527796128,3.34980336859539,1.09505251642703,1.57514418927949,81.5499996542931,54.8299994468689,26.3500001711004,86.9017637687571,0.755294154672062,29.7723527796128,114.917647417854,7.60117643019732,48.4147051677984,19.1204067507098,14.4686205122206,21.683403471156,21.7538997697412,20.2483905343448,19.6695943495807,18.7818895809529,18.0082829882238,15.450766363346,15.2067741424807,20.6899998982747,27.1104927022189,29.4265010732643,32.0752935970531,30.3638822218951,28.1583408143781,28.6678223609317,25.4133379392123,2.93419356355744,11.5155556201935,15.1781191785852,16.469441937157,19.3758825414321,18.2375294629265,16.6673405457507,16.5683672047159,12.5233751913666,5.19370579464667,9.33766425162009,13.5421990121603,15.1602616547628,17.7314612721144,16.3694037021206,14.6116717912345,14.8394952945466,11.9009549885014,0.576025337581673,0.994801586582547,1,1,1,1,1,0.975702380729156,40.4787965,-86.9895995,2020,"INH1",1
"B37/H95","OHH1_2019",19.57,708.466752749568,0,0.2,237.3,117.4,57.3,56.8,4.52187501639128,5.60142850450107,9.49218418812764,3.67767790493084,1.56571434225355,0.385974026345587,1.86530509479137,1.65904762083981,1.75173883737507,144.700000524521,39.2099995315075,109.352857010705,105.492856400354,2.90714296272823,4.24571428980146,67.7371422350407,11.4071428733213,52.9257135008063,18.8840596526861,17.4926710128784,16.8400286458912,20.3390746061215,18.2435736315591,21.9239106364064,17.3234712965801,16.4353543187485,12.6882473915586,23.6978123784065,23.0442856379918,25.9338769538436,30.6462611406935,27.2342853546143,29.1364936828613,27.6347160934714,28.4020578731485,24.227758823928,12.3731250613928,13.0142856325422,16.5405247622919,19.1537767425904,17.2985715184893,16.61116872515,15.6873998226323,14.4186055400745,10.1522703877059,11.0978151065421,10.856451580884,13.4108578189607,16.9524907944801,14.3911883936558,15.002149715115,13.9211580533092,13.8157455840743,10.7664966885892,0.952522322535515,1,1,1,1,1,1,0.923664696824271,39.85685125,-83.67122475,2019,"OHH1",3
"LH195/PHN37","WIH1_2016",19.15,746.5674356736,0,2.5,269,139,72.5,72.5,2.07612901829904,1.94750002026558,4.43029129058702,4.06837717818273,0.606590926647186,8.20447110085448,6.520888551421,7.2858018260261,4.4131911117893,64.3599995672703,23.370000243187,50.6681830666282,153.97863580422,1.01772730458866,87.4172730174932,222.460452949459,58.9559095664458,134.926818408749,19.9280546249882,20.9108026027679,19.5354633918175,20.656900418312,18.9729677330364,19.7636050157311,17.5087671369867,15.2137091671578,12.2388305592514,16.7025806211656,17.5758331219355,27.0818272779223,26.4913085721608,27.2215908223932,28.3583387540392,27.670006898165,25.1458900986296,22.9867464155046,3.3274193627219,4.99083332717419,14.0472380898586,14.4742379762581,17.5863633372567,16.7186735984708,17.173991451041,14.3205114663249,12.5735533033509,5.87586661218575,6.41950897413704,12.98865397587,12.9292428934718,14.50224274263,14.726515337733,14.5565806693068,12.2392458124565,10.7486023953999,0.621198160548089,0.765386900199311,1,1,1,0.999967802990051,0.998306276607307,0.970976554260314,43.05632525,-89.53194975,2016,"WIH1",1
"W10004_0216/PHZ51","ARH1_2016",17.4,786.47017792512,2,3.5,222,132.5,71.5,70.5,12.6265622600913,6.05222214592828,7.85959392181908,4.41103236837171,3.76999992132187,0.095833331948579,1.83491350889616,2.95036352764476,2.93171556272115,404.049992322922,54.4699993133545,101.143181920052,160.496816039085,7.53999984264374,0.824999988079071,46.8663639642976,14.7518176382238,90.8831824443557,16.4075767695904,14.4028924306234,17.4133262481418,19.3139989097208,17.4816541382761,22.1591818079804,19.7781726024698,18.2520895112645,17.225964043497,20.37124979496,20.0866667429606,25.2525350665633,26.3044541539922,29.5068177887888,32.2701959152414,33.2207471683232,33.1760686831041,32.7599998597176,8.5396875902079,10.0499999258253,14.8465505392494,15.675688928556,20.1031818389893,20.9033523737782,23.0132003928172,23.4658411589536,23.3566423203589,8.37657913218764,8.62389009177744,12.4075180997134,13.3856810078906,16.804999813889,18.5700508727667,20.093843133889,20.2460302688536,19.8980815100491,0.93219865730498,0.999841266208225,1,1,1,1,1,1,34.72952,-90.7603555,2016,"ARH1",1
"LH212HT/LH195","NYH2_2016",18.65,731.12121286656,0,2,167,77,81.5,78.5,2.03451613264699,1.03000000119209,1.88805842038864,0.867300395588696,1.14095236573901,2.3264502044364,3.37645110879505,4.28774657460297,3.20857245139568,63.0700001120567,12.3600000143051,22.4085715952374,34.4438095036007,2.62285709381103,25.5909522488004,116.656190026374,31.7580950827826,97.8257142560823,19.2124098193261,23.3558462460836,23.4055682219574,22.1788358644049,23.9445644560314,21.2536164940178,17.188970918256,16.172458164546,13.3590641317158,14.0493548300958,18.6874999205271,27.5085128267558,26.2363372785012,28.7807143075126,29.3169266424138,28.4163855529889,26.4450086476851,23.1529754740241,1.68677417501327,4.43999998768171,12.9269903570741,12.8553450425452,13.8947619256519,15.6558873601806,16.8638179961093,13.5881803360115,10.5576226536427,4.5112983091881,6.60715549716729,12.8876567633635,12.3333042748845,13.7996271971815,14.74166699264,14.8229567266396,12.6605081320414,10.2684241420574,0.447315666670074,0.804761906110105,0.9994000377118,0.994542932132847,1,0.999880087618925,0.994843293976969,0.949842164673799,42.726117,-76.655339,2016,"NYH2",2
"B37/H95","ONH1_2016",32.5,650.0285431296,0,2.5,234,119.5,88,83,1.97903224729723,2.10571429133415,0.921813660111247,1.4397382865638,4.72083331843217,2.43543939581423,4.62931562992959,1.31185226971093,2.04330374064945,61.349999666214,29.4800000786781,13.3160000681877,60.2840000450611,10.9924999892712,28.5415000140667,172.047501341999,11.3764998450875,61.3804993152618,20.2488387169376,21.5672763415745,23.7736534890274,22.4114230831704,19.3081846952438,20.6147360729449,17.1281369087258,15.3153421936676,11.6349498992261,10.4929032143085,16.4799998828343,25.0156145674307,25.5146692195041,28.2251669565837,27.9941591414538,27.3135614713641,24.4901795066248,20.388601503087,-0.735806467131742,3.75357140520854,10.9305092215939,11.6118469940074,15.5532501856486,14.7177574468381,15.072441088201,12.7162050899814,9.18578765883922,3.26930641138453,5.68876848413294,11.0920976145976,11.5617585881532,14.221610104509,13.7639954370179,13.5764243452927,11.5133866018644,8.77689949507841,0.291105987941889,0.684668366749752,0.998913789733904,0.988093962379835,1,0.998165816322577,0.971212583726985,0.877977400556158,43.4997965,-80.451125,2016,"ONH1",4
"LH195/PHZ51","GAH1_2016",14.9,828.94729064448,0.25,2.25,187.5,90,61.5,60.5,6.46625005081296,4.39500004053116,0.56642149156447,2.54962756812163,3.17469698010069,5.85994313642232,4.09696701425995,2.3309999964454,2.47626100694679,206.920001626015,35.1600003242493,6.21000005982139,86.0200002979148,9.52409094030207,52.4272723306309,105.673179734837,11.654999982227,76.7640912153504,15.956961274147,18.253856420517,20.331000534978,20.7402420911881,20.0106486840682,19.5430273528051,19.3819876920889,19.2695335214788,18.2145192224609,23.6268749833107,22.9824998378754,28.5613493699125,29.4983659035312,33.3707563804858,32.6271904538376,33.2502690735618,34.5149995457042,33.9492812618133,11.2974999733269,10.4700000882149,15.6474472778231,16.2846205025457,20.7828786156394,20.6126955145537,21.5692710707406,22.5180909243497,22.4046772791843,10.5397142233966,9.96244043830302,14.3648116302111,15.1131347489154,19.0295292381209,18.5685926456766,19.2666819522424,20.3439096349474,19.9941584099477,0.993928568703788,1,1,1,1,1,1,1,31.5079175,-83.55854775,2016,"GAH1",1
"F42/OH43","IAH1_2015",21.7,671.26709948928,3.5,14,276.5,144,65,64,1.56645163797563,2.21307695370454,8.40241855686024,1.32346369240836,0.084411761339973,2.29735939798791,2.93999255048908,2.37101190956701,2.73279376330065,48.5600007772446,28.770000398159,122.139999866486,43.5299997925758,0.168823522679946,22.8235286263859,100.118234865806,16.6700000342201,83.8129400085,20.4321490257017,18.8581149761493,14.6331772809511,22.3127675938035,19.1422725845786,22.2080652261871,19.8386258824345,18.3376315823456,15.0581957022198,16.087741913334,16.6453845684345,21.8469785316973,28.7334183023463,30.2685291065889,31.3074705248565,29.0510553070878,29.396362715275,24.6694635680625,1.83903228419442,4.86538466123434,13.1289285435553,16.8676896249547,20.0594113854801,18.0570519634322,16.3929613969702,15.4374991619954,11.1722985517151,5.44712973145307,6.09818857737345,10.4824096365253,14.9963247305916,17.1663926633043,16.728841860151,14.9692492703924,14.7713722092671,11.3064436073178,0.593087559179639,0.682994502258825,0.988452544600181,1,1,0.997626800819033,1,0.896934673983109,41.9980952,-93.69336973,2015,"IAH1",1
"PHG39/PHN82","NYH2_2016",19.25,731.12121286656,0,2,166,71,78.5,74,2.03451613264699,1.03000000119209,1.88805842038864,0.867300395588696,1.14095236573901,2.3264502044364,3.37645110879505,4.28774657460297,3.20857245139568,63.0700001120567,12.3600000143051,22.4085715952374,34.4438095036007,2.62285709381103,25.5909522488004,116.656190026374,31.7580950827826,97.8257142560823,19.2124098193261,23.3558462460836,23.4055682219574,22.1788358644049,23.9445644560314,21.2536164940178,17.188970918256,16.172458164546,13.3590641317158,14.0493548300958,18.6874999205271,27.5085128267558,26.2363372785012,28.7807143075126,29.3169266424138,28.4163855529889,26.4450086476851,23.1529754740241,1.68677417501327,4.43999998768171,12.9269903570741,12.8553450425452,13.8947619256519,15.6558873601806,16.8638179961093,13.5881803360115,10.5576226536427,4.5112983091881,6.60715549716729,12.8876567633635,12.3333042748845,13.7996271971815,14.74166699264,14.8229567266396,12.6605081320414,10.2684241420574,0.447315666670074,0.804761906110105,0.9994000377118,0.994542932132847,1,0.999880087618925,0.994843293976969,0.949842164673799,42.726117,-76.655339,2016,"NYH2",2
"B37/OH43","IAH1_2015",18.4,696.36721155072,1,8,277,149,65,64,1.56645163797563,2.21307695370454,8.40241855686024,1.32346369240836,0.084411761339973,2.29735939798791,2.93999255048908,2.37101190956701,2.73279376330065,48.5600007772446,28.770000398159,122.139999866486,43.5299997925758,0.168823522679946,22.8235286263859,100.118234865806,16.6700000342201,83.8129400085,20.4321490257017,18.8581149761493,14.6331772809511,22.3127675938035,19.1422725845786,22.2080652261871,19.8386258824345,18.3376315823456,15.0581957022198,16.087741913334,16.6453845684345,21.8469785316973,28.7334183023463,30.2685291065889,31.3074705248565,29.0510553070878,29.396362715275,24.6694635680625,1.83903228419442,4.86538466123434,13.1289285435553,16.8676896249547,20.0594113854801,18.0570519634322,16.3929613969702,15.4374991619954,11.1722985517151,5.44712973145307,6.09818857737345,10.4824096365253,14.9963247305916,17.1663926633043,16.728841860151,14.9692492703924,14.7713722092671,11.3064436073178,0.593087559179639,0.682994502258825,0.988452544600181,1,1,0.997626800819033,1,0.896934673983109,41.9980952,-93.69336973,2015,"IAH1",2
"PHG39/TX205","NYH1_2017",16,731.12121286656,0,19,254.5,116.5,82.5,80.5,4.75870958066756,4.13999998569489,2.95302494204596,5.71550623200518,4.32087287827144,2.70173206300027,2.61632844338824,1.02263058497457,3.61426843911905,147.519997000694,37.259999871254,45.1261899925414,219.922381491888,11.2685710702624,35.6957141047432,128.424762705962,13.3047620654106,110.890000857058,18.9744435125782,17.8100527657403,22.0763726985416,19.3839747471171,18.5614137876601,19.2253497353029,16.7138256789592,13.4350664320207,9.03754833240572,17.0696775221056,20.2333335876465,22.7745171017373,25.664886994249,26.7039681691972,25.3269152449164,23.2600727170173,23.9684052634079,17.611198191458,5.96419353350516,10.1900000042386,10.9371763249011,15.2036229448209,16.362936383202,14.6065672757674,11.3179340366411,11.5668532308226,6.66954478092379,6.64112734378757,8.72725367499605,10.1527049274721,12.7947461464451,13.7193522643836,12.3756778221065,10.4503517934596,10.9124923049431,7.23915136927561,0.685760370631646,1,1,1,1,0.982493677824514,0.953634339212795,0.701363064221172,42.72880835,-76.6515625,2017,"NYH1",1
"TX714/TX779","TXH1-Late_2018",12.55,769.73676988416,0,2,232.5,98,64,64,3.5793750025332,7.22999986012777,0.880950212466032,3.39399650565147,5.74642871958869,3.61914694878968,3.45560049644284,0.428285707746233,2.2787097211807,114.540000081062,43.3799991607666,11.7107142976352,109.309285019125,11.4928574391774,35.4171440643924,87.1585709388767,2.14142853873117,70.6400013566017,15.1890550404787,16.9814987182617,20.4111461997292,19.9987621572639,15.8160833404178,20.1152116011059,19.5823012089101,16.3941785948617,18.6152318413906,25.4215626120567,25.4816667238871,24.9240564974382,29.8609676759365,30.5592857315427,31.1110338370005,33.471735544548,33.678570665632,35.6292394646851,13.7340625077486,14.7233331998189,12.1417448389526,16.9768337518894,21.1738096872966,19.9290791380973,21.6003019523645,24.8844285964966,24.5352535247803,12.2487610557836,12.9546326020938,11.4732109690061,15.6369768953886,17.8686949252443,17.4931939916305,19.3485664524142,20.6305847067263,20.9047458821383,0.995234378746578,0.961607143992469,1,1,1,0.999944235746723,0.999152383350191,0.99903341174675,30.546318,-96.4329965,2018,"TXH1-Late",1
"WF9/H95","NYH2_2017",17.7,731.12121286656,0,2,229,110,65,64,4.98580635363056,2.59333333704207,3.45371500532324,5.89688957038573,0.94807019150048,3.20841810925976,2.37965572681416,2.69433302149013,3.3979729822606,154.559996962547,23.3400000333786,55.2357888974641,222.98894784325,1.76315789473684,41.8126309106224,117.779474443511,23.6378949959027,104.191053542652,18.9189640937313,18.2290218141344,21.6231091311596,19.2816943373654,21.2024165956598,18.916781590673,16.9740698632348,13.8804367561403,9.43949481778822,16.549032380504,19.8011112213135,22.3488199715029,25.6546189886677,27.1610527540508,25.3148987975818,23.2880304669988,24.2514658183566,18.2446084072576,5.23967740420372,10.2422222031487,10.5593938701109,15.2177031552253,15.8735966682434,14.8450433481215,11.5614248973978,11.1539849421825,7.35242725274508,6.26789810278045,8.57074783107705,9.79388514165009,12.8009794426063,13.6890467322532,12.4613839915646,10.5515557799113,10.876639235376,7.68889693415974,0.638917053418775,1,1,1,1,0.981507474576186,0.966916282342149,0.722284214210263,42.73248125,-76.65275025,2017,"NYH2",2
"PHG39/TX205","OHH1_2016",19.55,693.79284108288,0,38,295,141,65,64,4.32806446475368,1.77600002288818,3.91514520817277,2.58074065911205,3.89075762575323,4.1704949600528,5.07906928910772,3.9577419347548,3.61459481407063,134.169998407364,8.88000011444092,44.703636136922,85.9177285974676,9.33045467463407,39.9481819326227,160.185453747484,27.6977266587994,110.118636226112,18.3437643974058,22.2428304672241,20.7314695601022,20.3598251803728,19.1523341554584,18.8282464220066,16.7204849062197,17.9873095465335,14.717978926255,19.6358064528435,29.6320003509521,26.5695358893096,28.5926358759461,29.5910605517301,30.6928383605649,29.2168918167121,28.2718868666116,26.3058832172308,8.12096774674231,16.8959997177124,14.973912901117,16.7052856168403,18.3031819083474,19.7444342603587,18.9160148979259,15.4450083848343,13.402624611054,8.11765705231608,15.3272200928741,13.170280569172,14.8167815407942,15.9685705423992,17.2330323566172,16.1171316077875,14.2150247381021,12.5845870964483,0.859331788177589,1,1,1,1,1,0.999172077691259,0.989049277132183,39.860924,-83.6755995,2016,"OHH1",2
"B73/PHM49","IAH1_2015",21.85,698.94158201856,1.5,1,283.5,156,65,64,1.56645163797563,2.21307695370454,8.40241855686024,1.32346369240836,0.084411761339973,2.29735939798791,2.93999255048908,2.37101190956701,2.73279376330065,48.5600007772446,28.770000398159,122.139999866486,43.5299997925758,0.168823522679946,22.8235286263859,100.118234865806,16.6700000342201,83.8129400085,20.4321490257017,18.8581149761493,14.6331772809511,22.3127675938035,19.1422725845786,22.2080652261871,19.8386258824345,18.3376315823456,15.0581957022198,16.087741913334,16.6453845684345,21.8469785316973,28.7334183023463,30.2685291065889,31.3074705248565,29.0510553070878,29.396362715275,24.6694635680625,1.83903228419442,4.86538466123434,13.1289285435553,16.8676896249547,20.0594113854801,18.0570519634322,16.3929613969702,15.4374991619954,11.1722985517151,5.44712973145307,6.09818857737345,10.4824096365253,14.9963247305916,17.1663926633043,16.728841860151,14.9692492703924,14.7713722092671,11.3064436073178,0.593087559179639,0.682994502258825,0.988452544600181,1,1,0.997626800819033,1,0.896934673983109,41.9980952,-93.69336973,2015,"IAH1",1
"B14A/MO17","IAH1_2020",15.1333333333333,731.12121286656,2.16666666666667,2.16666666666667,229,110,65,64,1.68806450597702,6.19600019454956,3.07937370009497,6.53305792599394,1.27142855099269,2.67326977555714,1.85421064008438,0.708456623919156,3.75561601346081,52.3299996852875,61.9600019454956,37.2349991798401,213.622142757688,2.19857137543815,25.9085708005088,60.1178565110479,6.01214278170041,115.372858315706,19.46953176683,15.0466018676758,20.6424708637148,20.3159834913117,21.992077418736,21.0955225202772,19.7297913964658,19.804555562767,15.1169259092225,15.8729031931969,18.7070004463196,25.7217689451961,28.5067430861476,31.9299994877407,30.8792140748766,28.6114739112471,29.3732770515948,24.6307950130622,3.3483870948755,9.75300015211105,14.6592933360598,17.3863334611218,19.8571428571429,19.2884919363355,17.2726116483618,15.4681903785589,11.8318310619754,5.55848579964145,8.12545645677116,12.6575733793141,15.0980196558132,17.8935711724418,17.0907883427003,15.1212185598445,14.7539709043416,11.4769448256727,0.621440085247674,0.927035726393972,1,1,1,0.99851414246496,0.992713008729779,0.918334154475424,41.19774214,-91.48767072,2020,"IAH1",1
"B73/MO17","NCH1_2017",17.7,731.12121286656,0,2,229,110,65,64,5.92935477918194,4.0971428326198,0.297958701828474,3.8605887218635,6.67380964188349,5.43709003925323,2.5136726855367,1.67758050992105,4.1404608350745,183.80999815464,28.6799998283386,4.0233332543146,115.819522829283,10.9095240093413,51.8457151651382,65.1576194422586,9.6885714899926,128.354285887309,16.8479611796717,19.660787991115,22.200774141109,19.2039608935909,15.7724910842048,20.5483989412822,18.7994722996277,19.2660637939868,16.4083516821151,26.0700000639885,23.5785715920585,28.1701127560743,29.7261436573129,31.0140472896515,30.4881481291756,32.5472167507523,31.9569590380403,30.4313824649231,13.6406452425065,11.251428263528,15.697578023226,18.8753639802544,22.5767457295978,19.8479362164856,22.2803962481536,21.2748593008167,20.8135023424702,12.5644242151493,10.4878498696085,14.2666594933888,16.3604491100229,18.7994083488786,17.2114406625619,19.3855749588707,18.573365725773,17.6526987585521,0.998329492208595,1,1,1,1,1,1,1,35.29663725,-77.5668065,2017,"NCH1",1
"B14A/H95","GAH1_2019",15.755,730.541979511296,33.5,4,175,92.5,62.5,61.5,4.2248276430985,1.98000000582801,1.90823678359521,2.10647248574171,0,0.0907142843518938,5.69186592379183,1.47342855930328,3.0456205472785,122.520001649857,17.8200000524521,22.3799997738429,72.0499995776585,0,0.725714274815151,156.552854708263,7.36714279651642,92.869284595762,16.4500470983571,17.4863393571642,17.4025938464352,20.9384505981452,22.5114740644182,21.8443094832557,17.6671443571744,19.7649144172668,19.7113921770486,21.2065516504748,22.5866669548882,26.8157474524398,29.5228407044518,35.0427381424677,35.7019644635064,32.622701984341,33.6281431470598,33.3689372225291,7.21482760176576,8.5955556233724,14.0449841602638,14.4754341124517,19.2165478297642,20.5846430063248,20.896611150629,21.7801428658622,21.253149004759,8.37062868121402,9.27422007508131,12.9164221771526,14.4004499916871,18.6772654256278,19.2831320721806,18.6339539837863,19.6355556785611,19.1804902073846,0.902167480218734,0.984365084814647,1,1,1,1,1,1,31.50582525,-83.55515025,2019,"GAH1",1
"CG44/CGR01","ONH1_2016",20.8,721.14552730368,0,1.75,185,99.25,75.25,73.5,1.97903224729723,2.10571429133415,0.921813660111247,1.4397382865638,4.72083331843217,2.43543939581423,4.62931562992959,1.31185226971093,2.04330374064945,61.349999666214,29.4800000786781,13.3160000681877,60.2840000450611,10.9924999892712,28.5415000140667,172.047501341999,11.3764998450875,61.3804993152618,20.2488387169376,21.5672763415745,23.7736534890274,22.4114230831704,19.3081846952438,20.6147360729449,17.1281369087258,15.3153421936676,11.6349498992261,10.4929032143085,16.4799998828343,25.0156145674307,25.5146692195041,28.2251669565837,27.9941591414538,27.3135614713641,24.4901795066248,20.388601503087,-0.735806467131742,3.75357140520854,10.9305092215939,11.6118469940074,15.5532501856486,14.7177574468381,15.072441088201,12.7162050899814,9.18578765883922,3.26930641138453,5.68876848413294,11.0920976145976,11.5617585881532,14.221610104509,13.7639954370179,13.5764243452927,11.5133866018644,8.77689949507841,0.291105987941889,0.684668366749752,0.998913789733904,0.988093962379835,1,0.998165816322577,0.971212583726985,0.877977400556158,43.4997965,-80.451125,2016,"ONH1",3
"B37/MO17","IAH4_2017",17.7,731.12121286656,0,2,229,110,65,64,3.05419361206793,4.63857133047921,5.65428284440315,2.35614602206887,0.14500000260093,0.823262633699359,3.0299399841441,2.50648539721385,3.02203274721158,94.6800019741058,32.4699993133545,92.5500001907349,79.8100001811981,0.29000000520186,7.93136371265758,110.043181820349,17.6581818705255,91.7922727492723,19.6043462753296,22.3785518918719,18.8162880805234,21.4694011437152,22.4233230460774,21.2695237410189,19.151369503563,15.9420575880557,15.341385783443,17.8393548227126,25.2142854418073,21.7675578492375,28.8834045222006,30.8898489258506,30.9933841088806,28.3060990673118,26.2662246385522,25.9343880588008,4.95258065529408,10.1399999346052,10.2470841328658,15.0215020746586,17.4712879585497,18.0760807755018,15.8066246452854,13.8702660153955,12.5135465144736,6.57524394811711,10.823012742074,9.64996062135486,14.3656457039619,16.2281010402398,16.5739815495123,14.3659785216558,12.5754656563723,12.0621406847053,0.727396317478698,1,0.91008219867215,1,1,1,1,0.9871688305106,41.99455432,-93.69030947,2017,"IAH4",2
"B14A/H95","TXH3_2020",12.695,2289.25893852672,0,2,226.695,97.155,61.25,60,3.45875000953674,5.34571429661342,0.996479651065087,4.09089315236596,11.3717651367188,0.0555555571138469,3.33441812268722,0.880352915034575,2.22611003899258,110.680000305176,37.4200000762939,12.0805880813038,124.975883862552,22.7435302734375,0.45000001262216,88.3282351318528,3.71411754103268,69.0094112087698,15.8034200966358,18.3400974273682,21.3054113252054,19.4076227493762,20.1658006742889,20.6212549708248,19.0289956494815,16.9470315596637,18.7516036187449,25.77062484622,24.0028569357736,27.6357750244424,29.9540296499709,30.1918626486086,32.3806370161717,33.3632814274538,35.0383530111874,35.6320682503919,14.19906270504,12.2442855153765,13.9206276091926,17.6015685916535,18.339215222527,21.1414216421788,21.8859169591652,25.7136472589829,24.3476091308883,12.6037243600486,11.2042502750959,13.2986533327034,15.9636428686288,16.2736183942562,18.6961842054097,19.4144726026518,21.4701964617595,20.8190107741322,0.989866069384984,1,1,1,1,0.999954159902907,0.999321566563027,0.99882700580498,30.53869475,-96.4274175,2020,"TXH3",2
"CG119/CG108","MOH1_2019",17.875,731.12121286656,0,1,216.75,101,64,63.25,4.90741942774865,9.6042856488909,1.1968724982766,5.11041013178547,2.80166657765706,0.134444442060259,2.37970824656129,7.11342869425813,4.89530104317011,152.130002260208,67.2299995422363,11.8062502294779,164.838749021292,8.40499973297119,1.20999997854233,75.0687506459653,40.4812505505979,151.40749900043,17.0658433668075,18.9367299761091,19.672939013893,19.7601385983828,19.1591383218765,21.9354776011573,19.8853633999455,16.02367872908,15.2536705892253,21.0212902868948,24.3900002070836,28.1749684950318,28.3432416480006,30.6675000985463,31.1026387214661,30.5051384887057,30.1296425728571,28.7243360575809,9.9606451219128,13.4285712923322,17.3952990800443,18.0562052324172,21.3616663217545,20.47986096806,19.3222372109203,20.2391192617871,18.2678090690285,9.14854411028884,11.6848407365863,14.864179743422,15.3206934370902,18.0145832101504,17.7875907402394,16.9097054113916,17.1797368716761,15.574827071042,0.941624426072644,1,1,1,1,1,1,1,38.8956125,-92.20883,2019,"MOH1",1
"PHN11_OH43_0001/PHB47","WIH2_2017",17.7,731.12121286656,0,2,229,110,65,64,5.04870961558434,4.63666661580404,1.14238357494139,5.76385788548466,8.00159072875977,6.16004860362449,1.60777643285742,1.16772651324412,2.25755526788773,156.509998083115,41.7299995422363,17.5799998044968,219.396364270963,12.1440906524658,74.0409079194069,72.28863683072,15.0440909293565,68.0204556950114,18.1690344041394,19.7204955418905,20.6472768327282,20.2328798799047,19.1316367929632,19.3749324300072,18.5140157590327,14.9334047713424,10.8947823268053,16.0312902696671,21.8655554453532,22.157460706825,26.5968914308851,27.900455012466,26.7679925429357,24.7306206922626,22.3853339347559,20.5127478068356,3.24419354046545,8.79111109839545,9.55349760092549,14.5433731880084,16.8103789199482,15.3783115840061,12.1927125768691,9.1932024860582,7.86886657741529,5.43821820192816,9.20913123615215,9.45120310694411,13.0570841123019,14.516823010886,13.3761072292611,11.3130637266799,9.68633375424708,8.85311395885718,0.624158990547954,0.847976183134412,0.950288767513294,1,1,0.998699911088751,0.954544861800485,0.834596302261351,43.3246415,-89.33688775,2017,"WIH2",2
"TX777/LH195","GAH1_2015",15.7,716.96217529344,0,2.5,195,85,66.5,64,4.23124991450459,0,5.95843648977752,3.85260314316124,2.594000032213,2.42992595566644,4.21775937236542,2.2254666519165,2.66739782620502,135.399997264147,0,82.5659990310669,137.561997858683,4.85133333206177,21.8693336009979,117.57799987793,11.1273332595825,82.6893326123556,16.5993611216545,21.5826927820841,19.1166129616996,20.6161636639978,14.5260023964776,17.8647365923281,19.7929930049444,19.1551458994548,18.4643243789673,25.4328122735023,26.8150002161662,26.0085422722365,27.8265794265258,29.9603331036038,30.5756295522054,31.8228302996983,33.5869333394368,33.7522152726368,12.5037499815226,10.5999999046326,12.2444831422419,13.9045236436884,20.7681110594008,20.2534813916242,20.6425490405989,22.1771998596191,22.2909034236785,11.854479674764,11.7266463096301,11.9406266754272,13.4149299134414,17.3642220815023,17.4145554719148,18.2371492286976,19.8306681454467,19.8965389447966,0.988973218681557,1,1,1,1,1,1,1,31.505771,-83.555095,2015,"GAH1",1
"B14A/H95","ONH2_2017",25.3,857.90895840768,1,3,218,115,49.5,46.5,3.5667742529223,5.81600005626678,0.640467161488946,2.60285034576314,0.27619046824319,0.553043346265297,1.77415042468807,1.8322193505358,2.40528059047854,110.570001840591,58.1600005626678,8.99904758589608,96.0257148231779,0.55238093648638,6.91857143810817,78.7085716128349,24.0661906514849,72.9814284727687,18.8542372026751,16.7486707210541,24.2129103871374,19.3709418074881,21.1971578446646,20.8470523735834,17.6115175917995,14.25368499546,9.92782470727663,15.7532256957023,18.6889998435974,23.4026282865202,26.349749969441,26.5938094911121,26.8606501324273,24.5722531696102,22.9174861617247,20.0059681545616,5.76483872628981,10.960000038147,12.0335911848343,16.1800782706558,16.6330158142816,15.9192033646599,13.1457407086605,11.2717777505092,10.1065058561854,6.14192830243868,8.3866030604193,10.6839465453898,13.5252167119854,13.7753985037319,13.6499871813553,11.5882146496872,10.4155272324174,9.10741430426533,0.598502302774086,0.966571422985622,1,1,1,0.999084662263501,0.956230826192702,0.830002500100802,42.45293025,-81.8827315,2017,"ONH2",3
"W10004_0216/PHZ51","IAH4_2015",15.9,734.98276856832,7.5,7.5,278,146,65,64,1.42451612026461,4.85461551409501,2.51366814388176,6.35112741860021,5.46999979019165,2.15468744138877,1.85099418012837,0.335758933997048,4.06477020181796,44.1599997282028,63.1100016832352,35.58999979496,218.239999890327,10.9399995803833,20.3081244528294,58.4868740737438,2.37750003859401,125.114376250654,19.8399788794979,19.2877280528729,16.0227039780687,20.6982291705844,17.2771818637848,21.3583117332723,20.173035647804,19.5936077237129,15.6142427020175,15.8303226194074,16.787692290086,22.2616416304594,27.8872542261576,29.3799998760223,31.527847079436,28.6989534201586,30.1840446931975,25.4683327571038,2.47354838888972,5.02461542532994,13.4828078946313,16.5986873437933,20.3737498521805,19.7862846771876,17.3729821147223,16.8951585807971,12.6851404789395,5.3186939130858,6.22884723842383,10.7829124536012,14.4752906425735,16.8768748641014,17.6605473898843,15.1814165620107,15.7121042559737,12.0590735738697,0.585391697096145,0.659230776868024,0.989944130014561,1,1,1,1,0.952600636395888,41.19970961,-91.49362406,2015,"IAH4",2
"PHN11_PHW65_0323/LH195","KSH1_2018",15.2333333333333,782.17956047872,26.3333333333333,4,229,110,65,64,0.123225804298155,1.30900002717972,2.83506375319456,1.2459214324312,6.19076948899489,0.847777789474553,5.1218265908424,3.69192301692107,0.576771714573463,3.8199999332428,13.0900002717972,33.3599996566772,37.3992318190061,6.19076948899489,7.63000010527097,140.858461535894,22.1515381015264,17.8223077677763,23.1370286018618,19.2060641288757,23.7691797272003,25.0194683662448,21.7231781299298,23.9963390562269,18.765791145748,18.1217001366528,19.2415732235431,22.7570966443708,20.7710000038147,27.0889297319322,34.1348485103316,36.7992310157189,35.2770086761214,33.1767755582226,30.5195789686489,31.4897389333834,3.91580647806967,6.77899992465973,10.7568288663889,16.6038358814018,18.2684613741361,18.3700854309604,18.8712576128239,16.1529120385865,15.043086003567,8.2550349486535,8.26760082812303,11.9055120329443,16.7397208326489,17.8402190283281,17.7325687288557,17.5454570775247,15.4375755545796,15.4362136309613,0.847615199154972,0.789999990803855,1,1,1,1,1,0.970122946724322,37.810107,-100.775188,2018,"KSH1",2
"B73/DK3IIH6","WIH2_2017",17.7,731.12121286656,0,2,229,110,65,64,5.04870961558434,4.63666661580404,1.14238357494139,5.76385788548466,8.00159072875977,6.16004860362449,1.60777643285742,1.16772651324412,2.25755526788773,156.509998083115,41.7299995422363,17.5799998044968,219.396364270963,12.1440906524658,74.0409079194069,72.28863683072,15.0440909293565,68.0204556950114,18.1690344041394,19.7204955418905,20.6472768327282,20.2328798799047,19.1316367929632,19.3749324300072,18.5140157590327,14.9334047713424,10.8947823268053,16.0312902696671,21.8655554453532,22.157460706825,26.5968914308851,27.900455012466,26.7679925429357,24.7306206922626,22.3853339347559,20.5127478068356,3.24419354046545,8.79111109839545,9.55349760092549,14.5433731880084,16.8103789199482,15.3783115840061,12.1927125768691,9.1932024860582,7.86886657741529,5.43821820192816,9.20913123615215,9.45120310694411,13.0570841123019,14.516823010886,13.3761072292611,11.3130637266799,9.68633375424708,8.85311395885718,0.624158990547954,0.847976183134412,0.950288767513294,1,1,0.998699911088751,0.954544861800485,0.834596302261351,43.3246415,-89.33688775,2017,"WIH2",1
"PHN11_PHW65_0323/LH195","MNH1_2018",22.678,696.882085644288,0,2,244.7,119.5,65.6,64.3,2.7938710316535,5.66428569384984,1.88138350844846,4.66962568011348,0.280777778890398,5.314848416261,5.50309775567603,4.90259317369494,1.74449034129874,86.6100019812584,39.6499998569489,19.6633331219355,156.026667060455,0.653333338101705,61.1846658706665,207.324669293563,42.5680015007655,52.6160005594293,18.6861717470231,18.6483766010829,23.2219031340296,20.2349813747085,21.884095509847,21.2045387879767,17.4384910052928,14.0280589904444,11.4776368163264,18.2458064786849,23.5114288330078,30.4956820770299,28.4029569689886,27.6728887134128,27.8828838203893,26.244249248564,23.4899370002514,17.2954946981698,6.62290317012418,13.3528570447649,16.1020055964721,17.0711162868408,16.2537779596117,15.7901464996916,14.8351560856314,12.4297014384783,6.3474709751724,7.12789266978397,11.1508268377611,15.4213678280709,14.9171949913789,14.1582048951777,14.1049189391121,13.0806653562654,11.2032413303021,7.12656051864639,0.79756912012254,1,1,1,1,0.978734696021031,0.910102722236681,0.699884152136365,44.07044721,-93.53494127,2018,"MNH1",3
"B73/PHN82","MOH1_2015",14.95,731.12121286656,0,0.5,195,100,77,75,3.91483872167526,3.00272724845193,2.70388340007172,5.64622626815722,2.26875001192093,1.18333334392971,4.73674408601423,1.74040179593222,3.6664919433214,121.360000371933,33.0299997329712,34.4199993312359,178.871247828007,5.86875003576279,10.6500000953674,140.261874556541,11.8831250667572,113.661250242963,18.8184669402338,18.8870315551758,16.929197347905,21.705914807588,15.7215426564217,19.9453006850349,18.4742217908113,20.1287302806264,17.0265389219407,18.2845160884242,18.0018183101307,23.7780545636798,28.9302828526302,29.8559374809265,31.7611801889208,30.4214076278912,28.5805001264527,28.4314314703788,5.85709682707825,7.50000006502325,15.2148777665246,17.6487962035776,21.6728123426437,21.4597915940815,20.2818253816477,17.0989999456065,17.2866936922073,7.06854431480445,7.30219313947649,11.971425794578,15.3979636076336,17.7643749117851,18.6104858915011,17.38069400277,14.991826945877,15.0531743909791,0.723283405334169,0.814935085835395,1,1,1,1,1,1,38.8965375,-92.20800417,2015,"MOH1",5
"CG44/CGR01","SCH1_2019",11.31,731.12121286656,0,2,177.8,69.85,54,55,3.52258064477674,3.02666664123535,1.83207166627958,3.15534991018595,1.49702380668549,2.43988097139767,1.83821312723543,1.7150475976013,2.16246542897642,109.199999988079,18.1599998474121,19.9499998688698,97.8735719323158,2.84642858164651,21.9271430288042,50.916428404195,9.48142844438553,67.036428298269,18.2238053967876,19.247888247172,19.8381614833763,19.938859204939,17.7934952236357,20.8877508432146,19.9301129518968,20.1952560402098,17.6553152003047,24.0812904296383,27.556666692098,26.8636026409599,30.303022531239,30.1509526570638,31.8182345420595,32.8750149825147,31.8445712543669,32.3335714516002,10.7222581025093,15.8883333206177,14.7897779125592,18.3349862715708,20.4966665676662,19.4895437936934,21.1836656381328,19.1694286028544,20.1650460304752,10.6271599305538,13.8823950294698,13.2745578864924,16.3672741997006,17.323809612365,17.6458035283698,19.009890666677,17.48787313509,18.1591706145628,0.967315667785258,1,1,1,1,1,1,1,34.62248225,-82.73756775,2019,"SCH1",4
"B14A/OH43","TXH3_2020",10.71,1263.050510784,0,2,243.205,104.775,59.25,58.25,3.45875000953674,5.34571429661342,0.996479651065087,4.09089315236596,11.3717651367188,0.0555555571138469,3.33441812268722,0.880352915034575,2.22611003899258,110.680000305176,37.4200000762939,12.0805880813038,124.975883862552,22.7435302734375,0.45000001262216,88.3282351318528,3.71411754103268,69.0094112087698,15.8034200966358,18.3400974273682,21.3054113252054,19.4076227493762,20.1658006742889,20.6212549708248,19.0289956494815,16.9470315596637,18.7516036187449,25.77062484622,24.0028569357736,27.6357750244424,29.9540296499709,30.1918626486086,32.3806370161717,33.3632814274538,35.0383530111874,35.6320682503919,14.19906270504,12.2442855153765,13.9206276091926,17.6015685916535,18.339215222527,21.1414216421788,21.8859169591652,25.7136472589829,24.3476091308883,12.6037243600486,11.2042502750959,13.2986533327034,15.9636428686288,16.2736183942562,18.6961842054097,19.4144726026518,21.4701964617595,20.8190107741322,0.989866069384984,1,1,1,1,0.999954159902907,0.999321566563027,0.99882700580498,30.53869475,-96.4274175,2020,"TXH3",2
"TX779/LH195","TXH3_2020",11.6666666666667,1434.56794320384,0,2,229.023333333333,88.4766666666667,65.1666666666667,63.8333333333333,3.45875000953674,5.34571429661342,0.996479651065087,4.09089315236596,11.3717651367188,0.0555555571138469,3.33441812268722,0.880352915034575,2.22611003899258,110.680000305176,37.4200000762939,12.0805880813038,124.975883862552,22.7435302734375,0.45000001262216,88.3282351318528,3.71411754103268,69.0094112087698,15.8034200966358,18.3400974273682,21.3054113252054,19.4076227493762,20.1658006742889,20.6212549708248,19.0289956494815,16.9470315596637,18.7516036187449,25.77062484622,24.0028569357736,27.6357750244424,29.9540296499709,30.1918626486086,32.3806370161717,33.3632814274538,35.0383530111874,35.6320682503919,14.19906270504,12.2442855153765,13.9206276091926,17.6015685916535,18.339215222527,21.1414216421788,21.8859169591652,25.7136472589829,24.3476091308883,12.6037243600486,11.2042502750959,13.2986533327034,15.9636428686288,16.2736183942562,18.6961842054097,19.4144726026518,21.4701964617595,20.8190107741322,0.989866069384984,1,1,1,1,0.999954159902907,0.999321566563027,0.99882700580498,30.53869475,-96.4274175,2020,"TXH3",1
"PHG39/TX205","IAH1_2017",18.95,731.12121286656,0.5,1.5,224.5,117,65,64,3.40562492981553,4.9653845842068,4.75627611908435,1.83360658706262,3.81409099607757,2.22148488699788,3.67080832802223,1.81325483980117,2.34747311753145,108.979997754097,64.5499995946884,71.2827261577953,63.7872725833546,4.17772737416354,22.8386367667805,118.906818606637,13.7622724988244,72.0368181575428,16.1986516714096,17.4117801372822,18.8419865113308,22.0772261853777,19.5709462599321,20.6423577019663,19.6533487855188,19.1238258402757,16.8780910515948,17.1134373545647,15.3784616176899,22.9595167923024,28.098072667094,26.507423805468,30.2796059126806,29.7994892260695,26.9283494144291,26.376740509697,5.4131250269711,4.92307697809659,11.465490162608,14.1696252786347,11.6175757754933,16.6577523703527,16.6650409071547,13.3875722172112,12.4151066155028,6.53077833948335,5.76856381165309,10.4537021498713,13.7196511279626,11.9478337828281,15.6426259768559,15.399646170179,12.7123989246095,12.1737806011652,0.629988832066634,0.555054952155103,0.946458761983939,1,1,1,1,0.998130952344312,41.19924609,-91.49402296,2017,"IAH1",3
"B73/PHM49","WIH2_2018",28.4285714285714,750.061224165669,13.4285714285714,2,251.857142857143,131.285714285714,69.5714285714286,67.2857142857143,3.14419357238277,1.76857142789023,3.7850711937244,5.16484622721252,1.71595238503956,3.40222404942368,3.04494882245682,9.61559933750402,3.37177261638065,97.470000743866,12.3799999952316,46.2814290182931,179.869998318808,4.56071427890233,37.7064288343702,131.482145317963,73.4771447862898,101.717141609107,19.2573341092756,21.1210829871041,21.4752587688556,21.2745392970238,18.3171726181394,18.5302155637122,18.6607088369069,13.625803150659,11.3718547526592,15.5287096115851,24.665714263916,26.0917028350164,28.2348686412978,27.8659524917603,27.6583875546724,26.7064113625472,24.9215236168329,17.9686743887339,3.195161296956,12.9500000817435,13.8890289352891,15.1338539459878,17.4050001189822,17.0648214997667,13.7709706188762,13.5657747038241,6.88716511658397,5.28984108241052,11.5719513224068,12.6458491000419,14.0894685781005,14.7169908688233,14.5010708096508,12.893566291538,12.2339728232487,7.2792037808306,0.580092163387394,1,1,1,1,0.981419112725804,0.932006969360863,0.738663650155215,43.38075,-89.38645,2018,"WIH2",2
"B37/H95","SCH1_2018",15.25,731.12121286656,35,2,217.5,113.5,61.5,63.5,5.50937507301569,3.37250000238419,5.77532792752829,7.72812766098977,4.71095229046685,3.13060314183971,3.12348515829066,2.01328565960839,5.79306446956599,176.300002336502,26.9800000190735,97.6099995204381,245.673573059695,5.41571421282632,31.8442854029792,83.9342848232814,10.5378568683352,179.584998556546,18.6477236524224,19.2869287729263,21.173054595667,18.1631813069703,18.8474233264015,19.2548603041347,19.9945130026415,19.3178334372384,16.3013944175386,22.5390624701977,22.5337498188019,23.0902047939223,27.6187004518251,28.0654765991938,28.9085680901058,32.584791315526,33.4833329836528,31.116866401813,9.30156246945262,9.31125009059906,8.76240008069966,17.5066534747267,16.7615474973406,18.3829589417142,21.2079791456952,21.6712853658767,20.8076727291406,9.59119125294698,9.40007484305004,9.57450522783795,14.7679377529716,14.5196225818089,15.7238139666896,18.8616965293534,19.451053178185,17.9628857433375,0.951841517750706,1,0.982626498534951,0.991514694994028,1,1,1,1,34.6223015,-82.7364835,2018,"SCH1",5
"PHP02/PHB47","GAH1_2015",13.4,722.11091622912,5,2,160,65,56,55,4.23124991450459,0,5.95843648977752,3.85260314316124,2.594000032213,2.42992595566644,4.21775937236542,2.2254666519165,2.66739782620502,135.399997264147,0,82.5659990310669,137.561997858683,4.85133333206177,21.8693336009979,117.57799987793,11.1273332595825,82.6893326123556,16.5993611216545,21.5826927820841,19.1166129616996,20.6161636639978,14.5260023964776,17.8647365923281,19.7929930049444,19.1551458994548,18.4643243789673,25.4328122735023,26.8150002161662,26.0085422722365,27.8265794265258,29.9603331036038,30.5756295522054,31.8228302996983,33.5869333394368,33.7522152726368,12.5037499815226,10.5999999046326,12.2444831422419,13.9045236436884,20.7681110594008,20.2534813916242,20.6425490405989,22.1771998596191,22.2909034236785,11.854479674764,11.7266463096301,11.9406266754272,13.4149299134414,17.3642220815023,17.4145554719148,18.2371492286976,19.8306681454467,19.8965389447966,0.988973218681557,1,1,1,1,1,1,1,31.505771,-83.555095,2015,"GAH1",2
"B73/PHN82","WIH1_2020",24.7,681.24278505216,0,0.25,252,129,78.25,77.5,1.59838711061785,6.50714300359998,4.41352047113916,5.45542643820132,9.57615368182843,6.84825181127428,1.84719881902334,1.30244238470478,3.23367497316562,49.5500004291534,91.1000020503998,54.0530769802057,191.976921805969,14.7699995774489,75.3307699240171,75.5292314841197,17.1992309551973,99.2976933901127,20.3303611970717,17.7093844073159,19.6377469573902,21.7192805749651,19.4719141446627,18.0877809324465,19.5250672167142,17.0227731666303,12.7424436758233,13.8093548359409,15.7821428094591,24.7187017149516,28.033127103902,31.3961546971248,28.1712590197583,26.9553556739421,26.2427392980096,20.067150654637,1.33290325153259,5.15000006104154,13.2586988238647,14.9072456821681,18.8092307677636,17.6374126180902,14.6682007343716,13.0054438131186,8.42975850841346,4.40407542638638,5.92012185452547,11.7383860300671,13.8805458366735,17.1295568336927,14.9524727582334,13.3020801105566,12.6359188849815,8.58850906873917,0.464815660178112,0.623010193140303,1,1,1,0.987099279404792,0.934776512387789,0.808464704181206,43.05505505,-89.52853825,2020,"WIH1",6
"B37/H95","NCH1_2019",14.925,793.87149302016,0,0.5,216.625,94.375,60.75,59,2.19112902687442,0,0.107342030975845,4.77507323258167,0.466011907373156,4.53366071837289,6.24100047954245,2.370892843746,2.94129567493308,67.924999833107,0,1.3471428326198,143.414641141891,0.941785710198539,36.2692857469831,165.010000262942,13.542499933924,91.0282135435513,18.6945283182206,25.3012667338053,21.7738242823774,19.078931758161,22.5687620866866,20.7892764977046,19.2290380742896,18.9667955189335,16.7108737708237,25.6958062879501,28.7666660944621,32.2989134582725,30.0829447266695,33.3002377010527,33.8308033858027,32.7574178138121,32.0492754949193,30.7969182892695,13.3427419508657,12.1913332621257,19.0628058780323,18.6108973402873,20.5685118834178,21.2355805294854,21.0813141387738,19.9046463969613,19.7783264509544,12.1843668285043,13.3359738524393,17.6421634826888,16.3912677221001,18.883427458337,19.4407548098431,18.824781095651,17.9808021159142,17.3116109306789,1,1,1,1,1,1,1,1,35.67010175,-78.510504,2019,"NCH1",6
"CG108/CGR03","ONH2_2015",17.9,772.95473296896,0,0,252.5,137.5,72.5,71,1.8764516076734,4.28266668319702,1.92800543142355,1.5826126299147,10.8026474223417,1.92320858157255,3.11438839923848,4.29490191426152,2.35638896233292,58.1699998378754,64.2400002479553,23.6199996471405,57.2247065095341,21.6052948446835,21.155294397298,115.501765766565,31.5629407868666,72.1164696006214,18.9538011243266,18.7670978546143,21.1774380927546,22.4541887468383,20.0410301545087,18.4543581008911,18.4537391837158,15.8007825277989,13.3453952521331,11.1738709480532,14.384666633606,23.912001533754,26.6127938053419,30.1517652623794,27.6505346247219,26.7798692937751,25.8746404647827,20.7920556972632,2.00677422361989,5.63600003321966,13.6495024548441,15.646883458515,19.3264702628641,18.5181282879835,16.7469462265247,15.4972220963123,11.0305445628027,3.74293843582847,5.61712950522319,11.5306591381689,13.5235311876304,16.7854267763897,15.1342186639452,13.9515349469929,13.1846932018183,9.37660248979743,0.276970042748385,0.589690475094886,0.985132405558233,1,1,1,0.993019958754548,0.931831119234909,42.45408625,-81.8816065,2015,"ONH2",2
"W10005_0107/PHB47","WIH1_2015",22.8,732.40839810048,0,0,254,125,65,64,4.73000005912036,9.05999978383382,2.43061068168386,6.19005986556151,3.24281251430511,1.73931090915814,2.56322206766969,2.5826045268506,2.06486223506671,151.360001891851,54.3599987030029,32.300625488162,198.088750079274,6.48562502861023,21.1143751442432,113.252501126379,35.4293755665421,62.4800001233816,19.3236754387617,22.1910498936971,23.8972514964953,19.0410510068734,21.6280432442824,20.7255365879108,16.0925579709474,13.722787601418,9.59556191513936,19.9571875482798,28.1500002543132,26.0532609907049,28.8593200589564,29.0738543669383,26.5105607723578,24.8273939882814,20.1808902607393,14.5154980836536,8.51718754309695,15.3049998283386,11.8280294384883,17.4878351835719,16.4801037510236,14.4961537795189,12.3150913731169,8.58194562556843,2.68044018258631,8.55835087322049,13.98301753897,11.81015597229,15.2618382755968,14.9558189846116,12.9875354191,11.6812346906955,8.628108427747,5.08755073101082,0.777276777234095,1,1,1,1,0.929186389078322,0.833919484023419,0.505939954463764,43.05511725,-89.528525,2015,"WIH1",3
"LH198/PHZ51","ARH1_2017",12.3,552.84605796864,0,2,221.6,107.95,65.5,65,3.05812502466142,3.53285707746233,9.87168867799627,6.40516052792204,0.516363615339453,5.98817166776368,5.1192324932667,3.10231815251437,5.34158355959,97.8600007891655,24.7299995422363,132.032728541981,211.621818423271,0.569545431570573,54.3681813803586,136.891365343874,16.0827271288091,165.58909034729,17.1397498100996,16.5534388678415,20.3842401109389,18.762255266809,22.8136479348847,19.0696450768095,19.5355347466332,19.7719311078389,17.1297293478443,24.6090626120567,23.9600004468645,24.7705700575015,28.0660565234123,30.3546969095866,31.5146664012562,31.305776363096,32.7845913251241,30.9158799263739,11.9174999967217,14.1785715648106,11.8445801043321,17.6085024623292,18.9724999485594,21.3061564166136,21.3997927531552,22.5053331635215,21.6223753764133,11.1639708952952,11.7757805455927,11.2265518633486,14.9753735417966,16.7435951634837,18.4104114089349,18.3304942572969,19.547681258962,18.2245760771495,1,1,1,1,1,1,1,1,34.7272515,-90.76032575,2017,"ARH1",3
"B97/PHB47","IAH4_2015",15.8,701.5159524864,33.5,3,246.5,124,65,64,1.42451612026461,4.85461551409501,2.51366814388176,6.35112741860021,5.46999979019165,2.15468744138877,1.85099418012837,0.335758933997048,4.06477020181796,44.1599997282028,63.1100016832352,35.58999979496,218.239999890327,10.9399995803833,20.3081244528294,58.4868740737438,2.37750003859401,125.114376250654,19.8399788794979,19.2877280528729,16.0227039780687,20.6982291705844,17.2771818637848,21.3583117332723,20.173035647804,19.5936077237129,15.6142427020175,15.8303226194074,16.787692290086,22.2616416304594,27.8872542261576,29.3799998760223,31.527847079436,28.6989534201586,30.1840446931975,25.4683327571038,2.47354838888972,5.02461542532994,13.4828078946313,16.5986873437933,20.3737498521805,19.7862846771876,17.3729821147223,16.8951585807971,12.6851404789395,5.3186939130858,6.22884723842383,10.7829124536012,14.4752906425735,16.8768748641014,17.6605473898843,15.1814165620107,15.7121042559737,12.0590735738697,0.585391697096145,0.659230776868024,0.989944130014561,1,1,1,1,0.952600636395888,41.19970961,-91.49362406,2015,"IAH4",1
"B37/OH43","WIH1_2016",21.95,747.21102829056,0,5.5,235,110,73.5,71.5,2.07612901829904,1.94750002026558,4.43029129058702,4.06837717818273,0.606590926647186,8.20447110085448,6.520888551421,7.2858018260261,4.4131911117893,64.3599995672703,23.370000243187,50.6681830666282,153.97863580422,1.01772730458866,87.4172730174932,222.460452949459,58.9559095664458,134.926818408749,19.9280546249882,20.9108026027679,19.5354633918175,20.656900418312,18.9729677330364,19.7636050157311,17.5087671369867,15.2137091671578,12.2388305592514,16.7025806211656,17.5758331219355,27.0818272779223,26.4913085721608,27.2215908223932,28.3583387540392,27.670006898165,25.1458900986296,22.9867464155046,3.3274193627219,4.99083332717419,14.0472380898586,14.4742379762581,17.5863633372567,16.7186735984708,17.173991451041,14.3205114663249,12.5735533033509,5.87586661218575,6.41950897413704,12.98865397587,12.9292428934718,14.50224274263,14.726515337733,14.5565806693068,12.2392458124565,10.7486023953999,0.621198160548089,0.765386900199311,1,1,1,0.999967802990051,0.998306276607307,0.970976554260314,43.05632525,-89.53194975,2016,"WIH1",3
"PHN11_PHW65_0323/LH195","NYH3_2018",23.775,717.380510494464,0,2,200.25,98.25,73.75,73,4.15290321265497,0.855714253016881,1.3332815508056,1.97305411194418,19.583846221678,4.14286014006271,1.8276992618975,3.76173812028143,1.90156246016497,128.739999592304,5.98999977111816,17.4923071333995,69.9676929031714,40.0915385802778,44.7653846179063,69.4146166489675,34.6500001893594,57.3015388158652,20.6438379902993,23.734383719308,20.9151799390397,21.3482761629861,15.5748009681702,18.2818119822682,18.5980678458876,13.9987834016191,13.2148593540227,12.8280644647537,24.7271431514195,24.7414279945742,27.596512872011,28.6830766384418,28.5062936742823,27.0643436698177,24.343457209962,20.0662390765262,1.45225804755765,10.4899997711182,13.1008829316836,14.8254759279027,19.1384615898132,17.4527063056306,15.1350768185087,13.0732734933789,8.10410418950169,4.11302762674546,10.7452289392157,11.8273048947818,13.7306812602079,15.9383483481257,15.0507564805546,13.5024004688805,11.6476751318915,8.35218751479716,0.351670501693603,1,0.973040659254487,0.995029228353767,1,0.992439429045457,0.946636380852979,0.843044515744696,42.7261605,-76.6556765,2018,"NYH3",4
"CG44/CGR01","ILH1_2016",15.5,864.34488457728,0,2,284,151.5,75.5,73.5,2.97690523692196,4.38840902691538,2.26653606655233,5.61207630954248,2.38484847184383,3.5965513070917,3.31235071929027,4.35749997459836,4.79379031928375,93.7199998497963,46.3549993336201,33.4606812819839,180.417726646093,4.62886360558597,41.7338635867292,104.141365719112,28.3243180147626,148.202045347203,18.8248824135911,16.772414523905,21.3206123477011,20.186536070862,20.742345383673,18.0798104173881,18.8666988996862,17.8581825314146,16.0768072129811,18.0508114395122,19.2020452456041,23.0422996986406,29.4229266243166,27.9030872836257,26.9731781198959,29.6021857332558,29.1593882944677,28.1759287739546,4.96004029539143,8.5312726020813,10.4507586023432,17.100495052534,15.9971779440389,16.8488147764823,19.4105485847029,18.8438310752183,17.0974068698762,6.7812351246955,7.96926780707668,10.1711916616246,15.4161417086623,14.2957979847463,14.1538489170388,16.5199597663553,16.0495125310087,14.8445893652738,0.666766271376172,0.897956158588459,0.946860721270467,1,1,1,1,0.999883116813965,40.0607245,-88.2338815,2016,"ILH1",5
"B73/MO17","MOH2_2015",15.55,731.12121286656,0,0.5,240,130,72.5,71,3.91483872167526,3.53454542160034,2.89167602876837,5.44662396781396,2.50588237538057,1.11372550016914,5.06858646461217,0.980448185896673,4.0111195383597,121.360000371933,38.8799996376038,35.2317639782148,173.692939155242,5.01176475076114,10.0235295015223,148.922352524365,6.48705886392032,124.344705689151,19.0870114757169,18.1253494782881,17.1671785847115,21.5962912871016,16.8894541123334,20.3451615751179,18.3289543491586,19.9060889353605,16.9549438623142,18.7561290033402,18.2472727515481,23.8732290384998,29.0283650683656,30.5917647866642,31.9324831869088,30.2728559915889,28.7322074708484,28.3406261827733,6.1525806919221,8.05909102613276,15.301299728071,17.8011435243455,21.9470590703628,21.3926142773597,20.1702312736422,17.4051933128293,17.2094118925381,7.28819699270824,7.58478922996184,12.0589106387454,15.5177509064803,18.2694119285135,18.6625487321343,17.2518738973888,15.2135918237946,14.9707890115806,0.755541469850298,0.814935085835395,1,1,1,1,1,1,38.89807917,-92.2079,2015,"MOH2",2
"B37/OH43","SCH1_2019",14.995,731.12121286656,0.5,2,212.09,85.09,56,57.5,3.52258064477674,3.02666664123535,1.83207166627958,3.15534991018595,1.49702380668549,2.43988097139767,1.83821312723543,1.7150475976013,2.16246542897642,109.199999988079,18.1599998474121,19.9499998688698,97.8735719323158,2.84642858164651,21.9271430288042,50.916428404195,9.48142844438553,67.036428298269,18.2238053967876,19.247888247172,19.8381614833763,19.938859204939,17.7934952236357,20.8877508432146,19.9301129518968,20.1952560402098,17.6553152003047,24.0812904296383,27.556666692098,26.8636026409599,30.303022531239,30.1509526570638,31.8182345420595,32.8750149825147,31.8445712543669,32.3335714516002,10.7222581025093,15.8883333206177,14.7897779125592,18.3349862715708,20.4966665676662,19.4895437936934,21.1836656381328,19.1694286028544,20.1650460304752,10.6271599305538,13.8823950294698,13.2745578864924,16.3672741997006,17.323809612365,17.6458035283698,19.009890666677,17.48787313509,18.1591706145628,0.967315667785258,1,1,1,1,1,1,1,34.62248225,-82.73756775,2019,"SCH1",4
"F42/H95","NYH3_2018",23.14,721.14552730368,10,2,212,92,73,73,4.15290321265497,0.855714253016881,1.3332815508056,1.97305411194418,19.583846221678,4.14286014006271,1.8276992618975,3.76173812028143,1.90156246016497,128.739999592304,5.98999977111816,17.4923071333995,69.9676929031714,40.0915385802778,44.7653846179063,69.4146166489675,34.6500001893594,57.3015388158652,20.6438379902993,23.734383719308,20.9151799390397,21.3482761629861,15.5748009681702,18.2818119822682,18.5980678458876,13.9987834016191,13.2148593540227,12.8280644647537,24.7271431514195,24.7414279945742,27.596512872011,28.6830766384418,28.5062936742823,27.0643436698177,24.343457209962,20.0662390765262,1.45225804755765,10.4899997711182,13.1008829316836,14.8254759279027,19.1384615898132,17.4527063056306,15.1350768185087,13.0732734933789,8.10410418950169,4.11302762674546,10.7452289392157,11.8273048947818,13.7306812602079,15.9383483481257,15.0507564805546,13.5024004688805,11.6476751318915,8.35218751479716,0.351670501693603,1,0.973040659254487,0.995029228353767,1,0.992439429045457,0.946636380852979,0.843044515744696,42.7261605,-76.6556765,2018,"NYH3",1
"W10004_0216/PHZ51","WIH1_2015",29.6,762.01365848064,0,0,305,177,65,64,4.73000005912036,9.05999978383382,2.43061068168386,6.19005986556151,3.24281251430511,1.73931090915814,2.56322206766969,2.5826045268506,2.06486223506671,151.360001891851,54.3599987030029,32.300625488162,198.088750079274,6.48562502861023,21.1143751442432,113.252501126379,35.4293755665421,62.4800001233816,19.3236754387617,22.1910498936971,23.8972514964953,19.0410510068734,21.6280432442824,20.7255365879108,16.0925579709474,13.722787601418,9.59556191513936,19.9571875482798,28.1500002543132,26.0532609907049,28.8593200589564,29.0738543669383,26.5105607723578,24.8273939882814,20.1808902607393,14.5154980836536,8.51718754309695,15.3049998283386,11.8280294384883,17.4878351835719,16.4801037510236,14.4961537795189,12.3150913731169,8.58194562556843,2.68044018258631,8.55835087322049,13.98301753897,11.81015597229,15.2618382755968,14.9558189846116,12.9875354191,11.6812346906955,8.628108427747,5.08755073101082,0.777276777234095,1,1,1,1,0.929186389078322,0.833919484023419,0.505939954463764,43.05511725,-89.528525,2015,"WIH1",3
"PHB47/PHN82","MOH2_2015",13.8,731.12121286656,0,3,200,85,71,69,3.91483872167526,3.53454542160034,2.89167602876837,5.44662396781396,2.50588237538057,1.11372550016914,5.06858646461217,0.980448185896673,4.0111195383597,121.360000371933,38.8799996376038,35.2317639782148,173.692939155242,5.01176475076114,10.0235295015223,148.922352524365,6.48705886392032,124.344705689151,19.0870114757169,18.1253494782881,17.1671785847115,21.5962912871016,16.8894541123334,20.3451615751179,18.3289543491586,19.9060889353605,16.9549438623142,18.7561290033402,18.2472727515481,23.8732290384998,29.0283650683656,30.5917647866642,31.9324831869088,30.2728559915889,28.7322074708484,28.3406261827733,6.1525806919221,8.05909102613276,15.301299728071,17.8011435243455,21.9470590703628,21.3926142773597,20.1702312736422,17.4051933128293,17.2094118925381,7.28819699270824,7.58478922996184,12.0589106387454,15.5177509064803,18.2694119285135,18.6625487321343,17.2518738973888,15.2135918237946,14.9707890115806,0.755541469850298,0.814935085835395,1,1,1,1,1,1,38.89807917,-92.2079,2015,"MOH2",3
"B73/PHN82","NCH1_2018",17.3,731.12121286656,0,2,205,104.5,53.75,52.75,4.15774186772685,0,6.8526510433579,4.10157556488421,0.281428575515747,2.75396832528095,7.26591658308554,9.60671440533229,8.96361755184864,128.889997899532,0,78.7671440328871,125.545714974403,0.410714285714286,22.4842862997736,196.673573234252,49.1857148877212,277.872144107308,19.158143443446,24.8645596504211,15.1389765320633,19.3855829317864,23.1845893859863,19.6068392973098,18.3866491902909,15.5573578698295,15.5216169620989,22.4270968591013,23.6650002002716,25.0550478657399,28.9916256900428,32.2199997220721,32.775892872659,33.4127120673101,32.5722850436256,30.5373039641139,9.27290327318253,8.26250010728836,16.6308233901196,19.2143084718567,20.4371425083705,21.481061649701,22.4105254876566,22.8214047023228,21.5226957830965,9.38361003774443,9.71072245384455,13.0706373808512,16.1524192978687,18.3285711152213,19.12847726118,19.8345089714409,19.6705204899203,18.0563248308793,0.990449307151654,1,1,1,1,1,1,1,35.6667825,-78.492372,2018,"NCH1",7
"PB80/PHZ51","ARH2_2016",13.9,731.12121286656,0,3,225,128,66,64.5,5.78093742206693,12.265000184377,3.71212020820834,7.02228860006285,1.10500001907349,0.295568184419112,1.93128791351543,1.45469692692612,6.28083569178483,184.989997506142,73.5900011062622,50.6740907539021,233.205909837376,2.21000003814697,2.36454547535289,51.2972726388411,7.65681795640425,194.70590644533,17.7645711898804,17.2271962165833,20.1405853736324,19.8064448117891,18.8826211727027,19.79738723148,18.6944065441324,19.8885487758752,15.607143551723,21.0278125703335,25.6983334223429,24.8822470662624,27.5574788870291,33.1628784988866,33.3801704536785,32.4072806330723,33.7124844464389,31.3768475300406,8.51718754693866,14.1383333206177,13.2669300286413,16.7583488235741,22.7915153503418,23.2152275497263,22.5635331248055,22.9502423373136,22.3752492012516,8.62630812400512,12.3761800663264,11.7581879605187,14.4664485465038,19.8918990278765,20.2426308826887,19.4302420192383,20.2373530270853,18.8112695233672,0.958649555088154,1,1,1,1,1,1,1,35.838614,-90.66530155,2016,"ARH2",2
"B14A/MO17","MIH1_2017",28.25,634.58232032256,0,11,104.5,53,66,66.5,2.65129033404012,1.64250004291534,0.365195355155368,3.68588979784018,0.0229824551364832,0.46297232149101,1.74576806741443,1.92419894727902,6.21584880662018,82.1900003552437,13.1400003433228,4.41789476338186,131.667893061512,0.0689473654094495,5.87157878122832,77.4078943196096,25.1578945925361,187.919470972136,20.7548004581082,19.5261926651001,24.4742989093836,19.8905510316777,21.9433432796545,22.1206047711906,17.4790874196007,14.7643136405382,9.64132186376111,18.9967743350613,22.1187500953674,26.4465225468316,27.4969315652497,27.7329823008755,27.824925694871,25.3738691139958,24.1007104170058,20.6398986734167,5.96129034796069,11.9187499284744,11.3631864125553,16.0503932975266,16.0887717866061,14.9625505184838,12.276571042592,9.93890341042346,8.93630907537408,7.30321713873745,10.0125802625948,11.8678501821976,14.0611352118072,14.116078975745,13.7509617648401,11.6765951301922,10.5934889835682,9.14877577769738,0.770126732675711,1,1,1,1,0.999072621356021,0.94927833355258,0.816440377467249,42.68116575,-84.49434125,2017,"MIH1",2
"PHN11_PHW65_0323/LH195","IAH1_2019",26.3,691.21847061504,0,0,210,100,65,64,8.15718757361174,0.753333350022634,7.31557737378795,1.14438907355141,0.212857144219535,0.731688292769643,3.10367980083365,5.185721734979,4.91897999248289,261.030002355576,4.5200001001358,87.3064272063119,32.2664281300136,0.212857144219535,8.04857122046607,121.503570373569,46.3999997164522,147.939998852355,18.0190464556217,22.72114833196,18.5386832301204,20.8461719391544,19.2009373846508,21.9142898522414,16.4832458017069,14.2334940540468,11.0087876791229,22.3099999427795,27.5299997329712,24.5261778894118,31.4481277966288,28.6304760887509,29.4787013190133,27.1100269740106,25.007314114315,20.465771880493,10.9306250140071,14.9633332888285,14.9168448304933,20.0276676596814,18.3645236378624,16.3407141202456,15.6768667145032,13.067469943752,9.59281948388693,10.1177915198658,13.5813792925954,12.0903962382799,17.7390317751967,15.5681627046477,15.0835359367902,13.708186378737,12.1429510521349,9.38787554144245,0.87926339437919,1,1,1,1,0.994329881257634,0.928985237406225,0.79775290707702,41.1992562,-91.4941418,2019,"IAH1",5
"B73/MO17","NEH2_2015",16.1,745.92384305664,0,1.5,229,110,94,94,1.35875000804663,3.75599999427795,3.0312642160566,1.28609090161586,0.286666671435038,1.65718752741814,3.75175936234048,0.157499998807907,0.616713690613547,43.4800002574921,37.5599999427795,66.2900002598763,43.4999997615814,0.860000014305115,16.5718752741814,117.643123269081,0.944999992847443,18.9906244128942,19.5378324687481,19.9865628242493,18.8528682006309,23.6515267445892,23.2123234272003,22.7312117993832,19.6276781342462,21.6194818473998,18.2072823920237,15.038749919855,23.1520002365112,18.6692758285186,30.1456176773453,32.3751038511594,32.6086250662804,30.3648981920793,32.3132081599463,28.3144870604238,-2.42656248784624,5.23099999427795,5.26405106663817,13.5723423028142,16.5714581012726,16.1308747947216,15.9646130974384,15.5681904724666,11.1963467507293,4.19248534704874,8.47829673153606,6.89490435408322,14.3761050844018,16.560327995662,16.4700800876987,15.3434088039049,16.0526129070914,12.8317300494645,0.519497764022422,0.976535719633102,0.809891264926545,1,1,1,1,0.92202169835659,41.0514495,-100.7471915,2015,"NEH2",3
"B73/PHN82","NYH2_2016",21.3,731.12121286656,0,2,160,80,81.5,74,2.03451613264699,1.03000000119209,1.88805842038864,0.867300395588696,1.14095236573901,2.3264502044364,3.37645110879505,4.28774657460297,3.20857245139568,63.0700001120567,12.3600000143051,22.4085715952374,34.4438095036007,2.62285709381103,25.5909522488004,116.656190026374,31.7580950827826,97.8257142560823,19.2124098193261,23.3558462460836,23.4055682219574,22.1788358644049,23.9445644560314,21.2536164940178,17.188970918256,16.172458164546,13.3590641317158,14.0493548300958,18.6874999205271,27.5085128267558,26.2363372785012,28.7807143075126,29.3169266424138,28.4163855529889,26.4450086476851,23.1529754740241,1.68677417501327,4.43999998768171,12.9269903570741,12.8553450425452,13.8947619256519,15.6558873601806,16.8638179961093,13.5881803360115,10.5576226536427,4.5112983091881,6.60715549716729,12.8876567633635,12.3333042748845,13.7996271971815,14.74166699264,14.8229567266396,12.6605081320414,10.2684241420574,0.447315666670074,0.804761906110105,0.9994000377118,0.994542932132847,1,0.999880087618925,0.994843293976969,0.949842164673799,42.726117,-76.655339,2016,"NYH2",8
"F42/MO17","NYH3_2015",22.3,731.12121286656,1,0,253,131.5,78,76.5,4.26838707539343,0,1.23480362862861,3.31548590496468,3.74470586428309,3.70874331928192,2.03473858875296,2.09190753286542,2.16016066343177,132.319999337196,0,17.669999435544,111.464706651428,9.84352939345819,38.4235294566435,75.3511776310556,21.4923532237025,65.3723531067371,20.9588571671517,21.7616018295288,22.010031667843,20.4765439063008,19.3750716377707,18.8480084862939,18.0995458235427,14.2586651794525,12.1716549346147,15.2151612850928,28.4139999389648,23.9726607996166,27.9485215330969,28.2241176156437,29.0064544300345,26.8861269088758,22.6542903882269,19.0203909387172,3.20645156502724,16.0079999923706,11.6223586733296,15.6103262901363,16.7502940963296,17.7263369351147,14.8880444255661,11.6083206558939,7.35658823269703,5.34962666660979,14.3873497094372,10.9577344850549,14.1718313559719,14.6193748893675,15.4121399843839,13.3167035418842,10.3456969793581,7.70771127893227,0.504331792142534,1,0.972673749990107,0.996219796126396,1,0.995345527139322,0.95775528025916,0.812032548066487,42.7233625,-76.6555945,2015,"NYH3",1
"LH212HT/LH195","ONH2_2015",25.35,743.99306520576,0,0,287,130.5,82.5,81,1.8764516076734,4.28266668319702,1.92800543142355,1.5826126299147,10.8026474223417,1.92320858157255,3.11438839923848,4.29490191426152,2.35638896233292,58.1699998378754,64.2400002479553,23.6199996471405,57.2247065095341,21.6052948446835,21.155294397298,115.501765766565,31.5629407868666,72.1164696006214,18.9538011243266,18.7670978546143,21.1774380927546,22.4541887468383,20.0410301545087,18.4543581008911,18.4537391837158,15.8007825277989,13.3453952521331,11.1738709480532,14.384666633606,23.912001533754,26.6127938053419,30.1517652623794,27.6505346247219,26.7798692937751,25.8746404647827,20.7920556972632,2.00677422361989,5.63600003321966,13.6495024548441,15.646883458515,19.3264702628641,18.5181282879835,16.7469462265247,15.4972220963123,11.0305445628027,3.74293843582847,5.61712950522319,11.5306591381689,13.5235311876304,16.7854267763897,15.1342186639452,13.9515349469929,13.1846932018183,9.37660248979743,0.276970042748385,0.589690475094886,0.985132405558233,1,1,1,0.993019958754548,0.931831119234909,42.45408625,-81.8816065,2015,"ONH2",3
"B37/OH43","TXH1-Dry_2018",9.55,711.1698417408,0,2,221,67,70,69.5,2.44233329544465,0.878333330154419,4.91741256001052,2.91095925044977,1.11232141086033,5.98734766325737,3.09403364827696,2.44530950245403,2.57365667705529,73.2699988633394,5.26999998092651,55.2178573012352,113.372142612934,4.44928564344134,64.3635703495571,86.7278586477041,13.6771427350385,77.3578569974218,13.4988632996877,14.4915455182393,13.9248534838171,19.6618496048866,19.3908269973028,19.6418435904543,19.3841029346057,21.21373351415,18.0125832346727,19.6893333117167,26.9583333333333,25.6661437272963,26.5699684543749,30.2423808461144,29.1437299615549,31.9180543268285,33.2644761993771,34.5116055384576,6.35766667922338,15.039999961853,15.1375581486321,13.6905545931612,18.240714152654,16.4484343575537,20.6307032285911,20.5015473865327,23.9749401441184,7.6135705722337,13.4071560355566,12.8752807062941,12.7953613694417,16.3441020747261,15.0664778975255,18.2123343788981,18.7591973934278,20.4060627549583,0.821476193552925,1,0.991620594691275,0.994086429913331,1,1,1,0.999013392447937,30.546318,-96.4329965,2018,"TXH1-Dry",5
"PHG39/PHN82","ONH1_2015",36.65,730.4776202496,0,0,235,140.5,88,88.5,1.60562500171363,2.29631582059358,1.4114260910993,1.97329795371468,0.512941168803795,3.43676916784781,2.64103540530206,1.79995381645545,2.36057120934647,51.3800000548363,43.6300005912781,20.3011770318536,73.5029410351725,0.818823519875022,40.7335294695461,103.936472787577,19.5847062696429,71.148825086215,18.0216946154833,20.4737019036946,23.3400709093662,22.6454399715782,20.2406537486058,18.0725441178749,18.6044729913646,14.2275523091565,12.219208949974,9.77156253159046,12.6347369143837,23.7578119012338,26.8344168593777,29.9094126084272,27.4692824860095,26.1197207542336,22.8220175470625,18.3525084633076,-0.327500017825514,2.04526315237346,11.0134760611429,13.3191988703222,17.4331371830959,16.5032930170151,14.0677575161805,11.6957219533643,7.01371468782571,2.85121172458945,4.201400589021,10.6771310509359,12.7739998184956,15.7658975270033,14.1503260638498,12.635773860967,10.4824980569175,7.37915990096047,0.167098218209243,0.403345873929504,0.957007130525896,0.991950294097347,1,0.994472793880519,0.939113043318717,0.77236656111447,43.49741975,-80.44806025,2015,"ONH1",3
"PHW52/PHM49","DEH1_2018",19.2,737.55713903616,0,1.75,198,97.25,65.5,64.5,3.41322579499214,4.72454556551847,2.00775327918751,2.76062415391978,0.287142855780465,8.86277766454787,3.9158652312497,4.93358162276599,5.97197165156839,105.809999644756,51.9700012207031,28.2621423006058,90.3585697838238,0.861428567341396,79.7649989809309,101.102142018931,26.3792856761387,184.740002146789,18.2473833330216,20.3033478476784,18.9606146470246,21.1924231312641,20.3949074972244,18.857703663054,17.7348203831473,14.4784469860752,15.0837273726632,17.38161277771,18.2845456383445,22.0146909227081,28.1479547134017,32.2871426173619,31.6823014910259,32.0928691179815,30.4210680254463,28.7979001527192,6.70387100404309,7.41363637013869,12.8585797691042,17.9749757557002,22.0019048963274,21.3199205701313,22.7642059419863,22.2614113645489,20.2152603631745,6.82571116473102,7.36638381566628,10.3838574094334,15.2115811688111,19.1075311123214,18.4785044144811,19.3587997645324,18.3420426743588,16.5827432526275,0.7816013778959,0.839058448354919,0.98942529531986,1,1,1,1,1,38.65164475,-75.44913625,2018,"DEH1",3
"LH195/LH82","TXH1_2016",10.05,706.66469342208,0,2,182.5,66.5,69.5,69.5,1.63366669813792,16.1399999346052,0.997024219685634,4.71986560334683,0.129393938815955,3.27727272687865,13.062324570375,0.703636358001015,1.01712562139433,49.0100009441376,112.979999542236,14.5313639044762,177.354999092492,0.330909089608626,36.0499999956651,378.067267352884,3.17999996922233,30.534545768391,13.9726291974386,10.7287414414542,17.8894095128623,17.8007609349484,20.5568532076749,19.7779241435784,17.9048036307734,20.8338603973389,20.1432609317589,22.3250001589457,23.9500002179827,24.4830925562751,26.4049851333462,28.5388636011066,28.6354545482919,30.1287031897283,34.3540452523665,35.5883872279207,6.03466663161914,13.3357141358512,9.67537964446524,13.1275877936174,15.7853026679068,16.3376445415591,20.1390285305243,23.0818636243994,24.0011842107726,8.47337903343467,11.2978355051063,10.5045992024655,12.4611166479839,14.4368127893531,14.7220414816358,17.1236823819741,20.5322511435483,20.8759903806844,0.915869047670137,1,0.972225206868779,1,1,1,1,1,30.54708625,-96.43393475,2016,"TXH1",1
"F42/OH43","NEH4_2015",14.65,792.26251147776,0,2,250,120,65,54.5,2.82187503576279,0,3.66820742352442,2.01257690040973,1.95124995708466,2.65489388379184,1.68415826157898,0.190010424756578,1.16607996679602,90.3000011444092,0,33.8900003433228,59.0468759536743,1.95124995708466,28.0499994158745,59.1787505969405,1.40187505632639,35.0974998101592,18.8422000855207,27.3106449127197,20.4134253279729,20.5286281482927,19.0307229757309,18.813031223326,18.3382655918127,17.1540727261986,12.6848920344665,24.0143752396107,30.7939994812012,29.6609177177603,30.9071284124221,30.8125007152557,28.6515303485321,29.5029241370045,26.7377680846623,20.9326217885139,13.3584374412894,15.5979997634888,18.4981334997849,19.2687880079637,20.2603126764297,17.3435890080351,16.2431668454296,11.0441755558763,7.09840123026522,11.803427087215,15.4488743735817,16.1431025443756,17.0943625526438,17.5373660088698,15.1870260704456,15.2510618169068,11.8830325749214,8.61837553606536,0.931774556370718,1,1,1,1,0.972846510346512,0.98414434868665,0.784438609048873,41.16732275,-96.41663225,2015,"NEH4",2
"CG108/CGR03","MIH1_2016",15.125,723.39810146304,0,2,199.5,116.25,54.75,54,3.21387092721078,0.372000002861023,1.27766823751149,2.07214459371672,0.20476189870683,2.3826363414913,6.27786691564838,3.12959525082612,4.11573424348527,99.6299987435341,1.86000001430511,16.7785713445573,74.4033328010922,0.614285696120489,24.3414283479963,217.368091578285,23.8857143783853,123.581428226261,20.0448123255084,22.6962894439697,22.5746065354076,21.1906692752228,19.6251171808394,19.4147049585978,17.4353601100157,14.1652357247952,12.412394394877,17.7432258052211,29.2099998474121,25.5794776543011,28.1508514012466,27.2354765089731,30.3278356370472,28.2729452857857,26.6388532040611,22.5021940360482,5.29967743350613,16.3360000610352,11.9036117370239,14.7044761053872,15.7457937664456,17.5267100049304,16.2551167156484,15.5865084050104,10.8682508092492,6.61582777611151,14.8990897437943,11.6236597478117,13.829435271034,13.7090853107975,16.0158399076304,14.4864957883775,13.4826500001342,10.0912945511251,0.734400921702934,1,1,1,1,0.999987732756559,0.993265589821636,0.936590208093553,42.41206675,-84.2952625,2016,"MIH1",3
"F42/H95","NYH2_2017",17.7,731.12121286656,0,2,229,110,65,64,4.98580635363056,2.59333333704207,3.45371500532324,5.89688957038573,0.94807019150048,3.20841810925976,2.37965572681416,2.69433302149013,3.3979729822606,154.559996962547,23.3400000333786,55.2357888974641,222.98894784325,1.76315789473684,41.8126309106224,117.779474443511,23.6378949959027,104.191053542652,18.9189640937313,18.2290218141344,21.6231091311596,19.2816943373654,21.2024165956598,18.916781590673,16.9740698632348,13.8804367561403,9.43949481778822,16.549032380504,19.8011112213135,22.3488199715029,25.6546189886677,27.1610527540508,25.3148987975818,23.2880304669988,24.2514658183566,18.2446084072576,5.23967740420372,10.2422222031487,10.5593938701109,15.2177031552253,15.8735966682434,14.8450433481215,11.5614248973978,11.1539849421825,7.35242725274508,6.26789810278045,8.57074783107705,9.79388514165009,12.8009794426063,13.6890467322532,12.4613839915646,10.5515557799113,10.876639235376,7.68889693415974,0.638917053418775,1,1,1,1,0.981507474576186,0.966916282342149,0.722284214210263,42.73248125,-76.65275025,2017,"NYH2",2
"TX777/LH195","NCH1_2015",17.25,731.12121286656,0,0,242.5,122.5,65,64,3.01406249962747,9.69285692487444,3.04330832410036,7.00027835031834,0,3.41134798604678,2.88671641131125,10.3153333224502,6.56176467005171,96.4499999880791,67.8499984741211,47.4647058125804,233.853526101393,0,30.1217642391429,80.4405882078059,53.9476469544803,203.414704771603,18.5664188563824,18.5514960970197,20.3873328310438,17.1836904295842,24.3925100214341,21.0362960372875,20.3018930406527,17.2717840606091,15.5850313791061,22.3831250071526,24.9499999455043,23.1803462918337,27.4024498932643,31.8211766411276,31.7674348182928,33.3084592700098,33.2296859142827,31.1603984543223,8.59218750149012,12.5099998201643,10.485350050131,18.4028683148743,19.9205883250517,21.4626141077553,22.3400113714156,22.6128236359241,21.9246869403904,9.28512769721026,11.4677352876307,10.1580144688938,14.9923900224101,17.8708824830897,18.6065247653655,19.7182694534911,19.8442286940319,18.5353187927943,0.955334819055029,1,0.995809597891475,1,1,1,1,1,35.29657708,-77.5664625,2015,"NCH1",2
"LH198/PHZ51","MNH1_2015",16.15,750.42899137536,0,2,255,135,78.5,75.5,2.67645166525918,6.10285712991442,1.58721610445111,4.7077263256623,2.09382353109472,4.68577535931227,5.9350156688025,2.22326150676053,2.19878814463244,82.9700016230345,42.7199999094009,19.590000131551,155.007059007883,3.96529412269592,52.2323524741565,227.094708481256,20.9011769756017,67.401177584358,19.816934616335,15.8754692077637,21.6281845751118,20.6523619261065,17.2143456515144,21.1212332316686,17.7408483022691,14.5374503953005,12.0629753461599,17.4338709308255,22.6300002506801,27.2892179925706,28.4642367103754,28.3652941759895,28.0789971632116,26.1408952283773,24.7325950747879,17.9009570518097,4.56741930688581,13.7342856270926,14.30007362468,16.8971689663296,18.654117640327,16.1974599531415,14.7564351113732,13.5728072906729,6.63464769243789,6.28381609962703,10.8743797711898,13.2690560805916,14.8702380832727,15.6411451436446,14.3539204313244,12.9900637188381,12.4683668720892,7.55733067966644,0.72298386648366,1,1,1,1,0.97770300313998,0.878626049359361,0.7212296457923,44.07038575,-93.53519625,2015,"MNH1",4
"B73/PHN82","NEH4_2017",15.2,791.6189188608,5,3,144.5,63.5,65,64,4.59032254834329,9.02400010824204,0.479867887087711,3.81196387431756,0.538484847906864,1.68492423765587,2.26785004737447,4.65714278971994,3.86350145999521,142.299998998642,90.2400010824204,5.1100001335144,117.465453971516,1.61545454372059,15.1345454129306,79.631816983223,32.5999995280396,117.425454340198,19.4391373357465,17.2153170108795,24.1724838998111,20.9591997537085,19.5087172190348,19.2150816303311,18.9073912886805,17.6974393903435,15.3998570417962,20.6222579863764,19.5259998321533,28.5942012750084,30.0674228663154,31.2254544460412,32.427121184089,28.6164972680056,28.4793340540552,26.8324867737025,7.51935482409693,9.5090000629425,13.5708453749115,16.7542414705589,19.4418183529016,20.4097727645527,17.1637547198432,15.7475164269472,13.7100762172769,8.50655754019973,8.45038905221992,13.6268597566258,15.5881735310777,17.3431474848323,18.3684917818816,14.9784288099449,14.344579744287,12.8768287854953,0.797626728973081,0.881249991485051,1,1,1,1,1,0.994264068992333,41.162,-96.409,2017,"NEH4",9
"TX714/PHZ51","ARH1_2016",17.8,781.32143698944,0,1.5,231,114,72.5,71.5,12.6265622600913,6.05222214592828,7.85959392181908,4.41103236837171,3.76999992132187,0.095833331948579,1.83491350889616,2.95036352764476,2.93171556272115,404.049992322922,54.4699993133545,101.143181920052,160.496816039085,7.53999984264374,0.824999988079071,46.8663639642976,14.7518176382238,90.8831824443557,16.4075767695904,14.4028924306234,17.4133262481418,19.3139989097208,17.4816541382761,22.1591818079804,19.7781726024698,18.2520895112645,17.225964043497,20.37124979496,20.0866667429606,25.2525350665633,26.3044541539922,29.5068177887888,32.2701959152414,33.2207471683232,33.1760686831041,32.7599998597176,8.5396875902079,10.0499999258253,14.8465505392494,15.675688928556,20.1031818389893,20.9033523737782,23.0132003928172,23.4658411589536,23.3566423203589,8.37657913218764,8.62389009177744,12.4075180997134,13.3856810078906,16.804999813889,18.5700508727667,20.093843133889,20.2460302688536,19.8980815100491,0.93219865730498,0.999841266208225,1,1,1,1,1,1,34.72952,-90.7603555,2016,"ARH1",1
"LH212HT/LH195","COH1_2017",17.7,731.12121286656,0,2,229,110,65,64,3.39312494290061,0,0.00170868351345971,0.360843908083864,0.891428553868854,3.56038209699924,1.42287894970366,1.56567067457265,1.77087045139264,108.57999817282,0,0.029047619728815,12.2947617719571,1.60047616277422,43.7852383255959,56.4828571748166,21.0252381148083,53.2028570139692,22.2680299282074,25.656948362078,25.993106298919,24.2875628049184,21.2698285844591,19.3765266793928,19.6563178718538,15.9259101156787,11.9913693493718,20.3862498551607,26.2785715375628,29.0099024905478,30.9575008483351,32.8439676496718,29.2459773876014,27.8707551629923,24.4981203104176,17.6400496374322,4.67625003145076,9.95571436200823,11.4416630470283,13.3349225420512,15.6419047401065,14.2894836037956,11.5599296846894,8.65086998417367,2.50572452632776,7.38781388850004,11.2215251258146,12.9782738928515,14.5313666366823,16.2303242626942,14.1158650824494,12.5801561869845,10.4056817622244,6.00700011612576,0.85979910066817,1,1,1,1,0.978368119236658,0.88222033244958,0.65364973214317,40.64850025,-104.9997825,2017,"COH1",4
"B14A/H95","MNH1_2018",20.4742857142857,716.042757269211,0,2,252.571428571429,122.142857142857,64.5714285714286,62.5714285714286,2.7938710316535,5.66428569384984,1.88138350844846,4.66962568011348,0.280777778890398,5.314848416261,5.50309775567603,4.90259317369494,1.74449034129874,86.6100019812584,39.6499998569489,19.6633331219355,156.026667060455,0.653333338101705,61.1846658706665,207.324669293563,42.5680015007655,52.6160005594293,18.6861717470231,18.6483766010829,23.2219031340296,20.2349813747085,21.884095509847,21.2045387879767,17.4384910052928,14.0280589904444,11.4776368163264,18.2458064786849,23.5114288330078,30.4956820770299,28.4029569689886,27.6728887134128,27.8828838203893,26.244249248564,23.4899370002514,17.2954946981698,6.62290317012418,13.3528570447649,16.1020055964721,17.0711162868408,16.2537779596117,15.7901464996916,14.8351560856314,12.4297014384783,6.3474709751724,7.12789266978397,11.1508268377611,15.4213678280709,14.9171949913789,14.1582048951777,14.1049189391121,13.0806653562654,11.2032413303021,7.12656051864639,0.79756912012254,1,1,1,1,0.978734696021031,0.910102722236681,0.699884152136365,44.07044721,-93.53494127,2018,"MNH1",4
"PHW52/PHM49","IAH4_2017",20.175,716.96217529344,0,2,229,110,65,64,3.05419361206793,4.63857133047921,5.65428284440315,2.35614602206887,0.14500000260093,0.823262633699359,3.0299399841441,2.50648539721385,3.02203274721158,94.6800019741058,32.4699993133545,92.5500001907349,79.8100001811981,0.29000000520186,7.93136371265758,110.043181820349,17.6581818705255,91.7922727492723,19.6043462753296,22.3785518918719,18.8162880805234,21.4694011437152,22.4233230460774,21.2695237410189,19.151369503563,15.9420575880557,15.341385783443,17.8393548227126,25.2142854418073,21.7675578492375,28.8834045222006,30.8898489258506,30.9933841088806,28.3060990673118,26.2662246385522,25.9343880588008,4.95258065529408,10.1399999346052,10.2470841328658,15.0215020746586,17.4712879585497,18.0760807755018,15.8066246452854,13.8702660153955,12.5135465144736,6.57524394811711,10.823012742074,9.64996062135486,14.3656457039619,16.2281010402398,16.5739815495123,14.3659785216558,12.5754656563723,12.0621406847053,0.727396317478698,1,0.91008219867215,1,1,1,1,0.9871688305106,41.99455432,-93.69030947,2017,"IAH4",4
"B73/PHM49","TXH1_2015",11.45,752.35976922624,0,2,189,95,70,70,2.43533335079749,0.886666695276896,4.52938673555072,2.99221044445753,0,5.40749995274977,3.23624041097661,4.52841665893793,2.20566666349769,73.0600005239248,5.32000017166138,54.1699997186661,113.789999812841,0,59.4824994802475,89.1124981939793,24.5449999645352,66.1699999049306,13.3812851905823,15.8030840555827,13.7374967764585,19.4828948425706,22.4659889936447,19.9646397883242,19.5484858334502,19.5703149755796,18.0313507497311,19.6199999491374,26.2683331171672,25.848902795857,26.4780255046089,30.3717709779739,28.7953975634141,31.9014051962311,33.4807082811991,34.3551666140556,6.12233337461948,12.7449999650319,15.3915533218787,13.6943906096253,15.8338542282581,15.9580683003772,20.411723735246,21.4527084350586,23.9322083592415,7.516768443821,12.2822135372146,13.060308889571,12.755099602335,15.355928811491,14.6742697351608,18.1104056886089,19.3060311124189,20.3777584063178,0.822428569446007,1,0.992325396748542,0.994092814847258,1,1,1,0.999431249499321,30.54708625,-96.43393475,2015,"TXH1",3
"CG108/CGR03","GAH2_2017",13.9,441.50453523456,28,2,198.5,111.5,50,51,5.21580650729518,2.5900000504085,0.877047008250183,6.97642455518673,36.6657152743567,11.6899047257408,2.7666341943209,6.71771433921087,5.23728113098445,161.690001726151,18.1300003528595,10.9880953289214,219.498574256897,69.630001999083,116.642856779553,77.5566674754733,33.5885716960544,162.355715060518,18.5937584292504,20.9798694338117,21.9819358919917,18.5456761912278,14.3399090085711,17.7663424007476,19.7852386843795,18.8635498507493,17.5761632626324,25.9351613444667,24.1757144927979,30.4733941834677,29.3125237180294,29.5290477389381,29.7298041853324,32.7260150193597,32.1051154233971,30.7678495222522,12.1722579925291,9.93857138497489,16.1532482752429,18.0635315609615,20.4347616377331,19.5111429658516,21.2099278742435,20.8635237298044,19.9554377788772,11.9095461609865,10.3853811467122,15.4565539701251,15.7524985099092,16.9819046883356,16.6341283702326,18.9016913140486,18.4715566451785,17.4124163797098,0.999631334559709,0.985714284741149,1,1,1,1,1,1,33.727145,-83.29821525,2017,"GAH2",4
"TX951/LH195","WIH1_2015",47.7,762.01365848064,0,0,285.5,179,65,64,4.73000005912036,9.05999978383382,2.43061068168386,6.19005986556151,3.24281251430511,1.73931090915814,2.56322206766969,2.5826045268506,2.06486223506671,151.360001891851,54.3599987030029,32.300625488162,198.088750079274,6.48562502861023,21.1143751442432,113.252501126379,35.4293755665421,62.4800001233816,19.3236754387617,22.1910498936971,23.8972514964953,19.0410510068734,21.6280432442824,20.7255365879108,16.0925579709474,13.722787601418,9.59556191513936,19.9571875482798,28.1500002543132,26.0532609907049,28.8593200589564,29.0738543669383,26.5105607723578,24.8273939882814,20.1808902607393,14.5154980836536,8.51718754309695,15.3049998283386,11.8280294384883,17.4878351835719,16.4801037510236,14.4961537795189,12.3150913731169,8.58194562556843,2.68044018258631,8.55835087322049,13.98301753897,11.81015597229,15.2618382755968,14.9558189846116,12.9875354191,11.6812346906955,8.628108427747,5.08755073101082,0.777276777234095,1,1,1,1,0.929186389078322,0.833919484023419,0.505939954463764,43.05511725,-89.528525,2015,"WIH1",2
"CG119/CG108","IAH1_2020",12.3833333333333,731.12121286656,0.666666666666667,3,229,110,65,64,1.68806450597702,6.19600019454956,3.07937370009497,6.53305792599394,1.27142855099269,2.67326977555714,1.85421064008438,0.708456623919156,3.75561601346081,52.3299996852875,61.9600019454956,37.2349991798401,213.622142757688,2.19857137543815,25.9085708005088,60.1178565110479,6.01214278170041,115.372858315706,19.46953176683,15.0466018676758,20.6424708637148,20.3159834913117,21.992077418736,21.0955225202772,19.7297913964658,19.804555562767,15.1169259092225,15.8729031931969,18.7070004463196,25.7217689451961,28.5067430861476,31.9299994877407,30.8792140748766,28.6114739112471,29.3732770515948,24.6307950130622,3.3483870948755,9.75300015211105,14.6592933360598,17.3863334611218,19.8571428571429,19.2884919363355,17.2726116483618,15.4681903785589,11.8318310619754,5.55848579964145,8.12545645677116,12.6575733793141,15.0980196558132,17.8935711724418,17.0907883427003,15.1212185598445,14.7539709043416,11.4769448256727,0.621440085247674,0.927035726393972,1,1,1,0.99851414246496,0.992713008729779,0.918334154475424,41.19774214,-91.48767072,2020,"IAH1",2
"B37/H95","NEH4_2015",14.8,792.90610409472,0,2,265,130,65,58,2.82187503576279,0,3.66820742352442,2.01257690040973,1.95124995708466,2.65489388379184,1.68415826157898,0.190010424756578,1.16607996679602,90.3000011444092,0,33.8900003433228,59.0468759536743,1.95124995708466,28.0499994158745,59.1787505969405,1.40187505632639,35.0974998101592,18.8422000855207,27.3106449127197,20.4134253279729,20.5286281482927,19.0307229757309,18.813031223326,18.3382655918127,17.1540727261986,12.6848920344665,24.0143752396107,30.7939994812012,29.6609177177603,30.9071284124221,30.8125007152557,28.6515303485321,29.5029241370045,26.7377680846623,20.9326217885139,13.3584374412894,15.5979997634888,18.4981334997849,19.2687880079637,20.2603126764297,17.3435890080351,16.2431668454296,11.0441755558763,7.09840123026522,11.803427087215,15.4488743735817,16.1431025443756,17.0943625526438,17.5373660088698,15.1870260704456,15.2510618169068,11.8830325749214,8.61837553606536,0.931774556370718,1,1,1,1,0.972846510346512,0.98414434868665,0.784438609048873,41.16732275,-96.41663225,2015,"NEH4",7
"F42/H95","ARH1_2017",12.9,681.56458136064,0,2,182.9,97.8,68,65,3.05812502466142,3.53285707746233,9.87168867799627,6.40516052792204,0.516363615339453,5.98817166776368,5.1192324932667,3.10231815251437,5.34158355959,97.8600007891655,24.7299995422363,132.032728541981,211.621818423271,0.569545431570573,54.3681813803586,136.891365343874,16.0827271288091,165.58909034729,17.1397498100996,16.5534388678415,20.3842401109389,18.762255266809,22.8136479348847,19.0696450768095,19.5355347466332,19.7719311078389,17.1297293478443,24.6090626120567,23.9600004468645,24.7705700575015,28.0660565234123,30.3546969095866,31.5146664012562,31.305776363096,32.7845913251241,30.9158799263739,11.9174999967217,14.1785715648106,11.8445801043321,17.6085024623292,18.9724999485594,21.3061564166136,21.3997927531552,22.5053331635215,21.6223753764133,11.1639708952952,11.7757805455927,11.2265518633486,14.9753735417966,16.7435951634837,18.4104114089349,18.3304942572969,19.547681258962,18.2245760771495,1,1,1,1,1,1,1,1,34.7272515,-90.76032575,2017,"ARH1",3
"2369/LH123HT","NCH1_2020",17.85,687.35691491328,6,0,237.8125,112.5,65,64,3.81125003128545,6.58374977111816,1.87015070111794,7.59338454735375,0.884285699753534,2.63668646698906,3.33071338060501,6.12114287103925,7.32343316943415,121.960001001135,52.6699981689453,29.2835704556533,255.940713865416,2.6528570992606,23.4857139246804,94.0314286180905,30.3285714898791,227.026428252459,17.7931001186371,18.2030313014984,21.9031161387958,16.624104256889,22.7344187781924,20.9765385862381,20.5430953276098,18.1598880904061,15.6514139856611,21.6678124964237,23.2199997901917,23.3487043310554,27.0496421427954,28.21738079616,30.9563497626592,33.0704321677563,33.2972858973912,31.2465668471727,8.08281250484288,11.5312500596046,9.51933213031121,18.0966886080901,18.1914290927705,20.5856052201892,22.1124512970464,22.8580000468663,21.9105529499493,8.88590596036503,10.345445976376,9.896418392683,14.6940439801602,15.2496249982652,17.7688184726376,19.5031272394627,19.9903569790644,18.562087597318,0.935200902566846,1,0.995619772597503,1,1,1,1,1,35.30009892,-77.57131746,2020,"NCH1",3
"B37/MO17","MOH1_2_2018",18.0333333333333,731.12121286656,0,2,237.333333333333,116.666666666667,62,61,4.41903226221761,0.120000000510897,6.56660791995818,4.99591372633306,0,0.865952385796441,4.86790862322567,7.31814540619296,3.6292411527306,136.990000128746,0.840000003576279,71.6014266695295,150.62857072694,0,7.79357147216797,145.615713886518,39.8592857306025,112.015713835268,18.3939577687171,18.4656530107771,20.1607480990468,20.7059322149744,19.8732600893293,21.9774913485088,18.0698285783682,17.4646894327232,16.3191407620449,19.5254839005009,22.7671429770333,27.1655427269033,29.6093682189896,31.6271427018302,32.3242057770018,29.5162818466631,29.853759335174,27.0484316483804,7.99741943036356,14.1471428189959,16.4373297396251,18.8117261232584,21.7996424947466,20.7100794050429,19.443161886798,19.2115569948339,15.9181414362839,7.99298649242084,11.1555315984476,14.0053567257346,16.2635961901413,18.7133925982884,18.5171425910223,16.5469966366495,16.6004405943066,13.8667043099972,0.872361757925578,1,1,1,1,1,1,0.995607143802708,38.89555425,-92.20964575,2018,"MOH1",3
"B37/OH43","WIH2_2015",42.5,756.86491754496,0,0,263,140,65,64,3.12677418801092,2.65500004092852,4.10360587788369,5.33606725073504,1.86882352828979,3.14284756646862,3.06635871261474,6.46327216547577,3.42627895726651,96.9299998283386,15.9300002455711,53.5811765053693,186.069413493661,5.43588234396542,36.0370585217195,132.474706411362,52.801177333383,103.499412364819,19.6364621193178,20.5731145540873,21.5892617017256,21.0711117653476,18.3630023844102,19.2051703551661,18.5458357222424,13.68038167737,11.3747629179222,15.6409677997712,24.9766667683919,26.1182311514896,28.0952907748788,27.5158822676715,27.9129860396904,26.446906195709,23.9533144307555,17.6364554289999,3.35580646607184,13.6266668637594,13.8892249418098,15.1778817355709,17.2276475008796,16.9294609080024,13.7343451854096,12.6373390166389,6.34391337544442,5.37086055393058,11.9313890592981,12.6525642606911,14.0429022055175,14.4358603312718,14.5758898439564,12.7664601406529,11.4948295633928,7.02316371690367,0.588214291611575,1,1,1,1,0.979783321564246,0.914260834660243,0.715230077160589,43.3264485,-89.33359975,2015,"WIH2",6
"PHP02/PHB47","IAH4_2015",16.1,720.8237309952,12,17,241,119,65,64,1.42451612026461,4.85461551409501,2.51366814388176,6.35112741860021,5.46999979019165,2.15468744138877,1.85099418012837,0.335758933997048,4.06477020181796,44.1599997282028,63.1100016832352,35.58999979496,218.239999890327,10.9399995803833,20.3081244528294,58.4868740737438,2.37750003859401,125.114376250654,19.8399788794979,19.2877280528729,16.0227039780687,20.6982291705844,17.2771818637848,21.3583117332723,20.173035647804,19.5936077237129,15.6142427020175,15.8303226194074,16.787692290086,22.2616416304594,27.8872542261576,29.3799998760223,31.527847079436,28.6989534201586,30.1840446931975,25.4683327571038,2.47354838888972,5.02461542532994,13.4828078946313,16.5986873437933,20.3737498521805,19.7862846771876,17.3729821147223,16.8951585807971,12.6851404789395,5.3186939130858,6.22884723842383,10.7829124536012,14.4752906425735,16.8768748641014,17.6605473898843,15.1814165620107,15.7121042559737,12.0590735738697,0.585391697096145,0.659230776868024,0.989944130014561,1,1,1,1,0.952600636395888,41.19970961,-91.49362406,2015,"IAH4",3
"PHG39/PHN82","ONH1_2016",31.25,657.10806191616,0,2,203,120.5,87,84.5,1.97903224729723,2.10571429133415,0.921813660111247,1.4397382865638,4.72083331843217,2.43543939581423,4.62931562992959,1.31185226971093,2.04330374064945,61.349999666214,29.4800000786781,13.3160000681877,60.2840000450611,10.9924999892712,28.5415000140667,172.047501341999,11.3764998450875,61.3804993152618,20.2488387169376,21.5672763415745,23.7736534890274,22.4114230831704,19.3081846952438,20.6147360729449,17.1281369087258,15.3153421936676,11.6349498992261,10.4929032143085,16.4799998828343,25.0156145674307,25.5146692195041,28.2251669565837,27.9941591414538,27.3135614713641,24.4901795066248,20.388601503087,-0.735806467131742,3.75357140520854,10.9305092215939,11.6118469940074,15.5532501856486,14.7177574468381,15.072441088201,12.7162050899814,9.18578765883922,3.26930641138453,5.68876848413294,11.0920976145976,11.5617585881532,14.221610104509,13.7639954370179,13.5764243452927,11.5133866018644,8.77689949507841,0.291105987941889,0.684668366749752,0.998913789733904,0.988093962379835,1,0.998165816322577,0.971212583726985,0.877977400556158,43.4997965,-80.451125,2016,"ONH1",4
"CG108/CGR03","NCH1_2016",15.6,731.12121286656,0,6,195,113,65,64,2.90156245231628,3.1257141658238,7.13790793537677,4.68303443912438,4.31772709976543,0.863030289158677,5.22628340706996,5.10418182503093,4.50766866787438,92.8499984741211,21.8799991607666,91.8631831515919,160.77363422513,8.49772692810405,8.49545440890572,139.931818181818,26.1277273243124,139.737728704106,16.3685781806707,22.2713846479143,15.4949862283056,18.7284907802807,21.8793197978627,21.8664798996665,18.529991999807,18.05675721891,17.3265616131668,20.861250013113,25.5857140677316,25.6894626938102,27.1054564010764,30.2031816569242,31.055969704522,32.4242385211894,33.5976670091802,33.2603517739304,7.69218749413267,8.21285721233913,14.2700391136405,16.0730002825544,18.0268178419633,18.8016968052797,21.2796372022056,22.6219093149359,22.7218181954101,8.38342182115148,10.4398532157701,12.4646866942302,13.955992978898,16.1716004230384,16.9972748117641,18.8316059181804,19.9805669981395,19.8669778055321,0.913761163346602,1,1,1,1,1,1,1,35.30015175,-77.57127825,2016,"NCH1",5
"F42/MO17","WIH2_2018",28.825,724.8461848512,6.625,2,268.5,138.5,69.125,68.25,3.14419357238277,1.76857142789023,3.7850711937244,5.16484622721252,1.71595238503956,3.40222404942368,3.04494882245682,9.61559933750402,3.37177261638065,97.470000743866,12.3799999952316,46.2814290182931,179.869998318808,4.56071427890233,37.7064288343702,131.482145317963,73.4771447862898,101.717141609107,19.2573341092756,21.1210829871041,21.4752587688556,21.2745392970238,18.3171726181394,18.5302155637122,18.6607088369069,13.625803150659,11.3718547526592,15.5287096115851,24.665714263916,26.0917028350164,28.2348686412978,27.8659524917603,27.6583875546724,26.7064113625472,24.9215236168329,17.9686743887339,3.195161296956,12.9500000817435,13.8890289352891,15.1338539459878,17.4050001189822,17.0648214997667,13.7709706188762,13.5657747038241,6.88716511658397,5.28984108241052,11.5719513224068,12.6458491000419,14.0894685781005,14.7169908688233,14.5010708096508,12.893566291538,12.2339728232487,7.2792037808306,0.580092163387394,1,1,1,1,0.981419112725804,0.932006969360863,0.738663650155215,43.38075,-89.38645,2018,"WIH2",2
"W10004_0216/PHZ51","ARH2_2016",13.45,731.12121286656,3,2,229,120.5,64.5,63.5,5.78093742206693,12.265000184377,3.71212020820834,7.02228860006285,1.10500001907349,0.295568184419112,1.93128791351543,1.45469692692612,6.28083569178483,184.989997506142,73.5900011062622,50.6740907539021,233.205909837376,2.21000003814697,2.36454547535289,51.2972726388411,7.65681795640425,194.70590644533,17.7645711898804,17.2271962165833,20.1405853736324,19.8064448117891,18.8826211727027,19.79738723148,18.6944065441324,19.8885487758752,15.607143551723,21.0278125703335,25.6983334223429,24.8822470662624,27.5574788870291,33.1628784988866,33.3801704536785,32.4072806330723,33.7124844464389,31.3768475300406,8.51718754693866,14.1383333206177,13.2669300286413,16.7583488235741,22.7915153503418,23.2152275497263,22.5635331248055,22.9502423373136,22.3752492012516,8.62630812400512,12.3761800663264,11.7581879605187,14.4664485465038,19.8918990278765,20.2426308826887,19.4302420192383,20.2373530270853,18.8112695233672,0.958649555088154,1,1,1,1,1,1,1,35.838614,-90.66530155,2016,"ARH2",4
"B73/PHM49","INH1_2015",15.3,719.53654576128,0,5,222.5,102,68.5,68.5,2.9680645350487,5.60875007510185,2.40179747847063,2.62059657947358,1.04906250536442,3.0483124434948,3.45413084403517,1.33253348086561,1.48437097516432,92.0100005865097,44.8700006008148,26.4431248307228,85.124374628067,1.71562501788139,30.483124434948,116.572499513626,9.31624999642372,45.6806252300739,19.4460865605262,13.5904663801193,21.8831559274163,21.6568943925879,20.6013035774231,19.7332655191422,18.7756038139106,17.9973838829568,15.6492746342254,15.6758063224054,21.0562500953674,27.4439682904935,29.5244933150031,32.6678117513657,30.1698124170303,28.1731758635525,28.469341514366,25.5406298018271,3.00451613914582,13.0524997711182,15.2206834324312,16.622144823273,19.5684375762939,18.0281877398491,16.7148970596921,16.4656363842743,12.5684752128738,5.36093065777599,9.9438759002861,13.7258189969439,15.2669641421753,18.1181246638298,16.1828720954291,14.6381021415267,14.6766784889395,11.9590249739617,0.609504607106958,1,1,1,1,1,1,0.986081101217618,40.477075,-87.000205,2015,"INH1",4
"B14A/MO17","SCH1_2018",11.965,731.12121286656,1.5,2,192.5,90,63.5,64,5.50937507301569,3.37250000238419,5.77532792752829,7.72812766098977,4.71095229046685,3.13060314183971,3.12348515829066,2.01328565960839,5.79306446956599,176.300002336502,26.9800000190735,97.6099995204381,245.673573059695,5.41571421282632,31.8442854029792,83.9342848232814,10.5378568683352,179.584998556546,18.6477236524224,19.2869287729263,21.173054595667,18.1631813069703,18.8474233264015,19.2548603041347,19.9945130026415,19.3178334372384,16.3013944175386,22.5390624701977,22.5337498188019,23.0902047939223,27.6187004518251,28.0654765991938,28.9085680901058,32.584791315526,33.4833329836528,31.116866401813,9.30156246945262,9.31125009059906,8.76240008069966,17.5066534747267,16.7615474973406,18.3829589417142,21.2079791456952,21.6712853658767,20.8076727291406,9.59119125294698,9.40007484305004,9.57450522783795,14.7679377529716,14.5196225818089,15.7238139666896,18.8616965293534,19.451053178185,17.9628857433375,0.951841517750706,1,0.982626498534951,0.991514694994028,1,1,1,1,34.6223015,-82.7364835,2018,"SCH1",3
"B14A/H95","ILH1_2016",14.9,866.27566242816,0,2,247.5,126.5,74.5,71.5,2.97690523692196,4.38840902691538,2.26653606655233,5.61207630954248,2.38484847184383,3.5965513070917,3.31235071929027,4.35749997459836,4.79379031928375,93.7199998497963,46.3549993336201,33.4606812819839,180.417726646093,4.62886360558597,41.7338635867292,104.141365719112,28.3243180147626,148.202045347203,18.8248824135911,16.772414523905,21.3206123477011,20.186536070862,20.742345383673,18.0798104173881,18.8666988996862,17.8581825314146,16.0768072129811,18.0508114395122,19.2020452456041,23.0422996986406,29.4229266243166,27.9030872836257,26.9731781198959,29.6021857332558,29.1593882944677,28.1759287739546,4.96004029539143,8.5312726020813,10.4507586023432,17.100495052534,15.9971779440389,16.8488147764823,19.4105485847029,18.8438310752183,17.0974068698762,6.7812351246955,7.96926780707668,10.1711916616246,15.4161417086623,14.2957979847463,14.1538489170388,16.5199597663553,16.0495125310087,14.8445893652738,0.666766271376172,0.897956158588459,0.946860721270467,1,1,1,1,0.999883116813965,40.0607245,-88.2338815,2016,"ILH1",5
"B14A/H95","OHH1_2018",20.4,729.83402763264,0,1.5,254,128.5,60.5,59.5,3.05677417785891,9.53750013560057,1.92245215695217,2.38556595674907,3.34214272669383,1.85442859956196,3.625787621808,3.10084683870783,2.00779800139905,94.7599995136261,76.3000010848045,21.7371432781219,80.4378575512341,3.34214272669383,18.5442859956196,121.764999406678,22.1535707201277,61.2907142341137,19.310954493861,14.6463572382927,20.7288559556382,20.9436693086695,19.275929587228,20.9564931665148,17.9981189438048,17.3717627612912,15.4204415030835,15.3341935065485,20.995000243187,26.650364354716,28.8199439363947,32.4107134682792,30.6609286444528,28.5308584151124,26.9473060413283,24.7343572410021,3.37612902667494,12.1462498903275,14.5593152200455,16.5731625301721,19.4942854472569,18.4749998637608,17.2472012352467,15.0398061766916,12.0534739418937,5.3571231101772,9.83224651797613,13.1348515939824,14.9051591007559,17.954011606361,16.5994179287508,15.0382231225639,13.3955586126324,11.4851366506539,0.534285711641702,0.92678571173123,1,1,1,1,0.999125000043791,0.970735544446526,39.85688825,-83.671225,2018,"OHH1",6
"F42/H95","NYH1_2019",21.4,720.18013837824,2.5,1.5,230.8333333,116.33333335,63.5,64.5,3.74249998852611,3.13750004023314,5.75382418421519,3.19318469405372,5.05499997505775,4.67964498742798,3.14173431505368,2.11561926224602,4.09564599909039,119.759999632835,25.1000003218651,83.0561534670683,110.787691554198,10.5969229478102,60.8353848365637,169.678460007677,49.6684614184957,126.198460106666,19.3120462298393,22.906525015831,19.4055643197987,20.0954846191366,19.5441625057123,18.4327194563736,14.7868750412398,11.8266811133142,8.21836269058601,18.6993749439716,22.8587503433228,22.9010546045212,27.5168322059324,28.2501282325158,26.2428401066707,22.0298851708133,19.800822747137,11.0057352093984,7.84562503546476,10.0637499690056,12.2881303876188,16.102631765372,16.0733334345695,14.3993490828565,10.6740678622988,8.35750533580157,1.63569085205791,7.63952840037155,9.77521380841136,10.4905594472129,14.0585405915596,14.3930059612616,12.7382854892206,9.76289549498727,8.6764710214225,3.98046667720391,0.838560268548982,0.991875007748604,1,1,1,0.934962265626692,0.800347461722585,0.399612351739001,42.7288875,-76.65152084,2019,"NYH1",4
"PHW52/PHN82","DEH1_2020",23.6375,678.34661827584,0,0.25,225.75,101.75,63.625,63,3.88483868875811,2.91874992847443,0.484801505503061,3.71268255549857,3.96392849513463,10.5487894544762,3.68050884933542,4.08975176026626,5.319973187453,120.429999351501,23.3499994277954,5.74999997019768,113.1935703797,6.56571415492467,94.9292836615017,102.593572867768,23.166428906577,164.612859283175,19.3438995884311,17.33862388134,21.2312624647651,20.3726220481303,20.8446989627112,18.1338016267807,16.8296419143509,15.5006431469301,15.1408180300907,17.434838879493,21.1624999046326,25.0214381114927,29.0102466521478,32.2544050670805,31.3041766938709,31.9504815386958,29.3682823985612,28.2151496441866,6.79290319402372,12.8525000810623,15.4018443361914,18.8679049092236,21.2860713232131,21.9305357119394,22.8433926389509,21.0652513572148,19.3078685858649,6.86665098039301,10.0448246591535,12.6407234275317,16.020283469814,18.7216176458005,18.6039745498917,19.328040061196,17.2231380052054,15.9100314441845,0.793629040417995,0.982098209006446,1,1,1,1,1,1,38.628981,-75.46566025,2020,"DEH1",2
"PHW52/PHM49","MOH1_2_2020",17.24,731.12121286656,0,0.2,227.6,101,57.2,55.4,2.76562495436519,8.11999974250793,10.2353328673319,1.9001973638123,6.86294118095847,7.49632206065132,3.61617107977626,2.90162677764285,3.30378619704459,88.4999985396862,40.5999987125397,96.124117121977,56.3941176358391,8.45588235294118,68.0111766142004,117.808234836797,21.5270588468103,101.327058393289,18.7546628713608,21.2521137237549,22.5899971099444,20.2861716619134,20.6427094328637,17.4883495144949,18.1590292123562,17.201188402901,14.6933516897784,22.1865625679493,30.7699993133545,28.8488290507166,30.7433971374194,30.905587869532,31.2308437009688,28.7478064862917,29.2169789190295,24.1743630282567,12.2309375330806,19.2180004119873,17.3051670261327,20.0610583041747,19.70343170914,21.5044441925792,18.1515339525016,17.4034669344519,12.7162555993923,10.4179893534471,16.9939998626709,15.181783668694,17.4222706430064,17.304509789336,18.3742967355387,15.5665539026577,15.5350905066488,11.4110544222645,0.936383935755917,1,1,1,1,1,0.996694042174483,0.965786214348013,38.8958275,-92.2071575,2020,"MOH1",5
"PHN11_OH43_0001/PHB47","NCH1_2017",14.85,731.12121286656,0,1.5,187.5,67,65,64,5.92935477918194,4.0971428326198,0.297958701828474,3.8605887218635,6.67380964188349,5.43709003925323,2.5136726855367,1.67758050992105,4.1404608350745,183.80999815464,28.6799998283386,4.0233332543146,115.819522829283,10.9095240093413,51.8457151651382,65.1576194422586,9.6885714899926,128.354285887309,16.8479611796717,19.660787991115,22.200774141109,19.2039608935909,15.7724910842048,20.5483989412822,18.7994722996277,19.2660637939868,16.4083516821151,26.0700000639885,23.5785715920585,28.1701127560743,29.7261436573129,31.0140472896515,30.4881481291756,32.5472167507523,31.9569590380403,30.4313824649231,13.6406452425065,11.251428263528,15.697578023226,18.8753639802544,22.5767457295978,19.8479362164856,22.2803962481536,21.2748593008167,20.8135023424702,12.5644242151493,10.4878498696085,14.2666594933888,16.3604491100229,18.7994083488786,17.2114406625619,19.3855749588707,18.573365725773,17.6526987585521,0.998329492208595,1,1,1,1,1,1,1,35.29663725,-77.5668065,2017,"NCH1",3
"B37/H95","NYH2_2020",15.35,722.11091622912,0,6.5,248.5,113.5,70,69.5,4.4222579925291,0,1.39173123579944,3.18235724693344,6.17088877360026,3.50790104135118,2.28349072361197,1.42691866419926,2.17217563357404,137.089997768402,0,18.6826673050721,113.270666055878,12.6093331019084,36.9826669931412,88.4693336625894,18.1466666658719,65.6160001913706,20.9426754428494,21.7824497138129,21.5566608507285,20.6432143634654,19.2778644667731,18.9298452936519,17.7688209270759,13.7796892350961,11.7049053949951,14.5544730601772,27.9497778235541,23.6293392760458,27.8654129678972,27.8868889702691,28.7867253702337,26.5330294770505,21.5667549297366,18.2050767358379,2.61195698992539,15.6643110571967,11.3557305522714,15.510257551595,16.3110002305773,17.4820829176662,14.5382635461397,10.8637773380053,6.87917712598825,4.97941532358752,14.0269723819236,10.7080110498196,14.0939234463352,14.2287908501232,15.2006731147438,13.0497103701591,9.74952242691145,7.38768080178657,0.470065284751573,1,0.969822941036728,0.995242037142797,1,0.988859641207354,0.904446401273676,0.765938607634747,42.73230075,-76.65036275,2020,"NYH2",8
"PHG39/PHN82","WIH1_2015",35.8,802.55999334912,0,0,273.5,146.5,65,64,4.73000005912036,9.05999978383382,2.43061068168386,6.19005986556151,3.24281251430511,1.73931090915814,2.56322206766969,2.5826045268506,2.06486223506671,151.360001891851,54.3599987030029,32.300625488162,198.088750079274,6.48562502861023,21.1143751442432,113.252501126379,35.4293755665421,62.4800001233816,19.3236754387617,22.1910498936971,23.8972514964953,19.0410510068734,21.6280432442824,20.7255365879108,16.0925579709474,13.722787601418,9.59556191513936,19.9571875482798,28.1500002543132,26.0532609907049,28.8593200589564,29.0738543669383,26.5105607723578,24.8273939882814,20.1808902607393,14.5154980836536,8.51718754309695,15.3049998283386,11.8280294384883,17.4878351835719,16.4801037510236,14.4961537795189,12.3150913731169,8.58194562556843,2.68044018258631,8.55835087322049,13.98301753897,11.81015597229,15.2618382755968,14.9558189846116,12.9875354191,11.6812346906955,8.628108427747,5.08755073101082,0.777276777234095,1,1,1,1,0.929186389078322,0.833919484023419,0.505939954463764,43.05511725,-89.528525,2015,"WIH1",5
"PHW52/PHN82","SDH1_2015",21.05,640.3746538752,0,0.5,153,71,74.5,73.5,1.89000003376315,2.68444448047214,2.84721252258907,0.928406020685138,1.08916666979591,1.21319316571409,1.12388611954165,3.99455887308239,0.570569385236773,58.5900010466576,24.1600003242493,33.8600005656481,31.148749768734,1.72000000625849,12.7762498259544,39.0256242752075,27.9024994894862,17.6581250801682,21.1644650428526,23.3864585028754,24.0305424227224,23.9487849489623,21.7433571616809,21.4249004835432,20.6021277482611,16.2774682791546,15.1857998291828,19.0429034079275,22.5888888041178,27.2082641597216,30.462296538412,29.5476047595342,31.8607387889515,31.4777038165944,29.4866452272578,24.897335823114,4.20870966368145,8.46888891855876,11.6908214324257,14.2596964676466,14.2906251748403,16.0653409849514,14.0226982217202,14.1157811645306,6.94290009588376,6.80751690571185,9.21066066646885,12.2739043710277,14.6760611342004,14.1888826298485,15.8143187909023,15.0055273063528,14.1753903925901,9.83480829576472,0.770253459523831,0.983690483229501,1,1,1,0.983472358000217,0.961069401861592,0.950039755118484,44.208745,-102.928745,2015,"SDH1",3
"B14A/OH43","IAH1_2017",21.6,686.06972967936,0,16,205,122,65,64,3.40562492981553,4.9653845842068,4.75627611908435,1.83360658706262,3.81409099607757,2.22148488699788,3.67080832802223,1.81325483980117,2.34747311753145,108.979997754097,64.5499995946884,71.2827261577953,63.7872725833546,4.17772737416354,22.8386367667805,118.906818606637,13.7622724988244,72.0368181575428,16.1986516714096,17.4117801372822,18.8419865113308,22.0772261853777,19.5709462599321,20.6423577019663,19.6533487855188,19.1238258402757,16.8780910515948,17.1134373545647,15.3784616176899,22.9595167923024,28.098072667094,26.507423805468,30.2796059126806,29.7994892260695,26.9283494144291,26.376740509697,5.4131250269711,4.92307697809659,11.465490162608,14.1696252786347,11.6175757754933,16.6577523703527,16.6650409071547,13.3875722172112,12.4151066155028,6.53077833948335,5.76856381165309,10.4537021498713,13.7196511279626,11.9478337828281,15.6426259768559,15.399646170179,12.7123989246095,12.1737806011652,0.629988832066634,0.555054952155103,0.946458761983939,1,1,1,1,0.998130952344312,41.19924609,-91.49402296,2017,"IAH1",3
"LH212HT/LH195","WIH1_2017",17.7,731.12121286656,0,2,229,110,65,64,3.89483860231215,1.69400000274181,3.49156577965838,6.2519143171591,26.2978026361176,12.3515148027377,1.78262104808487,1.03121945111417,2.01941396652895,120.739996671677,16.9400000274181,60.7700004577637,238.208635676991,55.4840900247747,148.218177632852,77.271818082441,11.1354542618448,60.745454186743,17.960097635946,21.5698625564575,18.7158230082745,20.7331612703905,19.6944010185473,19.5872614094705,19.1692292014325,15.6915139185436,12.2199858597646,16.0345162114789,20.211999797821,20.2299808812544,26.7106026620157,27.0055303284616,27.1642803278836,24.808088372499,24.0364187930535,21.8450449974554,3.37838715026456,6.26000000238419,9.26856570777133,14.6662764981358,15.355757669969,16.2110985698122,13.1758958125295,11.5252111876034,9.50942962348574,5.50743496208047,7.7204112419547,8.66460263667967,13.1489127920754,13.4606804243422,13.904384596596,11.6785635653614,10.9014606457238,9.60826542273389,0.606900931675039,0.87353569992951,0.867893568108202,1,1,0.99822024159571,0.971647402783493,0.89569217047159,43.05668125,-89.5308135,2017,"WIH1",5
"B73/PHN82","TXH1-Dry_2018",10.45,731.12121286656,0,2,219.5,85,73.5,73,2.44233329544465,0.878333330154419,4.91741256001052,2.91095925044977,1.11232141086033,5.98734766325737,3.09403364827696,2.44530950245403,2.57365667705529,73.2699988633394,5.26999998092651,55.2178573012352,113.372142612934,4.44928564344134,64.3635703495571,86.7278586477041,13.6771427350385,77.3578569974218,13.4988632996877,14.4915455182393,13.9248534838171,19.6618496048866,19.3908269973028,19.6418435904543,19.3841029346057,21.21373351415,18.0125832346727,19.6893333117167,26.9583333333333,25.6661437272963,26.5699684543749,30.2423808461144,29.1437299615549,31.9180543268285,33.2644761993771,34.5116055384576,6.35766667922338,15.039999961853,15.1375581486321,13.6905545931612,18.240714152654,16.4484343575537,20.6307032285911,20.5015473865327,23.9749401441184,7.6135705722337,13.4071560355566,12.8752807062941,12.7953613694417,16.3441020747261,15.0664778975255,18.2123343788981,18.7591973934278,20.4060627549583,0.821476193552925,1,0.991620594691275,0.994086429913331,1,1,1,0.999013392447937,30.546318,-96.4329965,2018,"TXH1-Dry",10
"2369/LH123HT","MIH1_2019",28.15,706.02110080512,3.5,3,271,148.75,73,71.5,3.72032261471594,6.18999987840652,7.08189690006846,2.96191688400863,8.70871785970835,0.913986012652204,1.81721631743115,4.46805386621966,4.01325090748622,115.330001056194,49.5199990272522,106.890000159924,93.8269234987406,16.8199998415433,10.8061538292811,84.3607687308238,63.3192304020318,120.886153043033,19.3198693644616,19.659396648407,18.5197910648149,21.0044455619677,17.0154062173305,20.0474262743285,16.9686392658752,12.0289328686849,10.8756886384412,17.6070966566763,21.672500371933,22.6907490026934,28.9340565953721,30.5653851582454,27.9492195425056,26.0065468645292,21.5026069405808,17.4653024474005,6.21032255887985,10.3187500834465,12.2184779380965,16.8660470129547,18.7433329973465,15.8530651856136,14.0059099463102,11.3257615513,7.16116346403536,6.87677389559506,9.31438263555815,10.3976173052964,15.104532747528,16.8626129686687,14.1939107322347,12.5855318269076,10.0060636582943,7.51165680343827,0.696382483441709,1,0.995173883167682,1,1,0.988904737193903,0.895422602144151,0.709438731296917,42.70789125,-84.4706665,2019,"MIH1",4
"2369/LH123HT","MOH1_2019",17.75,731.12121286656,0,0,220,103,66,64,4.90741942774865,9.6042856488909,1.1968724982766,5.11041013178547,2.80166657765706,0.134444442060259,2.37970824656129,7.11342869425813,4.89530104317011,152.130002260208,67.2299995422363,11.8062502294779,164.838749021292,8.40499973297119,1.20999997854233,75.0687506459653,40.4812505505979,151.40749900043,17.0658433668075,18.9367299761091,19.672939013893,19.7601385983828,19.1591383218765,21.9354776011573,19.8853633999455,16.02367872908,15.2536705892253,21.0212902868948,24.3900002070836,28.1749684950318,28.3432416480006,30.6675000985463,31.1026387214661,30.5051384887057,30.1296425728571,28.7243360575809,9.9606451219128,13.4285712923322,17.3952990800443,18.0562052324172,21.3616663217545,20.47986096806,19.3222372109203,20.2391192617871,18.2678090690285,9.14854411028884,11.6848407365863,14.864179743422,15.3206934370902,18.0145832101504,17.7875907402394,16.9097054113916,17.1797368716761,15.574827071042,0.941624426072644,1,1,1,1,1,1,1,38.8956125,-92.20883,2019,"MOH1",5
"PHW52/PHM49","IAH1_2020",15.5333333333333,731.12121286656,0.833333333333333,0.333333333333333,229,110,65,64,1.68806450597702,6.19600019454956,3.07937370009497,6.53305792599394,1.27142855099269,2.67326977555714,1.85421064008438,0.708456623919156,3.75561601346081,52.3299996852875,61.9600019454956,37.2349991798401,213.622142757688,2.19857137543815,25.9085708005088,60.1178565110479,6.01214278170041,115.372858315706,19.46953176683,15.0466018676758,20.6424708637148,20.3159834913117,21.992077418736,21.0955225202772,19.7297913964658,19.804555562767,15.1169259092225,15.8729031931969,18.7070004463196,25.7217689451961,28.5067430861476,31.9299994877407,30.8792140748766,28.6114739112471,29.3732770515948,24.6307950130622,3.3483870948755,9.75300015211105,14.6592933360598,17.3863334611218,19.8571428571429,19.2884919363355,17.2726116483618,15.4681903785589,11.8318310619754,5.55848579964145,8.12545645677116,12.6575733793141,15.0980196558132,17.8935711724418,17.0907883427003,15.1212185598445,14.7539709043416,11.4769448256727,0.621440085247674,0.927035726393972,1,1,1,0.99851414246496,0.992713008729779,0.918334154475424,41.19774214,-91.48767072,2020,"IAH1",6
"B73/PHN82","ARH1_2018",21.4,543.8357613312,0,2,189.5,104,62,57.5,6.80749994516373,4.70999993596758,2.62777637512911,4.73591215777578,3.61916664668492,6.96017852632536,4.33043756926438,0.796285740818296,3.37467743449497,217.839998245239,32.9699995517731,35.4892859118325,145.294284343719,5.83142852783203,62.5142853089741,109.797857735838,4.00357156140464,104.615000469344,17.9970670938492,21.7022604261126,20.0594998235876,19.526801115197,21.5939762251718,17.9926481322637,18.0574776027005,19.3321502186003,18.3042435536187,21.0706250667572,24.3185710906982,24.0216893355052,29.4527985731761,31.7309522401719,30.7069242303334,32.5717108049104,33.2952144259498,31.8374196285476,10.2671874910593,12.0357142857143,12.7020508751037,18.6741208320572,19.9915478343055,20.6467757206115,22.9033521317947,23.2358570643834,21.2883410212082,9.22327753419032,11.0103677478877,11.2783232173313,16.1126744540351,17.8620654597657,17.6775747954964,19.7277038225499,20.1946927088828,18.5436880911809,0.945725440979004,1,1,1,1,1,1,1,34.729679,-90.7603455,2018,"ARH1",11
"LH195/PHN37","MOH1_2017",16.5,731.12121286656,0,1.75,250,115.75,62.5,61.5,8.9377417372119,9.40166687965393,2.5122307210309,3.31803000298191,5.03571436897157,1.79449076217318,1.99698652419733,1.22007939712801,1.67255760975148,277.069993853569,56.4100012779236,33.266191187359,103.90142990152,11.9309525943938,15.8776192438035,65.301428034192,7.33476209640503,51.2547620932261,18.7248205369519,18.0883291562398,22.6242269395262,21.0080017307694,18.7751449554686,19.9343814805702,19.7053313769018,19.3664612148354,17.3432911467809,21.9203225412676,25.3299999237061,25.4749503644893,29.3008720310805,30.4665072910369,32.2541201606629,29.9202677395283,28.2214596385048,28.0482789753525,10.0600000504524,15.2766664822896,12.998270884804,17.3976861805709,19.7822220514691,21.2135912224098,18.704048814453,16.3385714299284,14.9717184025754,9.61284732078703,12.7690302394973,11.9492820630245,15.4976191875118,17.12130987162,18.6727738376249,16.2046370134919,14.4820857755482,13.9285000836298,0.915472352559665,1,1,1,1,1,1,0.999239795872954,38.89264,-92.2057525,2017,"MOH1",2
"F42/H95","DEH1_2019",20.9,698.94158201856,0,1.5,229,109.5,59.5,58.5,4.88548383405132,0.129999995231628,2.22754366008185,2.83887974343054,7.0926190557934,13.0900794286577,2.37605914671847,7.24609516660372,5.29133873076483,151.449998855591,1.16999995708466,29.4199992418289,87.7514276163919,13.3278571537563,117.810714857919,70.1764280796051,38.8228567923818,163.760714939662,18.0942263295574,22.5275441275703,19.0983295645176,21.1054939145839,16.8799242519197,18.3868353404696,17.4379090753706,14.476434816633,15.1882209444193,17.4912903078141,20.5577778286404,23.0837453456724,28.6110288519394,30.7033335821969,31.5357142251635,31.9663629076681,30.1067382585435,28.4413756884737,7.04516128955349,9.18444446722666,14.3005087701308,18.3414932581405,20.743333589463,21.7011906154572,22.6829330156982,22.0334762732188,19.5725390395811,6.99216838650998,8.73551017725078,11.4143050106146,15.6056687045059,17.7112297913015,18.5929650565741,19.2590150034337,18.0735423865727,16.1304203541944,0.769815655759952,0.948412698885751,0.988507503793619,1,1,1,1,1,38.670675,-75.433225,2019,"DEH1",5
"PHN11_PHW65_0323/LH195","NEH2_2015",14.8,758.15210277888,0,0,229,110,80.5,80,1.35875000804663,3.75599999427795,3.0312642160566,1.28609090161586,0.286666671435038,1.65718752741814,3.75175936234048,0.157499998807907,0.616713690613547,43.4800002574921,37.5599999427795,66.2900002598763,43.4999997615814,0.860000014305115,16.5718752741814,117.643123269081,0.944999992847443,18.9906244128942,19.5378324687481,19.9865628242493,18.8528682006309,23.6515267445892,23.2123234272003,22.7312117993832,19.6276781342462,21.6194818473998,18.2072823920237,15.038749919855,23.1520002365112,18.6692758285186,30.1456176773453,32.3751038511594,32.6086250662804,30.3648981920793,32.3132081599463,28.3144870604238,-2.42656248784624,5.23099999427795,5.26405106663817,13.5723423028142,16.5714581012726,16.1308747947216,15.9646130974384,15.5681904724666,11.1963467507293,4.19248534704874,8.47829673153606,6.89490435408322,14.3761050844018,16.560327995662,16.4700800876987,15.3434088039049,16.0526129070914,12.8317300494645,0.519497764022422,0.976535719633102,0.809891264926545,1,1,1,1,0.92202169835659,41.0514495,-100.7471915,2015,"NEH2",6
"LH82/PHB47","WIH2_2017",18.85,781.64323329792,0,2,228.25,101.75,73,73,5.04870961558434,4.63666661580404,1.14238357494139,5.76385788548466,8.00159072875977,6.16004860362449,1.60777643285742,1.16772651324412,2.25755526788773,156.509998083115,41.7299995422363,17.5799998044968,219.396364270963,12.1440906524658,74.0409079194069,72.28863683072,15.0440909293565,68.0204556950114,18.1690344041394,19.7204955418905,20.6472768327282,20.2328798799047,19.1316367929632,19.3749324300072,18.5140157590327,14.9334047713424,10.8947823268053,16.0312902696671,21.8655554453532,22.157460706825,26.5968914308851,27.900455012466,26.7679925429357,24.7306206922626,22.3853339347559,20.5127478068356,3.24419354046545,8.79111109839545,9.55349760092549,14.5433731880084,16.8103789199482,15.3783115840061,12.1927125768691,9.1932024860582,7.86886657741529,5.43821820192816,9.20913123615215,9.45120310694411,13.0570841123019,14.516823010886,13.3761072292611,11.3130637266799,9.68633375424708,8.85311395885718,0.624158990547954,0.847976183134412,0.950288767513294,1,1,0.998699911088751,0.954544861800485,0.834596302261351,43.3246415,-89.33688775,2017,"WIH2",3
"B37/H95","KSH1_2016",13.8,778.7470665216,0,2,140,65,87,87,0.381562503054738,5.59374988079071,9.0311369591709,3.98190999396102,0,0.897724768782806,5.01142138710802,3.32242425282796,5.67007326271352,12.2100000977516,44.7499990463257,140.950907804749,148.509091756561,0,8.37409110773693,139.43863695589,19.9345455169678,175.772271144119,18.4331542551517,14.0458284318447,18.3461373797249,20.8844651238299,22.7032874280756,20.5944180136979,18.3498667163808,18.1537938724865,17.325101912546,19.1512499600649,21.7012498378754,22.3390124406673,27.1937706264094,36.3127268877896,35.1754003625928,32.0107843193833,33.8563335245306,30.7689589111686,2.13062504353002,11.4649999141693,9.56823857872411,14.2621367966756,21.5872724706476,22.0435392319554,20.7806130140041,22.7113486636769,19.4913931130664,6.31585730010902,9.66729101728267,9.62689037894436,13.3541884288908,19.5659910681005,19.143975364632,18.068246454854,19.1205473197881,17.0374461461811,0.741573662447211,1,0.9212797776386,0.98604226771574,0.991287871402522,0.998977630941292,0.993550001780192,1,39.14480675,-96.62898225,2016,"KSH1",9
"TX779/LH195","TXH1_2019",11.805,881.097600396749,0,0,209.5,60,67.5,66,1.71448274965173,0.072857141494751,3.656594302147,9.09543456371003,0.409285715648106,1.20767857134342,5.35585078307965,1.24614285230637,1.57441934339828,49.7199997399002,0.509999990463257,52.0078563094139,328.212138780526,0.592857139451163,9.66142857074738,146.447857277734,6.531428532941,47.5149996536119,15.4280570457722,20.5213113512312,18.768988344457,18.5703255916766,21.4234965869359,18.852815253394,20.148813605732,21.0307275136312,19.8408923398148,18.4500000723477,25.7642857687814,24.4325494379212,27.2758673216928,31.0900000163487,32.3786609854017,32.7243520483546,34.0447144826253,34.9820077594341,6.8262069143098,10.3500000408718,10.6796315414328,14.7876673923985,18.6585717882429,21.8507142748152,21.0244273483534,21.7961428233555,22.6049738996772,7.4578164675981,11.1589152046898,10.8511947929525,13.4663040330347,16.9119367665064,19.1141210544432,18.8476531392514,19.7780710195599,20.0141955883191,0.749667494461454,1,0.945308164445992,1,1,1,1,0.999698925164804,30.546318,-96.4329965,2019,"TXH1",2
"WF9/H95","TXH1_2016",14.15,710.52624912384,0,2,193,70,73,73,1.63366669813792,16.1399999346052,0.997024219685634,4.71986560334683,0.129393938815955,3.27727272687865,13.062324570375,0.703636358001015,1.01712562139433,49.0100009441376,112.979999542236,14.5313639044762,177.354999092492,0.330909089608626,36.0499999956651,378.067267352884,3.17999996922233,30.534545768391,13.9726291974386,10.7287414414542,17.8894095128623,17.8007609349484,20.5568532076749,19.7779241435784,17.9048036307734,20.8338603973389,20.1432609317589,22.3250001589457,23.9500002179827,24.4830925562751,26.4049851333462,28.5388636011066,28.6354545482919,30.1287031897283,34.3540452523665,35.5883872279207,6.03466663161914,13.3357141358512,9.67537964446524,13.1275877936174,15.7853026679068,16.3376445415591,20.1390285305243,23.0818636243994,24.0011842107726,8.47337903343467,11.2978355051063,10.5045992024655,12.4611166479839,14.4368127893531,14.7220414816358,17.1236823819741,20.5322511435483,20.8759903806844,0.915869047670137,1,0.972225206868779,1,1,1,1,1,30.54708625,-96.43393475,2016,"TXH1",3
"LH195/PHN37","GAH1_2017",12.9,726.61606454784,0,2,190,85,60,59,1.92968747392297,5.73000001907349,0.343252103133586,3.44928658477499,2.10761896769206,4.58677246557972,5.88411512674098,3.46279361891368,5.79033786946544,61.749999165535,45.8400001525879,4.18523797534761,115.462857757296,3.16142845153809,44.2476188795907,164.396192306564,18.0028569698334,179.500473953429,16.8024901300669,20.1373232603073,20.1734204678472,19.2707622430691,21.2048014383467,16.6798162969963,18.1585808485972,19.3751740168011,17.7370458682012,23.5584374964237,24.7612497806549,28.7388454609341,29.029321913538,29.7903175656758,30.1182594269041,30.8846873649595,33.0415872604128,32.3946695928383,8.65499997884035,9.07374995946884,13.8160128648753,15.9456908272656,16.8514287131173,20.0705928338268,21.0580026966177,22.2436510176886,22.0341169412967,9.93516597929203,10.3201673994425,13.6844889022653,14.8136399848139,15.5596332003494,17.1078969773464,17.9595982908683,19.6134998817186,19.1980031961101,0.883437499936138,1,1,1,1,1,1,1,31.50794425,-83.55854475,2017,"GAH1",3
"LH74/PHN82","MOH1_2016",16.75,731.12121286656,0,2.5,230,127.5,55,54.5,2.46548387696666,8.05800023078918,0.26425937654912,6.28252126803095,1.94553034955805,9.25680558966717,4.35890712054063,3.35466445060003,5.45313052702641,76.4300001859665,40.2900011539459,2.87999999523163,172.837275786833,4.26272736896168,83.2036366733638,125.209091579372,21.1336360627955,168.224091789262,20.2309362965245,16.9350936889648,22.4982955657569,20.2095998884574,18.6817798614502,19.2140896434736,18.009092196306,17.1771441321352,15.8753494680802,21.8319354826404,27.5660003662109,27.8864476525043,31.2121523499736,30.2579544240778,31.2505744972614,30.5742306529435,29.8007791217787,28.2533923636667,10.0738709972751,16.7440000534058,16.2647446268316,19.8621598402259,19.9837122252493,20.4911741319329,20.7615379101816,19.9143179443491,17.5631836798883,9.49779854702591,14.2434334868972,14.2129642512569,17.4733694599123,17.1223259823391,17.869915103463,17.6510486247485,16.9099855149229,15.0956111701838,0.937315665082448,1,1,1,1,1,1,0.999442640656517,38.8955475,-92.2072025,2016,"MOH1",1
"PHB47/PHN82","NCH1_2020",18.775,693.14924846592,5.75,2.5,200.625,90.3125,65,64,3.81125003128545,6.58374977111816,1.87015070111794,7.59338454735375,0.884285699753534,2.63668646698906,3.33071338060501,6.12114287103925,7.32343316943415,121.960001001135,52.6699981689453,29.2835704556533,255.940713865416,2.6528570992606,23.4857139246804,94.0314286180905,30.3285714898791,227.026428252459,17.7931001186371,18.2030313014984,21.9031161387958,16.624104256889,22.7344187781924,20.9765385862381,20.5430953276098,18.1598880904061,15.6514139856611,21.6678124964237,23.2199997901917,23.3487043310554,27.0496421427954,28.21738079616,30.9563497626592,33.0704321677563,33.2972858973912,31.2465668471727,8.08281250484288,11.5312500596046,9.51933213031121,18.0966886080901,18.1914290927705,20.5856052201892,22.1124512970464,22.8580000468663,21.9105529499493,8.88590596036503,10.345445976376,9.896418392683,14.6940439801602,15.2496249982652,17.7688184726376,19.5031272394627,19.9903569790644,18.562087597318,0.935200902566846,1,0.995619772597503,1,1,1,1,1,35.30009892,-77.57131746,2020,"NCH1",4
"B37/H95","ARH2_2017",17.7,731.12121286656,0,2,229,110,65,64,2.78999999538064,15.8328568594796,4.77601641275428,2.85394902786212,1.14250000317891,5.6518181520279,3.90594825537953,2.44303250003171,4.68862172454333,89.2799998521805,110.829998016357,61.6427268981934,88.9586376927116,3.00318182598461,52.4286360849034,105.244998791001,13.3377274599942,145.347273460843,17.1448929607868,19.0943690708705,20.93439510552,19.6567025811074,19.8440968123349,19.121190304708,18.8117640717936,19.6525999680226,17.5468659967271,23.6565626561642,24.5514286586217,25.3854145473792,28.9612549027647,32.4009845762542,30.8456569180344,31.842414729907,32.8362724886312,30.2008795304732,12.0734375119209,12.1614287240165,12.7110645043048,18.0477898004787,21.7873485449589,20.244100979121,21.8778156646752,22.2563917395356,20.2611290842207,10.8387815822115,11.2209416506324,11.8857993828006,15.6258454685709,19.0941665606065,17.5448789485777,18.8103181039231,19.2769367120475,17.252651155063,0.991674107100282,1,0.973153680072931,1,1,1,1,1,35.67418125,-90.0752695,2017,"ARH2",10
"LH74/PHN82","NYH1_2017",19,731.12121286656,0,2,216.5,103,69.5,69,4.75870958066756,4.13999998569489,2.95302494204596,5.71550623200518,4.32087287827144,2.70173206300027,2.61632844338824,1.02263058497457,3.61426843911905,147.519997000694,37.259999871254,45.1261899925414,219.922381491888,11.2685710702624,35.6957141047432,128.424762705962,13.3047620654106,110.890000857058,18.9744435125782,17.8100527657403,22.0763726985416,19.3839747471171,18.5614137876601,19.2253497353029,16.7138256789592,13.4350664320207,9.03754833240572,17.0696775221056,20.2333335876465,22.7745171017373,25.664886994249,26.7039681691972,25.3269152449164,23.2600727170173,23.9684052634079,17.611198191458,5.96419353350516,10.1900000042386,10.9371763249011,15.2036229448209,16.362936383202,14.6065672757674,11.3179340366411,11.5668532308226,6.66954478092379,6.64112734378757,8.72725367499605,10.1527049274721,12.7947461464451,13.7193522643836,12.3756778221065,10.4503517934596,10.9124923049431,7.23915136927561,0.685760370631646,1,1,1,1,0.982493677824514,0.953634339212795,0.701363064221172,42.72880835,-76.6515625,2017,"NYH1",2
"B73/MO17","ARH1_2017",17.7,731.12121286656,0,2,229,110,65,64,3.05812502466142,3.53285707746233,9.87168867799627,6.40516052792204,0.516363615339453,5.98817166776368,5.1192324932667,3.10231815251437,5.34158355959,97.8600007891655,24.7299995422363,132.032728541981,211.621818423271,0.569545431570573,54.3681813803586,136.891365343874,16.0827271288091,165.58909034729,17.1397498100996,16.5534388678415,20.3842401109389,18.762255266809,22.8136479348847,19.0696450768095,19.5355347466332,19.7719311078389,17.1297293478443,24.6090626120567,23.9600004468645,24.7705700575015,28.0660565234123,30.3546969095866,31.5146664012562,31.305776363096,32.7845913251241,30.9158799263739,11.9174999967217,14.1785715648106,11.8445801043321,17.6085024623292,18.9724999485594,21.3061564166136,21.3997927531552,22.5053331635215,21.6223753764133,11.1639708952952,11.7757805455927,11.2265518633486,14.9753735417966,16.7435951634837,18.4104114089349,18.3304942572969,19.547681258962,18.2245760771495,1,1,1,1,1,1,1,1,34.7272515,-90.76032575,2017,"ARH1",4
"B73/PHM49","INH1_2016",18.9,711.81343435776,1.5,2,276,152.5,63,62.5,3.03451614802883,1.38285718645368,3.10656882285516,3.96627025574623,3.5004544691606,6.75263637087562,3.45117264331826,3.19852811820579,3.02442279661389,94.0700005888939,9.68000030517578,31.2600005865097,138.875910509716,3.5004544691606,67.5263637087562,113.892727423798,21.665454398502,92.6259097240188,17.6332864915171,23.975117955889,20.6644157743121,20.1236557979185,19.9706746014682,19.3914948420091,18.1452765645095,15.9853371552059,14.6282023681807,18.7451610872822,26.3114280700684,27.8489884616612,28.128934173179,28.2027271444147,29.1450453844937,29.1677900132707,27.9556494110074,27.0773909331999,7.95032263571216,11.6942855290004,16.3181792235504,16.1060653765268,16.8522730957378,18.3487275210294,18.5888960498719,17.5028462595754,15.0384101224085,7.67710047192516,11.916890154154,14.2428837792982,14.4184555008251,14.6852160398404,15.7994255976279,15.9329094047117,14.9223815108922,13.5173469210224,0.85264976315784,1,1,1,1,1,1,0.996102814098973,40.4787595,-86.98982,2016,"INH1",5
"2369/LH123HT","MIH1_2020",27.3,684.78254444544,0,13,269.75,160.5,64.5,63.5,4.98483870923519,2.44714290755136,2.78018427009266,2.64718347009905,5.50687503814697,1.47688446110397,2.68871709191529,6.006552647497,2.65185956958561,154.529999986291,17.1300003528595,30.4349994659424,89.0756237506866,6.05375003814697,16.1737499088049,112.214375276119,49.723750218749,79.8756258003414,20.4058846196821,19.2874285834176,24.3268306442503,21.0696464608904,18.4752662777901,19.4080278884281,18.0526796650652,13.1805551271503,11.863256798973,17.7548387435175,24.1285716465541,28.1873650077177,29.2573483428402,30.4718749523163,29.1245189395818,27.1972088196306,23.6594714909683,18.5364556646876,5.910322619542,13.1857141767229,13.3644935122433,15.8775388488027,17.5762503743172,17.4043921524828,14.2199518023274,12.0943050066264,6.60396104622783,6.8868715678645,11.6421850150292,13.333055631482,14.8654457194695,16.0410496696027,15.3373797335684,13.2580116996543,11.1781078521307,7.34910041504178,0.705645170045613,0.993469381818966,1,1,1,0.99098153775779,0.929873564470905,0.775463757102006,42.7085775,-84.4705825,2020,"MIH1",6
"B73/PHM49","ARH1_2017",17.7,731.12121286656,0,2,229,110,65,64,3.05812502466142,3.53285707746233,9.87168867799627,6.40516052792204,0.516363615339453,5.98817166776368,5.1192324932667,3.10231815251437,5.34158355959,97.8600007891655,24.7299995422363,132.032728541981,211.621818423271,0.569545431570573,54.3681813803586,136.891365343874,16.0827271288091,165.58909034729,17.1397498100996,16.5534388678415,20.3842401109389,18.762255266809,22.8136479348847,19.0696450768095,19.5355347466332,19.7719311078389,17.1297293478443,24.6090626120567,23.9600004468645,24.7705700575015,28.0660565234123,30.3546969095866,31.5146664012562,31.305776363096,32.7845913251241,30.9158799263739,11.9174999967217,14.1785715648106,11.8445801043321,17.6085024623292,18.9724999485594,21.3061564166136,21.3997927531552,22.5053331635215,21.6223753764133,11.1639708952952,11.7757805455927,11.2265518633486,14.9753735417966,16.7435951634837,18.4104114089349,18.3304942572969,19.547681258962,18.2245760771495,1,1,1,1,1,1,1,1,34.7272515,-90.76032575,2017,"ARH1",6
"CG119/CG108","OHH1_2019",17.225,739.80971319552,0,0,229.25,112,54,53,4.52187501639128,5.60142850450107,9.49218418812764,3.67767790493084,1.56571434225355,0.385974026345587,1.86530509479137,1.65904762083981,1.75173883737507,144.700000524521,39.2099995315075,109.352857010705,105.492856400354,2.90714296272823,4.24571428980146,67.7371422350407,11.4071428733213,52.9257135008063,18.8840596526861,17.4926710128784,16.8400286458912,20.3390746061215,18.2435736315591,21.9239106364064,17.3234712965801,16.4353543187485,12.6882473915586,23.6978123784065,23.0442856379918,25.9338769538436,30.6462611406935,27.2342853546143,29.1364936828613,27.6347160934714,28.4020578731485,24.227758823928,12.3731250613928,13.0142856325422,16.5405247622919,19.1537767425904,17.2985715184893,16.61116872515,15.6873998226323,14.4186055400745,10.1522703877059,11.0978151065421,10.856451580884,13.4108578189607,16.9524907944801,14.3911883936558,15.002149715115,13.9211580533092,13.8157455840743,10.7664966885892,0.952522322535515,1,1,1,1,1,1,0.923664696824271,39.85685125,-83.67122475,2019,"OHH1",3
"PHB47/PHN82","SCH1_2020",13.54,731.12121286656,1.5,0,97.5,38,59,58,6.72612905502319,12.6195001602173,14.6709951034396,2.00004706411726,2.50574996471405,4.42531940539678,2.2684627114437,6.18714998006821,5.02309186842493,208.510000705719,84.1300010681152,163.686000823975,61.5099992394447,5.0114999294281,39.6814996480942,62.5769994258881,33.6459998607636,155.465497928858,20.3681760849491,19.6697832584381,14.7552605822739,19.8596108181735,19.9601446628571,19.2446548587746,19.8780910530624,16.407526623408,15.6462510356339,22.325677311805,25.3399996757507,25.3184633196214,29.1971057408356,32.4110002994537,31.6696106500096,33.3203228086908,31.9290998840332,30.2404226837363,7.9367419769687,12.7089999675751,16.319556633101,18.6552118308069,21.0972501277924,21.173652598593,21.4688300754659,21.1913665390015,20.4882623517641,8.96370159284429,11.7659358628616,13.234286057093,15.9884621138667,18.754125213623,18.4214103661816,19.3242599964586,18.5602332115173,17.4029431579922,0.984170503605346,1,0.97395093803367,1,1,1,1,1,34.62225,-82.736661,2020,"SCH1",5
"W10001_0022/PHB47","TXH1_2016",17.7,731.12121286656,0,2,191,64,67,66,1.63366669813792,16.1399999346052,0.997024219685634,4.71986560334683,0.129393938815955,3.27727272687865,13.062324570375,0.703636358001015,1.01712562139433,49.0100009441376,112.979999542236,14.5313639044762,177.354999092492,0.330909089608626,36.0499999956651,378.067267352884,3.17999996922233,30.534545768391,13.9726291974386,10.7287414414542,17.8894095128623,17.8007609349484,20.5568532076749,19.7779241435784,17.9048036307734,20.8338603973389,20.1432609317589,22.3250001589457,23.9500002179827,24.4830925562751,26.4049851333462,28.5388636011066,28.6354545482919,30.1287031897283,34.3540452523665,35.5883872279207,6.03466663161914,13.3357141358512,9.67537964446524,13.1275877936174,15.7853026679068,16.3376445415591,20.1390285305243,23.0818636243994,24.0011842107726,8.47337903343467,11.2978355051063,10.5045992024655,12.4611166479839,14.4368127893531,14.7220414816358,17.1236823819741,20.5322511435483,20.8759903806844,0.915869047670137,1,0.972225206868779,1,1,1,1,1,30.54708625,-96.43393475,2016,"TXH1",1
"LH212HT/LH195","ARH2_2016",13.8,731.12121286656,0,2,204.5,124.5,66,64,5.78093742206693,12.265000184377,3.71212020820834,7.02228860006285,1.10500001907349,0.295568184419112,1.93128791351543,1.45469692692612,6.28083569178483,184.989997506142,73.5900011062622,50.6740907539021,233.205909837376,2.21000003814697,2.36454547535289,51.2972726388411,7.65681795640425,194.70590644533,17.7645711898804,17.2271962165833,20.1405853736324,19.8064448117891,18.8826211727027,19.79738723148,18.6944065441324,19.8885487758752,15.607143551723,21.0278125703335,25.6983334223429,24.8822470662624,27.5574788870291,33.1628784988866,33.3801704536785,32.4072806330723,33.7124844464389,31.3768475300406,8.51718754693866,14.1383333206177,13.2669300286413,16.7583488235741,22.7915153503418,23.2152275497263,22.5635331248055,22.9502423373136,22.3752492012516,8.62630812400512,12.3761800663264,11.7581879605187,14.4664485465038,19.8918990278765,20.2426308826887,19.4302420192383,20.2373530270853,18.8112695233672,0.958649555088154,1,1,1,1,1,1,1,35.838614,-90.66530155,2016,"ARH2",6
"B37/OH43","SCH1_2018",15.975,731.12121286656,11,2,202,107,62,63.5,5.50937507301569,3.37250000238419,5.77532792752829,7.72812766098977,4.71095229046685,3.13060314183971,3.12348515829066,2.01328565960839,5.79306446956599,176.300002336502,26.9800000190735,97.6099995204381,245.673573059695,5.41571421282632,31.8442854029792,83.9342848232814,10.5378568683352,179.584998556546,18.6477236524224,19.2869287729263,21.173054595667,18.1631813069703,18.8474233264015,19.2548603041347,19.9945130026415,19.3178334372384,16.3013944175386,22.5390624701977,22.5337498188019,23.0902047939223,27.6187004518251,28.0654765991938,28.9085680901058,32.584791315526,33.4833329836528,31.116866401813,9.30156246945262,9.31125009059906,8.76240008069966,17.5066534747267,16.7615474973406,18.3829589417142,21.2079791456952,21.6712853658767,20.8076727291406,9.59119125294698,9.40007484305004,9.57450522783795,14.7679377529716,14.5196225818089,15.7238139666896,18.8616965293534,19.451053178185,17.9628857433375,0.951841517750706,1,0.982626498534951,0.991514694994028,1,1,1,1,34.6223015,-82.7364835,2018,"SCH1",7
"B73/PHZ51","DEH1_2017",20.05,724.68528669696,0,10.5,260,127.5,68.5,68.5,2.91718745790422,6.20142868586949,3.00780289028715,3.51798387630548,1.21142852117145,1.63275129076034,5.21425936785246,11.3193468755605,4.88273070798553,93.349998652935,43.4100008010864,45.3457148869832,126.779048942384,1.26857137680054,15.4833330313365,157.85333279201,69.2480949220203,151.3147630578,17.0564796179533,17.7322864532471,20.7109648054357,19.5738604252989,19.1555669421241,20.8859280858721,18.2123717552112,18.1575605574108,16.5860739368814,20.2662499845028,24.6614287240165,21.7224504345482,26.8229896455589,30.3507143656413,30.3114816221611,30.695552993145,28.4309092143225,27.2970235560896,9.32593758031726,14.1957142693656,10.687522006195,16.7585521273381,19.9063490004767,19.8815078785811,21.2169032219805,18.721444546014,17.9144449122429,8.6904799528833,12.0840231421066,9.78793426930988,14.1243186804428,17.1548256791078,17.1405073545012,17.9479055635566,15.6354630937149,14.7461382337137,0.907287955683257,1,0.959736116003801,1,1,1,1,1,38.67025825,-75.4333645,2017,"DEH1",2
"LH212HT/LH195","WIH2_2017",17.7,731.12121286656,0,2,229,110,65,64,5.04870961558434,4.63666661580404,1.14238357494139,5.76385788548466,8.00159072875977,6.16004860362449,1.60777643285742,1.16772651324412,2.25755526788773,156.509998083115,41.7299995422363,17.5799998044968,219.396364270963,12.1440906524658,74.0409079194069,72.28863683072,15.0440909293565,68.0204556950114,18.1690344041394,19.7204955418905,20.6472768327282,20.2328798799047,19.1316367929632,19.3749324300072,18.5140157590327,14.9334047713424,10.8947823268053,16.0312902696671,21.8655554453532,22.157460706825,26.5968914308851,27.900455012466,26.7679925429357,24.7306206922626,22.3853339347559,20.5127478068356,3.24419354046545,8.79111109839545,9.55349760092549,14.5433731880084,16.8103789199482,15.3783115840061,12.1927125768691,9.1932024860582,7.86886657741529,5.43821820192816,9.20913123615215,9.45120310694411,13.0570841123019,14.516823010886,13.3761072292611,11.3130637266799,9.68633375424708,8.85311395885718,0.624158990547954,0.847976183134412,0.950288767513294,1,1,0.998699911088751,0.954544861800485,0.834596302261351,43.3246415,-89.33688775,2017,"WIH2",7
"B73/TX779","MNH1_2020",28.6,709.88265650688,1,2,316,155.5,74,69,0.94300509867826,6.54607305060729,4.14035912753596,4.70748763912835,0.452236840599462,2.54351275702983,5.92890111667188,4.27061504377344,2.50108778318406,29.2331580590261,64.9010543540904,50.6168419938338,155.384736988105,0.714736844363965,28.6173683906856,219.299474794614,34.3447376494541,76.9310546087983,20.8351621174448,15.7339994616729,19.7482846720118,20.9752267105361,19.7857435502504,20.2008613357514,18.410630506817,15.8353278990905,12.8477663152691,15.7084550036336,18.5315520479183,25.8284042289769,28.495260522451,29.9249994378341,28.2199240924829,26.5218522585541,25.9398792816591,19.7406792160144,2.26123937792406,9.18620770652177,13.9924403556009,16.6828678833046,19.344474052128,16.9052831803402,15.0937764647406,14.3091431196277,8.59321732280189,5.3706805778496,7.95338430636633,12.4659637890829,14.7786587119029,16.6623657697956,14.7511618456846,13.2528818768791,13.0175246736152,8.66613029209796,0.62261399417653,0.838417993402521,1,1,1,0.988450437108742,0.930664219656181,0.78075899295554,44.06907839,-93.53263028,2020,"MNH1",2
"F42/OH43","GAH2_2018",13.7,778.7470665216,0,2,242,93,55.5,54,4.84967745888618,0.472857134682792,6.38984283527144,2.50728712962131,2.62500000283832,3.79519841145901,2.49966845428401,2.8287857288406,3.72412446731796,150.340001225471,3.30999994277954,84.9085696467331,76.9578574214663,5.38785717317036,33.8478571346828,66.1414286494255,15.0642858062472,115.447858486857,20.4955881180302,21.8851153509957,20.3329850251172,19.1599877182245,23.5162671634129,19.7079079832349,20.0248900302085,19.4201906385876,16.0079359810473,23.574838699833,25.8042855943952,25.0982466928002,29.4338754995983,32.5767859504336,32.3044644802336,33.9553133770799,34.1288569904509,31.9958754816363,8.78774203408149,10.5771427835737,11.2078081937334,18.18961495413,18.4690478188651,20.5788887871636,21.2528475332136,21.0849286215646,21.0162903284697,9.71754329526851,11.3392147010659,11.2342556626861,15.8911321098361,17.5337695363242,18.4416766336986,19.3188239485151,19.4729093337791,18.4928476713494,0.993778801184096,1,1,1,1,1,1,1,33.71560925,-83.30894675,2018,"GAH2",3
"TX779/LH195","GAH2_2020",15.1333333333333,754.0760162048,0.166666666666667,48,218.5,119.333333333333,65,64.6666666666667,4.57387093959316,0.441111114290025,8.35394185372255,2.5962924982051,5.73357168265751,2.10309520316502,2.17900143835476,2.48514287812369,3.91854836534245,141.789999127388,3.97000002861023,91.3907156842096,80.7742858465229,11.4150005068098,18.9278568284852,57.7149996161461,12.4257143906185,121.474999325616,20.6617187376945,23.2718448638916,17.5894329765579,19.5164109002456,18.7530079569135,20.3538568436153,20.2600156135181,17.1142686435155,16.0110933209345,24.3293548707039,22.8122221628825,27.2504947599791,29.7690339777179,31.2345238640195,32.734285172962,34.1389163525176,33.4245718002319,31.6445851084274,9.68354843124267,7.43777778413561,15.0700236897766,18.4119594858843,20.4682145799909,20.9503967497084,21.2406723049754,21.9171428135463,20.839055221751,10.3443726467021,8.95024401989543,13.555408754191,16.1518166823771,17.8513692220052,18.8423409613352,19.4006118837996,19.5800409446887,18.2372896183776,0.993479262299252,1,1,1,1,1,1,1,33.72355555,-83.30265185,2020,"GAH2",3
"PHN11_PHG47_0251/PHB47","ARH1_2016",17.5,778.10347390464,0,2,179,96.5,68,65.5,12.6265622600913,6.05222214592828,7.85959392181908,4.41103236837171,3.76999992132187,0.095833331948579,1.83491350889616,2.95036352764476,2.93171556272115,404.049992322922,54.4699993133545,101.143181920052,160.496816039085,7.53999984264374,0.824999988079071,46.8663639642976,14.7518176382238,90.8831824443557,16.4075767695904,14.4028924306234,17.4133262481418,19.3139989097208,17.4816541382761,22.1591818079804,19.7781726024698,18.2520895112645,17.225964043497,20.37124979496,20.0866667429606,25.2525350665633,26.3044541539922,29.5068177887888,32.2701959152414,33.2207471683232,33.1760686831041,32.7599998597176,8.5396875902079,10.0499999258253,14.8465505392494,15.675688928556,20.1031818389893,20.9033523737782,23.0132003928172,23.4658411589536,23.3566423203589,8.37657913218764,8.62389009177744,12.4075180997134,13.3856810078906,16.804999813889,18.5700508727667,20.093843133889,20.2460302688536,19.8980815100491,0.93219865730498,0.999841266208225,1,1,1,1,1,1,34.72952,-90.7603555,2016,"ARH1",2
"PHW52/PHN82","IAH1_2015",20.4,707.951878656,1,0.5,265.5,115,65,64,1.56645163797563,2.21307695370454,8.40241855686024,1.32346369240836,0.084411761339973,2.29735939798791,2.93999255048908,2.37101190956701,2.73279376330065,48.5600007772446,28.770000398159,122.139999866486,43.5299997925758,0.168823522679946,22.8235286263859,100.118234865806,16.6700000342201,83.8129400085,20.4321490257017,18.8581149761493,14.6331772809511,22.3127675938035,19.1422725845786,22.2080652261871,19.8386258824345,18.3376315823456,15.0581957022198,16.087741913334,16.6453845684345,21.8469785316973,28.7334183023463,30.2685291065889,31.3074705248565,29.0510553070878,29.396362715275,24.6694635680625,1.83903228419442,4.86538466123434,13.1289285435553,16.8676896249547,20.0594113854801,18.0570519634322,16.3929613969702,15.4374991619954,11.1722985517151,5.44712973145307,6.09818857737345,10.4824096365253,14.9963247305916,17.1663926633043,16.728841860151,14.9692492703924,14.7713722092671,11.3064436073178,0.593087559179639,0.682994502258825,0.988452544600181,1,1,0.997626800819033,1,0.896934673983109,41.9980952,-93.69336973,2015,"IAH1",4
"B14A/H95","ONH2_2015",24,754.29054707712,0,0,276,119,84,82,1.8764516076734,4.28266668319702,1.92800543142355,1.5826126299147,10.8026474223417,1.92320858157255,3.11438839923848,4.29490191426152,2.35638896233292,58.1699998378754,64.2400002479553,23.6199996471405,57.2247065095341,21.6052948446835,21.155294397298,115.501765766565,31.5629407868666,72.1164696006214,18.9538011243266,18.7670978546143,21.1774380927546,22.4541887468383,20.0410301545087,18.4543581008911,18.4537391837158,15.8007825277989,13.3453952521331,11.1738709480532,14.384666633606,23.912001533754,26.6127938053419,30.1517652623794,27.6505346247219,26.7798692937751,25.8746404647827,20.7920556972632,2.00677422361989,5.63600003321966,13.6495024548441,15.646883458515,19.3264702628641,18.5181282879835,16.7469462265247,15.4972220963123,11.0305445628027,3.74293843582847,5.61712950522319,11.5306591381689,13.5235311876304,16.7854267763897,15.1342186639452,13.9515349469929,13.1846932018183,9.37660248979743,0.276970042748385,0.589690475094886,0.985132405558233,1,1,1,0.993019958754548,0.931831119234909,42.45408625,-81.8816065,2015,"ONH2",7
"2369/LH123HT","WIH2_2019",30.025,658.39524715008,0,0,277.25,150.00000025,67,67.25,5.08468752354383,1.18666664759318,3.6826903842319,5.86844075059536,0.695238090696789,4.73009736972414,4.31577464825363,4.39550227859553,4.5479470677731,162.710000753403,7.11999988555908,58.0892852885382,183.800716136183,1.22285713468279,55.0542853304318,207.543570097004,59.5300005589213,136.879287609032,20.5184082686901,23.1025533676147,19.8462265884652,19.5497870934029,22.1357431638808,19.0482196356906,14.9081708567355,12.9839793672648,9.3378728905398,18.934687525034,26.8550001780192,22.8072941633611,28.9284112862702,27.8675001462301,27.5314296675729,23.3386479941843,22.3078561940146,12.1954661551983,7.17343750596046,12.7983331680298,11.759633151741,17.3057566963452,14.6784524122874,15.4249876302121,12.5616155530279,11.349939856886,2.68747308500535,7.56817394253405,12.4405435406301,10.3208419077868,15.2441985143731,13.6357406598178,13.7824031844248,10.8770867954482,10.5509228774816,4.71357086510305,0.80854910452451,1,0.995612407809644,1,1,0.966295589443794,0.875965565851245,0.450550637737248,43.320768,-89.33189475,2019,"WIH2",7
"F42/MO17","ONH2_2016",21.15,697.65439678464,0,4.5,233,120,75.5,71,1.4354838748132,1.74083332717419,1.46380271581139,3.02268752387098,0.150999999046326,1.134659085057,3.04644667291448,1.69350377760537,2.7651166654242,44.5000001192093,20.8899999260902,18.8460003852844,117.159000921249,0.150999999046326,12.2534999370575,101.044499832392,13.1614999294281,84.2689999639988,19.7256392663525,22.197474638621,21.6895404820885,21.7736589642688,18.986648273468,19.926783043688,16.6990616557451,15.6815267119186,12.907202899033,14.1074193523776,17.5808333555857,26.0075868502758,26.0489445105545,27.7809998512268,28.7928724592382,28.2480381953381,25.9224786042651,23.7534801354972,4.25741936266422,7.13166666030884,15.038288106176,14.1477788974648,17.7269997119904,17.3392411925576,18.2467210190433,15.9549466693556,14.1752601318334,5.1313461369791,6.98684124280148,12.8511639495985,12.6517199671275,14.842964971112,15.2602720524723,15.3178202053561,13.2653460605469,11.6762118863421,0.511244241010895,0.799851208925247,1,1,1,1,1,0.97582928193879,42.4530035,-81.88279875,2016,"ONH2",3
"B37/H95","NEH3_2017",28.7,721.46732361216,11,2,200.5,94,65,64,6.03471325952092,3.95544449819459,0.188829129512864,3.84200957652886,1.31629629488345,1.43557098103158,2.76443309446567,3.91202377797001,4.15136978970562,187.076111045149,38.2161116136445,1.98722227414449,117.824443870121,3.94888888465034,12.8655554983351,93.9933318313625,27.3861108902428,126.319444947773,18.5315053719346,21.7032616649355,24.1586003396648,20.8093108086358,18.6660331266898,19.0248772604966,18.7588759454037,17.518134166324,15.1571800328497,20.2013798614557,23.212571183462,30.1338990416992,30.1333927888773,32.0646292721784,32.7677623651646,28.39622897806,27.8744937900513,27.0242908958039,7.90829748620269,10.2621508647525,15.178797122525,16.8789166514344,20.6242595601965,20.9899306164847,16.9505481771525,15.080813686053,13.7565441682783,8.47748898985228,10.0955543030392,14.9507871885065,15.6796926457152,18.3413362022528,18.7524822191277,14.7764240233045,13.7931287363447,13.0011133890262,0.78351062574389,0.953819441133075,1,1,1,1,1,0.993105158398036,41.162,-96.409,2017,"NEH3",11
"B14A/OH43","TXH1_2016",10.05,706.02110080512,0,2,215,82.5,67.5,68,1.63366669813792,16.1399999346052,0.997024219685634,4.71986560334683,0.129393938815955,3.27727272687865,13.062324570375,0.703636358001015,1.01712562139433,49.0100009441376,112.979999542236,14.5313639044762,177.354999092492,0.330909089608626,36.0499999956651,378.067267352884,3.17999996922233,30.534545768391,13.9726291974386,10.7287414414542,17.8894095128623,17.8007609349484,20.5568532076749,19.7779241435784,17.9048036307734,20.8338603973389,20.1432609317589,22.3250001589457,23.9500002179827,24.4830925562751,26.4049851333462,28.5388636011066,28.6354545482919,30.1287031897283,34.3540452523665,35.5883872279207,6.03466663161914,13.3357141358512,9.67537964446524,13.1275877936174,15.7853026679068,16.3376445415591,20.1390285305243,23.0818636243994,24.0011842107726,8.47337903343467,11.2978355051063,10.5045992024655,12.4611166479839,14.4368127893531,14.7220414816358,17.1236823819741,20.5322511435483,20.8759903806844,0.915869047670137,1,0.972225206868779,1,1,1,1,1,30.54708625,-96.43393475,2016,"TXH1",4
"F42/MO17","MIH1_2020",19.675,672.5542847232,1.25,23.5,252.875,134,63,60,4.98483870923519,2.44714290755136,2.78018427009266,2.64718347009905,5.50687503814697,1.47688446110397,2.68871709191529,6.006552647497,2.65185956958561,154.529999986291,17.1300003528595,30.4349994659424,89.0756237506866,6.05375003814697,16.1737499088049,112.214375276119,49.723750218749,79.8756258003414,20.4058846196821,19.2874285834176,24.3268306442503,21.0696464608904,18.4752662777901,19.4080278884281,18.0526796650652,13.1805551271503,11.863256798973,17.7548387435175,24.1285716465541,28.1873650077177,29.2573483428402,30.4718749523163,29.1245189395818,27.1972088196306,23.6594714909683,18.5364556646876,5.910322619542,13.1857141767229,13.3644935122433,15.8775388488027,17.5762503743172,17.4043921524828,14.2199518023274,12.0943050066264,6.60396104622783,6.8868715678645,11.6421850150292,13.333055631482,14.8654457194695,16.0410496696027,15.3373797335684,13.2580116996543,11.1781078521307,7.34910041504178,0.705645170045613,0.993469381818966,1,1,1,0.99098153775779,0.929873564470905,0.775463757102006,42.7085775,-84.4705825,2020,"MIH1",4
"B73/TX779","ONH2_2017",32.15,823.15495709184,1.5,3.5,254,135.5,54.5,49.5,3.5667742529223,5.81600005626678,0.640467161488946,2.60285034576314,0.27619046824319,0.553043346265297,1.77415042468807,1.8322193505358,2.40528059047854,110.570001840591,58.1600005626678,8.99904758589608,96.0257148231779,0.55238093648638,6.91857143810817,78.7085716128349,24.0661906514849,72.9814284727687,18.8542372026751,16.7486707210541,24.2129103871374,19.3709418074881,21.1971578446646,20.8470523735834,17.6115175917995,14.25368499546,9.92782470727663,15.7532256957023,18.6889998435974,23.4026282865202,26.349749969441,26.5938094911121,26.8606501324273,24.5722531696102,22.9174861617247,20.0059681545616,5.76483872628981,10.960000038147,12.0335911848343,16.1800782706558,16.6330158142816,15.9192033646599,13.1457407086605,11.2717777505092,10.1065058561854,6.14192830243868,8.3866030604193,10.6839465453898,13.5252167119854,13.7753985037319,13.6499871813553,11.5882146496872,10.4155272324174,9.10741430426533,0.598502302774086,0.966571422985622,1,1,1,0.999084662263501,0.956230826192702,0.830002500100802,42.45293025,-81.8827315,2017,"ONH2",3
"F42/OH43","NCH1_2018",16.9,731.12121286656,0,1.75,219.5,108.25,54.25,52.75,4.15774186772685,0,6.8526510433579,4.10157556488421,0.281428575515747,2.75396832528095,7.26591658308554,9.60671440533229,8.96361755184864,128.889997899532,0,78.7671440328871,125.545714974403,0.410714285714286,22.4842862997736,196.673573234252,49.1857148877212,277.872144107308,19.158143443446,24.8645596504211,15.1389765320633,19.3855829317864,23.1845893859863,19.6068392973098,18.3866491902909,15.5573578698295,15.5216169620989,22.4270968591013,23.6650002002716,25.0550478657399,28.9916256900428,32.2199997220721,32.775892872659,33.4127120673101,32.5722850436256,30.5373039641139,9.27290327318253,8.26250010728836,16.6308233901196,19.2143084718567,20.4371425083705,21.481061649701,22.4105254876566,22.8214047023228,21.5226957830965,9.38361003774443,9.71072245384455,13.0706373808512,16.1524192978687,18.3285711152213,19.12847726118,19.8345089714409,19.6705204899203,18.0563248308793,0.990449307151654,1,1,1,1,1,1,1,35.6667825,-78.492372,2018,"NCH1",4
"F42/OH43","MNH1_2015",18.9,725.97247193088,13.5,10.5,242,130.5,77,75,2.67645166525918,6.10285712991442,1.58721610445111,4.7077263256623,2.09382353109472,4.68577535931227,5.9350156688025,2.22326150676053,2.19878814463244,82.9700016230345,42.7199999094009,19.590000131551,155.007059007883,3.96529412269592,52.2323524741565,227.094708481256,20.9011769756017,67.401177584358,19.816934616335,15.8754692077637,21.6281845751118,20.6523619261065,17.2143456515144,21.1212332316686,17.7408483022691,14.5374503953005,12.0629753461599,17.4338709308255,22.6300002506801,27.2892179925706,28.4642367103754,28.3652941759895,28.0789971632116,26.1408952283773,24.7325950747879,17.9009570518097,4.56741930688581,13.7342856270926,14.30007362468,16.8971689663296,18.654117640327,16.1974599531415,14.7564351113732,13.5728072906729,6.63464769243789,6.28381609962703,10.8743797711898,13.2690560805916,14.8702380832727,15.6411451436446,14.3539204313244,12.9900637188381,12.4683668720892,7.55733067966644,0.72298386648366,1,1,1,1,0.97770300313998,0.878626049359361,0.7212296457923,44.07038575,-93.53519625,2015,"MNH1",5
"B73/PHN82","KSH1_2015",15.95,753.0033618432,0,2,229,110,83.5,82,0.688124985434115,3.51874988526106,2.53723953629,4.63432691532959,6.34078425052119,4.01351628490523,5.7530108742313,3.9555966203954,1.81791271000705,22.0199995338917,28.1499990820885,47.4017647645053,147.170588188312,9.16588230694042,38.1823524166556,161.646473025574,23.7470587141374,56.3552940102185,19.4891082793474,20.3406240940094,19.219587906801,21.3066410822441,18.0035172630759,18.8081848331526,18.6006693160364,17.8671807769968,18.7825362153026,17.6940625309944,22.9675002098083,19.8522148456821,29.3189279151369,29.1170587726668,31.416705766067,31.167606554856,30.5050588602445,29.9620492345242,3.2971874922514,8.93874996900558,8.79256136460572,16.998742995872,18.0970592872769,19.8498956119313,20.1377743985527,20.0328234533636,17.0683681091728,6.18473854158211,9.47623015774604,8.38152018909972,15.3881661623318,15.6169766258551,17.6554751493738,17.6555626478954,17.3245865439199,15.7567018294421,0.677812499559617,1,0.850138809291572,1,1,1,1,0.983045539709894,39.21641775,-96.60482225,2015,"KSH1",12
"PHW52/PHN82","NYH2_2015",18.95,731.12121286656,0,0.5,230,97.5,81,81,3.81419348716736,2.82285712872233,1.80687464064718,1.42731021803444,14.2888235414729,6.32315504578824,2.55376965419514,1.26365193106185,1.70374004988072,118.239998102188,39.5199998021126,23.5252946965835,50.9970583828057,17.8623529541142,65.181764351971,90.4317651794237,10.7135291695595,51.741176838384,19.2182718400032,21.5841055597578,20.449727981801,21.8367516954081,17.3406774857465,18.3494561837956,18.4942560396539,17.5562584893265,13.8421542156052,11.2690322399139,15.8607141801289,24.7088825241473,27.1276459421623,29.5805877984739,28.55383421546,27.7592287936526,25.1159408132569,20.7331866067697,0.676451598924975,3.06571428690638,12.6831775651528,14.1969225367383,19.4886272280824,17.6625777576059,16.1289941291772,12.0334676261278,8.79723978773028,3.45886115192018,5.52265389277054,11.6556514545085,13.2498793989069,16.5657765871038,15.1876617555856,14.1658090063591,11.5384579918693,8.73121619200604,0.261509218300405,0.568112238329284,0.971160734546202,0.994106254153331,1,0.999864887211071,0.980226590626446,0.898542130517671,42.7324825,-76.65277775,2015,"NYH2",5
"B73/PHN82","NYH1_2018",21,731.12121286656,0,1.5,234.5,114,68.5,66.5,4.39451605658377,1.63714293071202,0.546464292223061,3.46126588411801,6.06226183686938,4.33806171800409,2.06754098122778,1.17745675837538,2.35952765513126,136.229997754097,11.4600005149841,7.34000012278557,113.544999405742,14.9578569275992,45.2728574531419,83.6371432329927,15.502142767821,71.2850001624652,21.1490579728157,19.519095829555,22.5001219716587,20.4901431167549,17.3790955884116,18.6235723626046,17.5443773478498,14.4230900554,11.1133368383172,16.4383870170962,24.3471430369786,24.4808438545453,28.4079325010235,28.4709526243664,28.8555878403899,26.2557771614117,21.2173011281591,17.5372396540769,4.18161290259131,13.1842857769557,11.788045655175,16.0297059635046,18.1516667661213,17.5342846802303,14.3751012744368,9.64963466711058,6.53251005449173,6.04617210207382,11.820705170323,11.1899352886346,14.5077669174471,15.3522370327055,15.2644147770615,12.8637381038892,9.17978873289114,7.08420156946025,0.564688940665552,0.946581643454882,0.988804239637421,0.998335459706735,1,0.984010820924294,0.898581806826226,0.740508559242307,42.72940418,-76.65161667,2018,"NYH1",13
"PHN11_OH43_0001/PHB47","MIH1_2017",20.75,663.54398808576,0,6.5,106,51,63,62.5,2.65129033404012,1.64250004291534,0.365195355155368,3.68588979784018,0.0229824551364832,0.46297232149101,1.74576806741443,1.92419894727902,6.21584880662018,82.1900003552437,13.1400003433228,4.41789476338186,131.667893061512,0.0689473654094495,5.87157878122832,77.4078943196096,25.1578945925361,187.919470972136,20.7548004581082,19.5261926651001,24.4742989093836,19.8905510316777,21.9433432796545,22.1206047711906,17.4790874196007,14.7643136405382,9.64132186376111,18.9967743350613,22.1187500953674,26.4465225468316,27.4969315652497,27.7329823008755,27.824925694871,25.3738691139958,24.1007104170058,20.6398986734167,5.96129034796069,11.9187499284744,11.3631864125553,16.0503932975266,16.0887717866061,14.9625505184838,12.276571042592,9.93890341042346,8.93630907537408,7.30321713873745,10.0125802625948,11.8678501821976,14.0611352118072,14.116078975745,13.7509617648401,11.6765951301922,10.5934889835682,9.14877577769738,0.770126732675711,1,1,1,1,0.999072621356021,0.94927833355258,0.816440377467249,42.68116575,-84.49434125,2017,"MIH1",4
"W10004_0216/PHZ51","DEH1_2017",17.8,734.98276856832,0,9,258.5,143,68.5,69,2.91718745790422,6.20142868586949,3.00780289028715,3.51798387630548,1.21142852117145,1.63275129076034,5.21425936785246,11.3193468755605,4.88273070798553,93.349998652935,43.4100008010864,45.3457148869832,126.779048942384,1.26857137680054,15.4833330313365,157.85333279201,69.2480949220203,151.3147630578,17.0564796179533,17.7322864532471,20.7109648054357,19.5738604252989,19.1555669421241,20.8859280858721,18.2123717552112,18.1575605574108,16.5860739368814,20.2662499845028,24.6614287240165,21.7224504345482,26.8229896455589,30.3507143656413,30.3114816221611,30.695552993145,28.4309092143225,27.2970235560896,9.32593758031726,14.1957142693656,10.687522006195,16.7585521273381,19.9063490004767,19.8815078785811,21.2169032219805,18.721444546014,17.9144449122429,8.6904799528833,12.0840231421066,9.78793426930988,14.1243186804428,17.1548256791078,17.1405073545012,17.9479055635566,15.6354630937149,14.7461382337137,0.907287955683257,1,0.959736116003801,1,1,1,1,1,38.67025825,-75.4333645,2017,"DEH1",5
"TX714/TX779","TXH2_2020",18.3,748.176417216,0,2,210.82,72.39,67.25,73,2.28433333331098,0,4.62190601893642,2.98212486109347,1.65500000544957,6.6891140146517,2.89405669810805,2.6158928505012,2.52840013820821,68.5299999993294,0,55.8871426582336,111.366428869111,1.65500000544957,70.9185716084072,82.981430636985,12.8707142599991,76.1657138211387,13.9134384314219,13.3863348007202,15.0866111560474,19.803288917066,19.033588205065,19.2160028015896,19.6119811590575,21.5690046037946,17.9190584017934,20.0226665178935,27.1799999237061,26.5908877208556,26.4906358222245,29.807499840146,29.1309458846826,32.1753435797528,33.0040716307504,34.5761613763789,6.79433329502742,17.2040002822876,15.225541109216,13.6066640599696,17.9690478642782,16.6326781709129,20.7865935447495,19.7931782722473,24.1392358327242,7.90124714145222,14.2729251500305,13.3655726382532,12.7306893070716,16.0895726192153,15.1219271903472,18.3983196746893,18.3923998362645,20.4692781310852,0.821357143209094,1,0.992404767624491,0.993752440088375,1,1,1,0.999043315061226,30.53825625,-96.42790225,2020,"TXH2",2
"PHN11_PHW65_0323/LH195","ONH2_2017",25.15,857.90895840768,0,2.5,213.5,92.5,46,43,3.5667742529223,5.81600005626678,0.640467161488946,2.60285034576314,0.27619046824319,0.553043346265297,1.77415042468807,1.8322193505358,2.40528059047854,110.570001840591,58.1600005626678,8.99904758589608,96.0257148231779,0.55238093648638,6.91857143810817,78.7085716128349,24.0661906514849,72.9814284727687,18.8542372026751,16.7486707210541,24.2129103871374,19.3709418074881,21.1971578446646,20.8470523735834,17.6115175917995,14.25368499546,9.92782470727663,15.7532256957023,18.6889998435974,23.4026282865202,26.349749969441,26.5938094911121,26.8606501324273,24.5722531696102,22.9174861617247,20.0059681545616,5.76483872628981,10.960000038147,12.0335911848343,16.1800782706558,16.6330158142816,15.9192033646599,13.1457407086605,11.2717777505092,10.1065058561854,6.14192830243868,8.3866030604193,10.6839465453898,13.5252167119854,13.7753985037319,13.6499871813553,11.5882146496872,10.4155272324174,9.10741430426533,0.598502302774086,0.966571422985622,1,1,1,0.999084662263501,0.956230826192702,0.830002500100802,42.45293025,-81.8827315,2017,"ONH2",7
"B37/OH43","NCH1_2019",14.975,753.96875076864,0,1,218.5625,95.9375,60.25,59,2.19112902687442,0,0.107342030975845,4.77507323258167,0.466011907373156,4.53366071837289,6.24100047954245,2.370892843746,2.94129567493308,67.924999833107,0,1.3471428326198,143.414641141891,0.941785710198539,36.2692857469831,165.010000262942,13.542499933924,91.0282135435513,18.6945283182206,25.3012667338053,21.7738242823774,19.078931758161,22.5687620866866,20.7892764977046,19.2290380742896,18.9667955189335,16.7108737708237,25.6958062879501,28.7666660944621,32.2989134582725,30.0829447266695,33.3002377010527,33.8308033858027,32.7574178138121,32.0492754949193,30.7969182892695,13.3427419508657,12.1913332621257,19.0628058780323,18.6108973402873,20.5685118834178,21.2355805294854,21.0813141387738,19.9046463969613,19.7783264509544,12.1843668285043,13.3359738524393,17.6421634826888,16.3912677221001,18.883427458337,19.4407548098431,18.824781095651,17.9808021159142,17.3116109306789,1,1,1,1,1,1,1,1,35.67010175,-78.510504,2019,"NCH1",8
"B37/OH43","DEH1_2016",18.1,717.6057679104,0,3,256.5,115,76.5,73.5,2.70187503471971,7.43181821432981,3.8913443672194,3.01543568987816,5.35810598460111,2.45305554595861,7.02803129397506,2.62431810561455,3.19686020007931,86.4600011110306,81.7500003576279,66.3949995338917,101.616362200542,13.3345452438701,24.0222726382992,188.323178079995,15.0527268241752,98.5804540785876,18.330474331975,10.1000462011857,19.4097170760173,21.0293855949914,18.2505545182662,17.6465201137042,18.9446848277627,17.7865102970239,16.4444979187331,18.0900000035763,16.6009089730003,19.9020842077776,27.6764673780698,27.7968177506418,28.9030859032063,31.9137982464639,31.2181211240364,30.5716960682314,5.52968750568107,9.93090907010165,10.1128978635646,16.858989299231,18.0210605245648,19.7880051766983,21.9088104518459,21.6295759258848,20.1612733062994,6.82557737843557,7.64560586528393,8.60663778636783,14.4360322816611,14.984016447316,16.3761010057792,18.8554137385462,18.377489564845,17.3477874995971,0.726328134087713,0.729318175997053,0.99092985905268,1,1,1,1,1,38.6482025,-75.44606,2016,"DEH1",9
"B14A/OH43","NYH2_2020",18.4,706.66469342208,1,8,230.5,104.5,67,66.5,4.4222579925291,0,1.39173123579944,3.18235724693344,6.17088877360026,3.50790104135118,2.28349072361197,1.42691866419926,2.17217563357404,137.089997768402,0,18.6826673050721,113.270666055878,12.6093331019084,36.9826669931412,88.4693336625894,18.1466666658719,65.6160001913706,20.9426754428494,21.7824497138129,21.5566608507285,20.6432143634654,19.2778644667731,18.9298452936519,17.7688209270759,13.7796892350961,11.7049053949951,14.5544730601772,27.9497778235541,23.6293392760458,27.8654129678972,27.8868889702691,28.7867253702337,26.5330294770505,21.5667549297366,18.2050767358379,2.61195698992539,15.6643110571967,11.3557305522714,15.510257551595,16.3110002305773,17.4820829176662,14.5382635461397,10.8637773380053,6.87917712598825,4.97941532358752,14.0269723819236,10.7080110498196,14.0939234463352,14.2287908501232,15.2006731147438,13.0497103701591,9.74952242691145,7.38768080178657,0.470065284751573,1,0.969822941036728,0.995242037142797,1,0.988859641207354,0.904446401273676,0.765938607634747,42.73230075,-76.65036275,2020,"NYH2",5
"PHG39/PHN82","ONH1_2017",17.7,731.12121286656,0,2,229,110,65,64,4.42290318973603,4.90499987602234,1.54517322055995,3.42043524389027,1.69537500639757,2.59470000425975,1.85553477411666,1.54565171024702,2.38311134809945,137.109998881817,49.0499987602234,23.5260000944138,140.803499376774,5.37800000905991,36.4615000605583,95.2335010707378,29.8530000910163,72.442500063777,18.6566223482932,17.085453414917,23.1081316370623,20.1258676762395,18.1123231848081,19.448199154763,16.3365299663776,11.6220921499278,7.95773399619337,13.9432257683046,18.2070002555847,22.3568953625361,24.8004575461006,25.1718332052231,25.2296929018838,22.7939628290416,22.1395736741961,13.2953202319795,3.57838706624123,9.70699996948242,10.1038785092604,14.1218529553715,14.8234999100367,13.6326119545528,10.3904861973293,9.84747559454018,3.16628943898447,4.95821241247301,8.02589456270986,9.65909793089355,11.970962334223,12.3574061250221,11.983111058727,9.95345599460199,10.065401602519,5.27337575174164,0.439723497986244,0.877642858028412,1,1,1,0.972410901067044,0.840292505181159,0.515578472813697,43.49546,-80.42596875,2017,"ONH1",6
"PHG39/TX205","MOH1_2015",16.6,731.12121286656,0,1,225,120,78,79,3.91483872167526,3.00272724845193,2.70388340007172,5.64622626815722,2.26875001192093,1.18333334392971,4.73674408601423,1.74040179593222,3.6664919433214,121.360000371933,33.0299997329712,34.4199993312359,178.871247828007,5.86875003576279,10.6500000953674,140.261874556541,11.8831250667572,113.661250242963,18.8184669402338,18.8870315551758,16.929197347905,21.705914807588,15.7215426564217,19.9453006850349,18.4742217908113,20.1287302806264,17.0265389219407,18.2845160884242,18.0018183101307,23.7780545636798,28.9302828526302,29.8559374809265,31.7611801889208,30.4214076278912,28.5805001264527,28.4314314703788,5.85709682707825,7.50000006502325,15.2148777665246,17.6487962035776,21.6728123426437,21.4597915940815,20.2818253816477,17.0989999456065,17.2866936922073,7.06854431480445,7.30219313947649,11.971425794578,15.3979636076336,17.7643749117851,18.6104858915011,17.38069400277,14.991826945877,15.0531743909791,0.723283405334169,0.814935085835395,1,1,1,1,1,1,38.8965375,-92.20800417,2015,"MOH1",4
"PHG39/PHN82","OHH1_2018",19.05,751.07258399232,0,2,264,113,60.5,61,3.05677417785891,9.53750013560057,1.92245215695217,2.38556595674907,3.34214272669383,1.85442859956196,3.625787621808,3.10084683870783,2.00779800139905,94.7599995136261,76.3000010848045,21.7371432781219,80.4378575512341,3.34214272669383,18.5442859956196,121.764999406678,22.1535707201277,61.2907142341137,19.310954493861,14.6463572382927,20.7288559556382,20.9436693086695,19.275929587228,20.9564931665148,17.9981189438048,17.3717627612912,15.4204415030835,15.3341935065485,20.995000243187,26.650364354716,28.8199439363947,32.4107134682792,30.6609286444528,28.5308584151124,26.9473060413283,24.7343572410021,3.37612902667494,12.1462498903275,14.5593152200455,16.5731625301721,19.4942854472569,18.4749998637608,17.2472012352467,15.0398061766916,12.0534739418937,5.3571231101772,9.83224651797613,13.1348515939824,14.9051591007559,17.954011606361,16.5994179287508,15.0382231225639,13.3955586126324,11.4851366506539,0.534285711641702,0.92678571173123,1,1,1,1,0.999125000043791,0.970735544446526,39.85688825,-83.671225,2018,"OHH1",7
"B14A/MO17","ILH1_2019",17.45,750.42899137536,0,0,246,127.5,62.5,61.5,3.92290326087706,5.48166660467784,1.00366755026978,4.24469195298614,0.864761891819182,1.28937734611451,1.22741108088123,2.86464707421608,2.11607064787419,121.610001087189,32.889999628067,10.0178568235465,147.038572290114,1.34571427958352,11.7742857251848,45.424286284617,20.7057140384402,64.4999996210848,18.8014538057389,19.6532208124797,22.6739207193184,19.8427488119022,20.6112506503151,20.0231267023568,19.2803285422626,15.593443452501,14.9705618824278,19.7877418764176,27.4949998855591,27.6677106167,28.391751748966,31.9042863845825,30.8675330402875,28.5386960574539,27.7513351862122,26.642996194359,8.82258073745235,16.1166664759318,15.7380163212624,17.4414067467824,20.6435711043222,19.8174946769835,16.7183759585253,16.7475935139624,14.3837349186112,8.3928973982344,14.0110710173232,13.9335870022067,15.0880410930982,18.2842317301039,17.4039330210807,14.7898098558346,14.4511626176183,13.1086534994412,0.871382484238269,1,1,1,1,1,1,0.979387754708731,40.0587105,-88.2298385,2019,"ILH1",4
"2369/LH123HT","ARH2_2018",15.4,731.12121286656,0,2,207,105.5,67.5,66,4.52312493696809,5.87777773539225,3.20221045546513,3.22538419759111,0.461428574153355,5.07039669960264,1.70725153730848,1.54697617831684,1.91550691130524,144.739997982979,52.8999996185303,46.3228566646576,103.499284437725,0.461428574153355,45.6335702964238,42.6871420655932,7.34642852629934,59.3807142504624,17.754108697176,19.645527097914,19.5209714731691,20.0568442813419,23.807372706277,19.9782345332797,19.1297214036176,18.2548979571076,18.0559728640016,19.6187500059605,21.9200000762939,22.773456222744,28.907182961616,31.9800004959106,30.9839679929945,32.8413090722368,33.5659560339791,31.9039170577229,8.73406261950731,10.3477777904934,11.2877129581977,17.8543030688035,18.7064290046692,19.7554763460916,22.4826605422564,23.260513297879,21.2522349467475,8.30560135863556,9.42321555433479,10.2210790341996,15.520093271009,17.3523251398544,17.3798448246148,19.6186100549221,20.2782541977247,18.5368977813659,0.857433027720877,1,0.994106716733556,0.995975764430299,1,1,1,1,35.674241,-90.0749725,2018,"ARH2",8
"B37/OH43","MOH1_1_2020",16.7333333333333,731.12121286656,0.333333333333333,1.33333333333333,241.666666666667,94.6666666666667,57,54,2.76562495436519,8.11999974250793,10.4965665432202,1.90988591541756,5.80285712650844,7.41529583070873,3.69147555579874,2.29330189178664,3.40093086493501,88.4999985396862,40.5999987125397,96.79785660335,57.0957142966134,7.73714283534459,67.398571559361,118.8485709639,17.5292856608118,104.715713961848,18.7546628713608,21.2521137237549,22.4992353525235,20.3165893948899,20.846220720382,17.6863092529825,18.1247609809281,17.4629379813572,14.6415832693126,22.1865625679493,30.7699993133545,28.8654612498961,30.7246999845884,30.6222615696135,31.262532432358,28.6735263227042,29.5448009486396,24.3522503449254,12.2309375330806,19.2180004119873,17.3563651522358,20.0318803133021,19.4051194418044,21.453094976461,18.106764951949,17.5897200308714,12.913667504011,10.4179893534471,16.9939998626709,15.2134650030725,17.3995363981545,17.013690505709,18.3658920907666,15.5120526403147,15.801643365393,11.5681836400825,0.936383935755917,1,1,1,1,1,0.995985622640443,0.962870503946671,38.8978375,-92.2070925,2020,"MOH1",10
"LH74/PHN82","ONH2_2015",22.75,759.4392880128,0,1,260,133,79,79,1.8764516076734,4.28266668319702,1.92800543142355,1.5826126299147,10.8026474223417,1.92320858157255,3.11438839923848,4.29490191426152,2.35638896233292,58.1699998378754,64.2400002479553,23.6199996471405,57.2247065095341,21.6052948446835,21.155294397298,115.501765766565,31.5629407868666,72.1164696006214,18.9538011243266,18.7670978546143,21.1774380927546,22.4541887468383,20.0410301545087,18.4543581008911,18.4537391837158,15.8007825277989,13.3453952521331,11.1738709480532,14.384666633606,23.912001533754,26.6127938053419,30.1517652623794,27.6505346247219,26.7798692937751,25.8746404647827,20.7920556972632,2.00677422361989,5.63600003321966,13.6495024548441,15.646883458515,19.3264702628641,18.5181282879835,16.7469462265247,15.4972220963123,11.0305445628027,3.74293843582847,5.61712950522319,11.5306591381689,13.5235311876304,16.7854267763897,15.1342186639452,13.9515349469929,13.1846932018183,9.37660248979743,0.276970042748385,0.589690475094886,0.985132405558233,1,1,1,0.993019958754548,0.931831119234909,42.45408625,-81.8816065,2015,"ONH2",3
"CG60/LH162","MNH1_2016",16.75,731.12121286656,0,2,229,110,69.5,67.75,2.89322576407463,0.170000008174351,5.03042527209908,6.12170522401334,6.43858322699865,6.21095447112214,8.17923871751135,7.61717088871532,9.39474284643768,89.6899986863136,1.19000005722046,67.7949996709824,212.853000384569,13.6799997210503,65.1149991810322,295.599999034405,62.2075004458427,287.315494990349,17.8967360373466,26.286114011492,18.122651996026,20.2994832360595,15.8094130674998,17.8757813947851,16.9356863757804,15.2931511149142,12.1500887665185,17.5148386032351,25.4542857578823,24.5326991112838,27.6333701421214,28.1445000648499,28.7026912923293,27.1588718316529,24.8505404014058,22.530326319715,6.33838710765685,9.82428567750113,13.6815540208608,15.8141053471531,17.8242501338323,18.4263501505418,16.9297657858623,13.571238894951,11.5045660662643,6.87113486692201,10.9020425096258,11.6566452042554,13.9836924770311,15.0551188632125,15.6807639131871,14.2208678743316,11.8615305728452,10.2698260241427,0.73452764457684,1,1,1,1,0.999952476900843,0.987298810035877,0.93609264544991,44.06646925,-93.533648,2016,"MNH1",1
"PHW52/PHM49","ONH2_2016",21.15,725.97247193088,0,1,225,109,76,74,1.4354838748132,1.74083332717419,1.46380271581139,3.02268752387098,0.150999999046326,1.134659085057,3.04644667291448,1.69350377760537,2.7651166654242,44.5000001192093,20.8899999260902,18.8460003852844,117.159000921249,0.150999999046326,12.2534999370575,101.044499832392,13.1614999294281,84.2689999639988,19.7256392663525,22.197474638621,21.6895404820885,21.7736589642688,18.986648273468,19.926783043688,16.6990616557451,15.6815267119186,12.907202899033,14.1074193523776,17.5808333555857,26.0075868502758,26.0489445105545,27.7809998512268,28.7928724592382,28.2480381953381,25.9224786042651,23.7534801354972,4.25741936266422,7.13166666030884,15.038288106176,14.1477788974648,17.7269997119904,17.3392411925576,18.2467210190433,15.9549466693556,14.1752601318334,5.1313461369791,6.98684124280148,12.8511639495985,12.6517199671275,14.842964971112,15.2602720524723,15.3178202053561,13.2653460605469,11.6762118863421,0.511244241010895,0.799851208925247,1,1,1,1,1,0.97582928193879,42.4530035,-81.88279875,2016,"ONH2",7
"LH212HT/LH195","NEH3_2015",16.3,752.35976922624,0,0.5,229,110,65,64.5,3.23125005699694,0.918000030517578,0.565093977294324,1.28669219481814,3.19749999046326,1.39113635366613,0.258061220527439,1.47466718299048,0.155891338361218,103.400001823902,4.59000015258789,6.15000009536743,39.0474997758865,4.72000002861023,15.3024998903275,11.1799998283386,14.5287498533726,4.64812502264977,21.7912757396698,25.6944263458252,22.867254847038,21.8227166540337,15.2631763219833,20.5907900008288,20.0641284227863,16.2796896759308,13.5386177646183,24.2875001728535,32.6459999084473,30.5877144724061,32.6773132882273,28.9159377217293,29.872386563908,30.8070712705365,25.3903164518473,21.3201827481664,9.27874993439764,13.0079998016357,13.882863304929,15.7826582019676,17.055312037468,14.6271022883329,13.1831330674245,8.87540479026961,3.33401708582752,10.4625782483436,15.2833069114413,14.4546585187703,16.2200567809637,15.0938879027355,14.4964540010227,14.5302013640258,10.9003956474841,7.85174739566555,0.909587052451181,1,1,1,1,0.965712824155829,0.862507779461642,0.809539309558486,41.15824525,-101.9872958,2015,"NEH3",8
"F42/OH43","NCH1_2020",17.375,714.70960113408,7,0.75,231.875,109.375,65,64,3.81125003128545,6.58374977111816,1.87015070111794,7.59338454735375,0.884285699753534,2.63668646698906,3.33071338060501,6.12114287103925,7.32343316943415,121.960001001135,52.6699981689453,29.2835704556533,255.940713865416,2.6528570992606,23.4857139246804,94.0314286180905,30.3285714898791,227.026428252459,17.7931001186371,18.2030313014984,21.9031161387958,16.624104256889,22.7344187781924,20.9765385862381,20.5430953276098,18.1598880904061,15.6514139856611,21.6678124964237,23.2199997901917,23.3487043310554,27.0496421427954,28.21738079616,30.9563497626592,33.0704321677563,33.2972858973912,31.2465668471727,8.08281250484288,11.5312500596046,9.51933213031121,18.0966886080901,18.1914290927705,20.5856052201892,22.1124512970464,22.8580000468663,21.9105529499493,8.88590596036503,10.345445976376,9.896418392683,14.6940439801602,15.2496249982652,17.7688184726376,19.5031272394627,19.9903569790644,18.562087597318,0.935200902566846,1,0.995619772597503,1,1,1,1,1,35.30009892,-77.57131746,2020,"NCH1",6
"W10001_0022/PHB47","IAH1_2017",17.7,731.12121286656,0,2,229,110,65,64,3.40562492981553,4.9653845842068,4.75627611908435,1.83360658706262,3.81409099607757,2.22148488699788,3.67080832802223,1.81325483980117,2.34747311753145,108.979997754097,64.5499995946884,71.2827261577953,63.7872725833546,4.17772737416354,22.8386367667805,118.906818606637,13.7622724988244,72.0368181575428,16.1986516714096,17.4117801372822,18.8419865113308,22.0772261853777,19.5709462599321,20.6423577019663,19.6533487855188,19.1238258402757,16.8780910515948,17.1134373545647,15.3784616176899,22.9595167923024,28.098072667094,26.507423805468,30.2796059126806,29.7994892260695,26.9283494144291,26.376740509697,5.4131250269711,4.92307697809659,11.465490162608,14.1696252786347,11.6175757754933,16.6577523703527,16.6650409071547,13.3875722172112,12.4151066155028,6.53077833948335,5.76856381165309,10.4537021498713,13.7196511279626,11.9478337828281,15.6426259768559,15.399646170179,12.7123989246095,12.1737806011652,0.629988832066634,0.555054952155103,0.946458761983939,1,1,1,1,0.998130952344312,41.19924609,-91.49402296,2017,"IAH1",2
"LH195/PHZ51","IAH3_2015",19.25,728.54684239872,1.5,3,279.75,126.25,65,64,1.88812499120831,2.91357139178685,3.78481399490418,6.97192884345098,0,3.25750006437302,1.48738522759636,2.54144646929843,4.50744494696458,60.4199997186661,40.7899994850159,55.4399998188019,241.660000324249,0,32.5750006437302,50.3143747076392,24.6850003898144,138.775626681745,19.8017279356718,20.0399833406721,15.9141292010857,20.6828349141208,21.6913648645083,21.2442863583565,20.6378456393082,18.6830175797854,14.9219848873154,14.6418750584126,16.6814285005842,21.6371087993342,27.6137224668604,30.8788542747498,30.3035624980927,28.5962540049038,28.5165626687663,24.3338990757542,0.832500039599836,3.60071423649788,12.2454287241307,16.0517815224708,19.4736456473668,18.1100625455379,15.9931958270939,14.3037321656942,10.6490121472687,4.60513154837493,5.78749983119766,10.114657753447,14.1164012039241,17.1762499610583,16.2539166939567,14.5767076625307,13.9758338636144,10.8754278827313,0.501462055137381,0.634540812549542,0.981270752987184,1,1,1,0.968879462565695,0.933929792194543,41.97585629,-92.24291804,2015,"IAH3",2
"TX779/LH195","GAH1_2018",15.505,763.107765929472,0,2,192.5,130,64,63,4.23124991450459,1.93499994277954,5.57546423139444,3.80102721408996,1.06785716329302,3.25619050056215,3.93224686575623,3.81685705866132,2.68502302543359,135.399997264147,11.6099996566772,76.7957134246826,135.018569469452,1.51642860685076,29.3057145050594,107.19214289529,19.0842852933066,83.2357137884412,16.891305744648,18.8303790092468,19.9789378987127,20.3262259893163,17.1663663727897,17.4750944924733,19.9805820305679,18.7765754699707,18.3549691213441,25.6268748044968,28.5650002161662,25.4642801168346,27.9641718628224,30.5753573008946,30.5485713292682,31.9994496950806,33.0712854930333,33.6833643056281,12.7006249800324,14.4699996312459,11.3598847335803,14.2730199772345,20.4792857851301,20.4244442742968,20.683989012522,21.8254284177508,22.3090554821876,11.9929111910296,13.9163936520453,11.3353404179938,13.6365222515622,17.5273215430123,17.4865078017825,18.3396781460675,19.3698555277453,19.8838856953605,0.988973218681557,1,1,1,1,1,1,1,31.50582525,-83.55515025,2018,"GAH1",4
"W10005_0107/PHB47","KSH1_2016",16.1,762.01365848064,0,2,165,55,93,93,0.381562503054738,5.59374988079071,9.0311369591709,3.98190999396102,0,0.897724768782806,5.01142138710802,3.32242425282796,5.67007326271352,12.2100000977516,44.7499990463257,140.950907804749,148.509091756561,0,8.37409110773693,139.43863695589,19.9345455169678,175.772271144119,18.4331542551517,14.0458284318447,18.3461373797249,20.8844651238299,22.7032874280756,20.5944180136979,18.3498667163808,18.1537938724865,17.325101912546,19.1512499600649,21.7012498378754,22.3390124406673,27.1937706264094,36.3127268877896,35.1754003625928,32.0107843193833,33.8563335245306,30.7689589111686,2.13062504353002,11.4649999141693,9.56823857872411,14.2621367966756,21.5872724706476,22.0435392319554,20.7806130140041,22.7113486636769,19.4913931130664,6.31585730010902,9.66729101728267,9.62689037894436,13.3541884288908,19.5659910681005,19.143975364632,18.068246454854,19.1205473197881,17.0374461461811,0.741573662447211,1,0.9212797776386,0.98604226771574,0.991287871402522,0.998977630941292,0.993550001780192,1,39.14480675,-96.62898225,2016,"KSH1",4
"PHW52/PHN82","MNH1_2020",27.3,723.39810146304,2,0,231,109,70,67,0.94300509867826,6.54607305060729,4.14035912753596,4.70748763912835,0.452236840599462,2.54351275702983,5.92890111667188,4.27061504377344,2.50108778318406,29.2331580590261,64.9010543540904,50.6168419938338,155.384736988105,0.714736844363965,28.6173683906856,219.299474794614,34.3447376494541,76.9310546087983,20.8351621174448,15.7339994616729,19.7482846720118,20.9752267105361,19.7857435502504,20.2008613357514,18.410630506817,15.8353278990905,12.8477663152691,15.7084550036336,18.5315520479183,25.8284042289769,28.495260522451,29.9249994378341,28.2199240924829,26.5218522585541,25.9398792816591,19.7406792160144,2.26123937792406,9.18620770652177,13.9924403556009,16.6828678833046,19.344474052128,16.9052831803402,15.0937764647406,14.3091431196277,8.59321732280189,5.3706805778496,7.95338430636633,12.4659637890829,14.7786587119029,16.6623657697956,14.7511618456846,13.2528818768791,13.0175246736152,8.66613029209796,0.62261399417653,0.838417993402521,1,1,1,0.988450437108742,0.930664219656181,0.78075899295554,44.06907839,-93.53263028,2020,"MNH1",6
"B14A/MO17","WIH2_2017",22.65,733.6955833344,0,2,278,156,78.5,79.5,5.04870961558434,4.63666661580404,1.14238357494139,5.76385788548466,8.00159072875977,6.16004860362449,1.60777643285742,1.16772651324412,2.25755526788773,156.509998083115,41.7299995422363,17.5799998044968,219.396364270963,12.1440906524658,74.0409079194069,72.28863683072,15.0440909293565,68.0204556950114,18.1690344041394,19.7204955418905,20.6472768327282,20.2328798799047,19.1316367929632,19.3749324300072,18.5140157590327,14.9334047713424,10.8947823268053,16.0312902696671,21.8655554453532,22.157460706825,26.5968914308851,27.900455012466,26.7679925429357,24.7306206922626,22.3853339347559,20.5127478068356,3.24419354046545,8.79111109839545,9.55349760092549,14.5433731880084,16.8103789199482,15.3783115840061,12.1927125768691,9.1932024860582,7.86886657741529,5.43821820192816,9.20913123615215,9.45120310694411,13.0570841123019,14.516823010886,13.3761072292611,11.3130637266799,9.68633375424708,8.85311395885718,0.624158990547954,0.847976183134412,0.950288767513294,1,1,0.998699911088751,0.954544861800485,0.834596302261351,43.3246415,-89.33688775,2017,"WIH2",5
"F42/H95","GAH1_2018",15.355,650.479057961472,0.5,2,217.5,107.5,62.5,60.5,4.23124991450459,1.93499994277954,5.57546423139444,3.80102721408996,1.06785716329302,3.25619050056215,3.93224686575623,3.81685705866132,2.68502302543359,135.399997264147,11.6099996566772,76.7957134246826,135.018569469452,1.51642860685076,29.3057145050594,107.19214289529,19.0842852933066,83.2357137884412,16.891305744648,18.8303790092468,19.9789378987127,20.3262259893163,17.1663663727897,17.4750944924733,19.9805820305679,18.7765754699707,18.3549691213441,25.6268748044968,28.5650002161662,25.4642801168346,27.9641718628224,30.5753573008946,30.5485713292682,31.9994496950806,33.0712854930333,33.6833643056281,12.7006249800324,14.4699996312459,11.3598847335803,14.2730199772345,20.4792857851301,20.4244442742968,20.683989012522,21.8254284177508,22.3090554821876,11.9929111910296,13.9163936520453,11.3353404179938,13.6365222515622,17.5273215430123,17.4865078017825,18.3396781460675,19.3698555277453,19.8838856953605,0.988973218681557,1,1,1,1,1,1,1,31.50582525,-83.55515025,2018,"GAH1",6
"B14A/H95","NEH4_2015",14.7,792.90610409472,0,2,245,120,65,58.5,2.82187503576279,0,3.66820742352442,2.01257690040973,1.95124995708466,2.65489388379184,1.68415826157898,0.190010424756578,1.16607996679602,90.3000011444092,0,33.8900003433228,59.0468759536743,1.95124995708466,28.0499994158745,59.1787505969405,1.40187505632639,35.0974998101592,18.8422000855207,27.3106449127197,20.4134253279729,20.5286281482927,19.0307229757309,18.813031223326,18.3382655918127,17.1540727261986,12.6848920344665,24.0143752396107,30.7939994812012,29.6609177177603,30.9071284124221,30.8125007152557,28.6515303485321,29.5029241370045,26.7377680846623,20.9326217885139,13.3584374412894,15.5979997634888,18.4981334997849,19.2687880079637,20.2603126764297,17.3435890080351,16.2431668454296,11.0441755558763,7.09840123026522,11.803427087215,15.4488743735817,16.1431025443756,17.0943625526438,17.5373660088698,15.1870260704456,15.2510618169068,11.8830325749214,8.61837553606536,0.931774556370718,1,1,1,1,0.972846510346512,0.98414434868665,0.784438609048873,41.16732275,-96.41663225,2015,"NEH4",8
"CG44/CGR01","OHH1_2019",17.425,712.7788232832,0,0,248.5,117,56,55.25,4.52187501639128,5.60142850450107,9.49218418812764,3.67767790493084,1.56571434225355,0.385974026345587,1.86530509479137,1.65904762083981,1.75173883737507,144.700000524521,39.2099995315075,109.352857010705,105.492856400354,2.90714296272823,4.24571428980146,67.7371422350407,11.4071428733213,52.9257135008063,18.8840596526861,17.4926710128784,16.8400286458912,20.3390746061215,18.2435736315591,21.9239106364064,17.3234712965801,16.4353543187485,12.6882473915586,23.6978123784065,23.0442856379918,25.9338769538436,30.6462611406935,27.2342853546143,29.1364936828613,27.6347160934714,28.4020578731485,24.227758823928,12.3731250613928,13.0142856325422,16.5405247622919,19.1537767425904,17.2985715184893,16.61116872515,15.6873998226323,14.4186055400745,10.1522703877059,11.0978151065421,10.856451580884,13.4108578189607,16.9524907944801,14.3911883936558,15.002149715115,13.9211580533092,13.8157455840743,10.7664966885892,0.952522322535515,1,1,1,1,1,1,0.923664696824271,39.85685125,-83.67122475,2019,"OHH1",6
"F42/MO17","TXH1-Early_2018",9.95,717.6057679104,0,2,243.5,85,72.5,70,2.44233329544465,0.878333330154419,4.91741256001052,2.91095925044977,1.11232141086033,5.98734766325737,3.09403364827696,2.44530950245403,2.57365667705529,73.2699988633394,5.26999998092651,55.2178573012352,113.372142612934,4.44928564344134,64.3635703495571,86.7278586477041,13.6771427350385,77.3578569974218,13.4988632996877,14.4915455182393,13.9248534838171,19.6618496048866,19.3908269973028,19.6418435904543,19.3841029346057,21.21373351415,18.0125832346727,19.6893333117167,26.9583333333333,25.6661437272963,26.5699684543749,30.2423808461144,29.1437299615549,31.9180543268285,33.2644761993771,34.5116055384576,6.35766667922338,15.039999961853,15.1375581486321,13.6905545931612,18.240714152654,16.4484343575537,20.6307032285911,20.5015473865327,23.9749401441184,7.6135705722337,13.4071560355566,12.8752807062941,12.7953613694417,16.3441020747261,15.0664778975255,18.2123343788981,18.7591973934278,20.4060627549583,0.821476193552925,1,0.991620594691275,0.994086429913331,1,1,1,0.999013392447937,30.546318,-96.4329965,2018,"TXH1-Early",5
"PHN11_PHW65_0323/LH195","NEH4_2015",14.95,791.6189188608,0,2,255,115,65,59,2.82187503576279,0,3.66820742352442,2.01257690040973,1.95124995708466,2.65489388379184,1.68415826157898,0.190010424756578,1.16607996679602,90.3000011444092,0,33.8900003433228,59.0468759536743,1.95124995708466,28.0499994158745,59.1787505969405,1.40187505632639,35.0974998101592,18.8422000855207,27.3106449127197,20.4134253279729,20.5286281482927,19.0307229757309,18.813031223326,18.3382655918127,17.1540727261986,12.6848920344665,24.0143752396107,30.7939994812012,29.6609177177603,30.9071284124221,30.8125007152557,28.6515303485321,29.5029241370045,26.7377680846623,20.9326217885139,13.3584374412894,15.5979997634888,18.4981334997849,19.2687880079637,20.2603126764297,17.3435890080351,16.2431668454296,11.0441755558763,7.09840123026522,11.803427087215,15.4488743735817,16.1431025443756,17.0943625526438,17.5373660088698,15.1870260704456,15.2510618169068,11.8830325749214,8.61837553606536,0.931774556370718,1,1,1,1,0.972846510346512,0.98414434868665,0.784438609048873,41.16732275,-96.41663225,2015,"NEH4",8
"PB80/PHZ51","WIH2_2016",18.9,785.1829926912,0,24.5,289.5,148.5,63,63,2.18548383155177,6.56333343187968,3.44709445848626,4.12469378805335,6.70715902429638,6.1588801108116,5.9452931370305,1.65427351296643,4.75874244467604,67.7499987781048,39.3800005912781,44.4554541761225,149.271818908778,18.9127270525152,63.8631812875921,228.761364199898,17.1177273826166,143.160909706896,20.0716181416665,17.6468149820964,20.4812055398289,20.037160747392,21.0009714148261,18.7397162859105,16.3191195187663,14.9467084400859,10.3303758997605,18.3467741935484,27.6566664377848,25.5962674903388,27.3504729025317,29.4464014732476,29.1534918075751,26.7093807853849,24.2132901889739,20.3726808053147,4.8400000141513,15.2516667048136,12.4366041874811,15.2184635103349,16.1839015628352,17.8104753683421,15.2982692422456,12.0891496999401,9.53777032181792,6.76617685026666,13.679230162364,11.7742945200385,13.6256578041453,15.0809804038395,15.5695050800475,13.3573766462884,11.1053684800171,8.84996703908283,0.729688938724281,1,1,1,1,0.998061417783429,0.979766621647087,0.886131911688794,43.32649075,-89.33882925,2016,"WIH2",3
"TX951/LH195","ONH1_2015",42.2,712.45702697472,0,0,250,137.5,94,94,1.60562500171363,2.29631582059358,1.4114260910993,1.97329795371468,0.512941168803795,3.43676916784781,2.64103540530206,1.79995381645545,2.36057120934647,51.3800000548363,43.6300005912781,20.3011770318536,73.5029410351725,0.818823519875022,40.7335294695461,103.936472787577,19.5847062696429,71.148825086215,18.0216946154833,20.4737019036946,23.3400709093662,22.6454399715782,20.2406537486058,18.0725441178749,18.6044729913646,14.2275523091565,12.219208949974,9.77156253159046,12.6347369143837,23.7578119012338,26.8344168593777,29.9094126084272,27.4692824860095,26.1197207542336,22.8220175470625,18.3525084633076,-0.327500017825514,2.04526315237346,11.0134760611429,13.3191988703222,17.4331371830959,16.5032930170151,14.0677575161805,11.6957219533643,7.01371468782571,2.85121172458945,4.201400589021,10.6771310509359,12.7739998184956,15.7658975270033,14.1503260638498,12.635773860967,10.4824980569175,7.37915990096047,0.167098218209243,0.403345873929504,0.957007130525896,0.991950294097347,1,0.994472793880519,0.939113043318717,0.77236656111447,43.49741975,-80.44806025,2015,"ONH1",3
"LH195/PHN37","MNH1_2016",21.6,731.12121286656,0,2,229,110,67,65.5,2.89322576407463,0.170000008174351,5.03042527209908,6.12170522401334,6.43858322699865,6.21095447112214,8.17923871751135,7.61717088871532,9.39474284643768,89.6899986863136,1.19000005722046,67.7949996709824,212.853000384569,13.6799997210503,65.1149991810322,295.599999034405,62.2075004458427,287.315494990349,17.8967360373466,26.286114011492,18.122651996026,20.2994832360595,15.8094130674998,17.8757813947851,16.9356863757804,15.2931511149142,12.1500887665185,17.5148386032351,25.4542857578823,24.5326991112838,27.6333701421214,28.1445000648499,28.7026912923293,27.1588718316529,24.8505404014058,22.530326319715,6.33838710765685,9.82428567750113,13.6815540208608,15.8141053471531,17.8242501338323,18.4263501505418,16.9297657858623,13.571238894951,11.5045660662643,6.87113486692201,10.9020425096258,11.6566452042554,13.9836924770311,15.0551188632125,15.6807639131871,14.2208678743316,11.8615305728452,10.2698260241427,0.73452764457684,1,1,1,1,0.999952476900843,0.987298810035877,0.93609264544991,44.06646925,-93.533648,2016,"MNH1",4
"F42/H95","IAH3_2019",22.35,724.04169408,2,1.5,229,109.5,65,64,2.87967741873956,8.32583327094714,8.51498268664919,3.93025379619713,0.537380945114862,2.30548409999363,2.30643291365225,9.35084180503475,5.38576807027222,89.2699999809265,99.9099992513657,122.184284857341,140.485713907651,1.61214283534459,22.5078568799155,97.5699995500701,77.3099997895105,164.0414292046,18.1142603966498,18.1443339188894,18.3413321123021,20.201027617392,20.300838129861,21.1054272636535,19.1415173112962,15.0396348400181,12.8306827393911,16.6003224618973,18.1858332951864,22.2454307275236,27.0961160085109,28.6041666212536,30.1634999048142,27.5966134857582,25.6273498156714,23.1327250613961,3.49709678080774,6.01583334803581,10.9452180639278,15.708069757536,18.1813099157243,18.4487380724105,15.5540504778692,14.1479336357171,12.0451344325606,5.80312239518703,7.04880735416509,9.97752924339372,13.7421048026589,15.4370156630591,16.3669887817759,13.8976006035477,12.4340048497443,10.9470109781651,0.634539169100572,0.718095231978666,0.92633768065977,1,1,1,0.993248299575176,0.897879883262644,41.97593131,-92.24310603,2019,"IAH3",7
"B37/H95","MOH1_1_2020",14.2,731.12121286656,2.33333333333333,0,244,98.3333333333333,59.6666666666667,57,2.76562495436519,8.11999974250793,10.4965665432202,1.90988591541756,5.80285712650844,7.41529583070873,3.69147555579874,2.29330189178664,3.40093086493501,88.4999985396862,40.5999987125397,96.79785660335,57.0957142966134,7.73714283534459,67.398571559361,118.8485709639,17.5292856608118,104.715713961848,18.7546628713608,21.2521137237549,22.4992353525235,20.3165893948899,20.846220720382,17.6863092529825,18.1247609809281,17.4629379813572,14.6415832693126,22.1865625679493,30.7699993133545,28.8654612498961,30.7246999845884,30.6222615696135,31.262532432358,28.6735263227042,29.5448009486396,24.3522503449254,12.2309375330806,19.2180004119873,17.3563651522358,20.0318803133021,19.4051194418044,21.453094976461,18.106764951949,17.5897200308714,12.913667504011,10.4179893534471,16.9939998626709,15.2134650030725,17.3995363981545,17.013690505709,18.3658920907666,15.5120526403147,15.801643365393,11.5681836400825,0.936383935755917,1,1,1,1,1,0.995985622640443,0.962870503946671,38.8978375,-92.2070925,2020,"MOH1",12
"B37/MO17","TXH1-Early_2018",14.05,729.83402763264,0,2,246,104,72,70,2.44233329544465,0.878333330154419,4.91741256001052,2.91095925044977,1.11232141086033,5.98734766325737,3.09403364827696,2.44530950245403,2.57365667705529,73.2699988633394,5.26999998092651,55.2178573012352,113.372142612934,4.44928564344134,64.3635703495571,86.7278586477041,13.6771427350385,77.3578569974218,13.4988632996877,14.4915455182393,13.9248534838171,19.6618496048866,19.3908269973028,19.6418435904543,19.3841029346057,21.21373351415,18.0125832346727,19.6893333117167,26.9583333333333,25.6661437272963,26.5699684543749,30.2423808461144,29.1437299615549,31.9180543268285,33.2644761993771,34.5116055384576,6.35766667922338,15.039999961853,15.1375581486321,13.6905545931612,18.240714152654,16.4484343575537,20.6307032285911,20.5015473865327,23.9749401441184,7.6135705722337,13.4071560355566,12.8752807062941,12.7953613694417,16.3441020747261,15.0664778975255,18.2123343788981,18.7591973934278,20.4060627549583,0.821476193552925,1,0.991620594691275,0.994086429913331,1,1,1,0.999013392447937,30.546318,-96.4329965,2018,"TXH1-Early",4
"B14A/OH43","NCH1_2019",17.7,731.12121286656,0,2,229,110,65,64,2.19112902687442,0,0.107342030975845,4.77507323258167,0.466011907373156,4.53366071837289,6.24100047954245,2.370892843746,2.94129567493308,67.924999833107,0,1.3471428326198,143.414641141891,0.941785710198539,36.2692857469831,165.010000262942,13.542499933924,91.0282135435513,18.6945283182206,25.3012667338053,21.7738242823774,19.078931758161,22.5687620866866,20.7892764977046,19.2290380742896,18.9667955189335,16.7108737708237,25.6958062879501,28.7666660944621,32.2989134582725,30.0829447266695,33.3002377010527,33.8308033858027,32.7574178138121,32.0492754949193,30.7969182892695,13.3427419508657,12.1913332621257,19.0628058780323,18.6108973402873,20.5685118834178,21.2355805294854,21.0813141387738,19.9046463969613,19.7783264509544,12.1843668285043,13.3359738524393,17.6421634826888,16.3912677221001,18.883427458337,19.4407548098431,18.824781095651,17.9808021159142,17.3116109306789,1,1,1,1,1,1,1,1,35.67010175,-78.510504,2019,"NCH1",6
"B37/MO17","DEH1_2019",20.925,700.87235986944,0,6.5,239.75,111.25,58.75,57.5,4.88548383405132,0.129999995231628,2.22754366008185,2.83887974343054,7.0926190557934,13.0900794286577,2.37605914671847,7.24609516660372,5.29133873076483,151.449998855591,1.16999995708466,29.4199992418289,87.7514276163919,13.3278571537563,117.810714857919,70.1764280796051,38.8228567923818,163.760714939662,18.0942263295574,22.5275441275703,19.0983295645176,21.1054939145839,16.8799242519197,18.3868353404696,17.4379090753706,14.476434816633,15.1882209444193,17.4912903078141,20.5577778286404,23.0837453456724,28.6110288519394,30.7033335821969,31.5357142251635,31.9663629076681,30.1067382585435,28.4413756884737,7.04516128955349,9.18444446722666,14.3005087701308,18.3414932581405,20.743333589463,21.7011906154572,22.6829330156982,22.0334762732188,19.5725390395811,6.99216838650998,8.73551017725078,11.4143050106146,15.6056687045059,17.7112297913015,18.5929650565741,19.2590150034337,18.0735423865727,16.1304203541944,0.769815655759952,0.948412698885751,0.988507503793619,1,1,1,1,1,38.670675,-75.433225,2019,"DEH1",5
"W10004_0216/PHZ51","ILH1_2016",16.2,741.41869473792,0,2,287.5,127.5,75.5,73.5,2.97690523692196,4.38840902691538,2.26653606655233,5.61207630954248,2.38484847184383,3.5965513070917,3.31235071929027,4.35749997459836,4.79379031928375,93.7199998497963,46.3549993336201,33.4606812819839,180.417726646093,4.62886360558597,41.7338635867292,104.141365719112,28.3243180147626,148.202045347203,18.8248824135911,16.772414523905,21.3206123477011,20.186536070862,20.742345383673,18.0798104173881,18.8666988996862,17.8581825314146,16.0768072129811,18.0508114395122,19.2020452456041,23.0422996986406,29.4229266243166,27.9030872836257,26.9731781198959,29.6021857332558,29.1593882944677,28.1759287739546,4.96004029539143,8.5312726020813,10.4507586023432,17.100495052534,15.9971779440389,16.8488147764823,19.4105485847029,18.8438310752183,17.0974068698762,6.7812351246955,7.96926780707668,10.1711916616246,15.4161417086623,14.2957979847463,14.1538489170388,16.5199597663553,16.0495125310087,14.8445893652738,0.666766271376172,0.897956158588459,0.946860721270467,1,1,1,1,0.999883116813965,40.0607245,-88.2338815,2016,"ILH1",6
"F42/MO17","NCH1_2016",14.05,731.12121286656,3.5,9,238,136.5,65,64,2.90156245231628,3.1257141658238,7.13790793537677,4.68303443912438,4.31772709976543,0.863030289158677,5.22628340706996,5.10418182503093,4.50766866787438,92.8499984741211,21.8799991607666,91.8631831515919,160.77363422513,8.49772692810405,8.49545440890572,139.931818181818,26.1277273243124,139.737728704106,16.3685781806707,22.2713846479143,15.4949862283056,18.7284907802807,21.8793197978627,21.8664798996665,18.529991999807,18.05675721891,17.3265616131668,20.861250013113,25.5857140677316,25.6894626938102,27.1054564010764,30.2031816569242,31.055969704522,32.4242385211894,33.5976670091802,33.2603517739304,7.69218749413267,8.21285721233913,14.2700391136405,16.0730002825544,18.0268178419633,18.8016968052797,21.2796372022056,22.6219093149359,22.7218181954101,8.38342182115148,10.4398532157701,12.4646866942302,13.955992978898,16.1716004230384,16.9972748117641,18.8316059181804,19.9805669981395,19.8669778055321,0.913761163346602,1,1,1,1,1,1,1,35.30015175,-77.57127825,2016,"NCH1",6
"PHW52/PHM49","ONH2_2019",26.55,673.455314386944,0,23,249.5,112,57.5,55,3.14874995499849,1.70714281286512,2.88478878582076,4.44773275651569,0.559615387366368,2.38131568065973,1.59106214821635,2.96387361569317,2.69305606778773,100.759998559952,11.9499996900558,28.2407691662128,155.597694811913,1.39846153901174,27.5169231799933,83.6784609051851,41.8892305951852,82.5030758701838,19.6654808521271,22.323328426906,21.1459014041639,19.5390308172258,19.2147134634165,16.2444364531594,13.8092693178142,11.1541441922889,7.41587626159587,21.2543748617172,24.3300001961844,28.1206539538635,27.659403107452,26.5880771050086,26.077726198008,22.1992560806981,19.8977064041247,9.54949914399213,11.3362499326468,14.4399998528617,17.9479147188671,17.4548671138241,16.3180770874023,16.9592551594127,13.1325379725634,10.9534959742334,1.83470634407937,9.51581683305432,11.9253960701515,15.1221785585939,14.6984840520084,13.6236651087795,13.694452367005,10.6453631912323,9.34459481385867,3.45337100836876,0.985803572194917,1,1,1,1,0.939863719862613,0.838029256830481,0.289255913067737,42.45221275,-81.881844,2019,"ONH2",8
"TX951/LH195","NCH1_2015",21.1,731.12121286656,0,0,237,135,65,64,3.01406249962747,9.69285692487444,3.04330832410036,7.00027835031834,0,3.41134798604678,2.88671641131125,10.3153333224502,6.56176467005171,96.4499999880791,67.8499984741211,47.4647058125804,233.853526101393,0,30.1217642391429,80.4405882078059,53.9476469544803,203.414704771603,18.5664188563824,18.5514960970197,20.3873328310438,17.1836904295842,24.3925100214341,21.0362960372875,20.3018930406527,17.2717840606091,15.5850313791061,22.3831250071526,24.9499999455043,23.1803462918337,27.4024498932643,31.8211766411276,31.7674348182928,33.3084592700098,33.2296859142827,31.1603984543223,8.59218750149012,12.5099998201643,10.485350050131,18.4028683148743,19.9205883250517,21.4626141077553,22.3400113714156,22.6128236359241,21.9246869403904,9.28512769721026,11.4677352876307,10.1580144688938,14.9923900224101,17.8708824830897,18.6065247653655,19.7182694534911,19.8442286940319,18.5353187927943,0.955334819055029,1,0.995809597891475,1,1,1,1,1,35.29657708,-77.5664625,2015,"NCH1",4
"PHG39/PHN82","DEH1_2018",21.05,715.996786368,0,2,178.25,87,67,65.75,3.41322579499214,4.72454556551847,2.00775327918751,2.76062415391978,0.287142855780465,8.86277766454787,3.9158652312497,4.93358162276599,5.97197165156839,105.809999644756,51.9700012207031,28.2621423006058,90.3585697838238,0.861428567341396,79.7649989809309,101.102142018931,26.3792856761387,184.740002146789,18.2473833330216,20.3033478476784,18.9606146470246,21.1924231312641,20.3949074972244,18.857703663054,17.7348203831473,14.4784469860752,15.0837273726632,17.38161277771,18.2845456383445,22.0146909227081,28.1479547134017,32.2871426173619,31.6823014910259,32.0928691179815,30.4210680254463,28.7979001527192,6.70387100404309,7.41363637013869,12.8585797691042,17.9749757557002,22.0019048963274,21.3199205701313,22.7642059419863,22.2614113645489,20.2152603631745,6.82571116473102,7.36638381566628,10.3838574094334,15.2115811688111,19.1075311123214,18.4785044144811,19.3587997645324,18.3420426743588,16.5827432526275,0.7816013778959,0.839058448354919,0.98942529531986,1,1,1,1,1,38.65164475,-75.44913625,2018,"DEH1",8
"LH74/PHN82","WIH2_2020",25.2625,711.1698417408,0,2.125,238.875,114.25,68.5,66.375,1.1422580634394,7.375000166893,3.77260581252768,4.52814362453003,15.9141182057998,3.015240613152,2.84839565074973,6.55966530763758,3.07398353471626,35.4099999666214,73.7500016689301,42.9699998795986,163.85058797107,31.017648192013,33.167646744672,117.769998585477,59.8417637593606,94.4582346818026,20.7395305633545,16.0435289859772,21.2335467472143,21.5809324497532,19.013702953563,17.8857325232603,19.3201351466252,13.5754002692457,12.272545038289,13.5699999486246,18.9109997749329,26.0938682995642,28.2322474952916,29.4664707183838,27.7542245528277,27.0932210297011,24.8050967536966,19.0018905391654,0.762580661163215,9.39699988365173,13.9989215824361,14.995891181738,17.745293897741,17.4980746284526,14.228931024336,13.2921105861382,7.45939913371709,4.17689721425512,8.10798713911043,12.6867740438147,14.0244437879696,15.6641148886257,14.7079063257275,13.2058895334275,12.2696061473378,7.83396025684224,0.443168195200578,0.881928566523961,1,1,1,0.990384734248417,0.880973436890861,0.780679990755404,43.294786,-89.383968,2020,"WIH2",4
"CG119/CG108","GAH2_2017",15.4,729.19043501568,11.5,2,214.5,118,50.5,50.5,5.21580650729518,2.5900000504085,0.877047008250183,6.97642455518673,36.6657152743567,11.6899047257408,2.7666341943209,6.71771433921087,5.23728113098445,161.690001726151,18.1300003528595,10.9880953289214,219.498574256897,69.630001999083,116.642856779553,77.5566674754733,33.5885716960544,162.355715060518,18.5937584292504,20.9798694338117,21.9819358919917,18.5456761912278,14.3399090085711,17.7663424007476,19.7852386843795,18.8635498507493,17.5761632626324,25.9351613444667,24.1757144927979,30.4733941834677,29.3125237180294,29.5290477389381,29.7298041853324,32.7260150193597,32.1051154233971,30.7678495222522,12.1722579925291,9.93857138497489,16.1532482752429,18.0635315609615,20.4347616377331,19.5111429658516,21.2099278742435,20.8635237298044,19.9554377788772,11.9095461609865,10.3853811467122,15.4565539701251,15.7524985099092,16.9819046883356,16.6341283702326,18.9016913140486,18.4715566451785,17.4124163797098,0.999631334559709,0.985714284741149,1,1,1,1,1,1,33.727145,-83.29821525,2017,"GAH2",4
"B73/PHM49","TXH1-Late_2018",11.35,734.98276856832,0,2,264.5,108,61.5,62.5,3.5793750025332,7.22999986012777,0.880950212466032,3.39399650565147,5.74642871958869,3.61914694878968,3.45560049644284,0.428285707746233,2.2787097211807,114.540000081062,43.3799991607666,11.7107142976352,109.309285019125,11.4928574391774,35.4171440643924,87.1585709388767,2.14142853873117,70.6400013566017,15.1890550404787,16.9814987182617,20.4111461997292,19.9987621572639,15.8160833404178,20.1152116011059,19.5823012089101,16.3941785948617,18.6152318413906,25.4215626120567,25.4816667238871,24.9240564974382,29.8609676759365,30.5592857315427,31.1110338370005,33.471735544548,33.678570665632,35.6292394646851,13.7340625077486,14.7233331998189,12.1417448389526,16.9768337518894,21.1738096872966,19.9290791380973,21.6003019523645,24.8844285964966,24.5352535247803,12.2487610557836,12.9546326020938,11.4732109690061,15.6369768953886,17.8686949252443,17.4931939916305,19.3485664524142,20.6305847067263,20.9047458821383,0.995234378746578,0.961607143992469,1,1,1,0.999944235746723,0.999152383350191,0.99903341174675,30.546318,-96.4329965,2018,"TXH1-Late",7
"LH82/PHB47","IAH4_2015",17.7,702.80313772032,68,3,217,70,65,64,1.42451612026461,4.85461551409501,2.51366814388176,6.35112741860021,5.46999979019165,2.15468744138877,1.85099418012837,0.335758933997048,4.06477020181796,44.1599997282028,63.1100016832352,35.58999979496,218.239999890327,10.9399995803833,20.3081244528294,58.4868740737438,2.37750003859401,125.114376250654,19.8399788794979,19.2877280528729,16.0227039780687,20.6982291705844,17.2771818637848,21.3583117332723,20.173035647804,19.5936077237129,15.6142427020175,15.8303226194074,16.787692290086,22.2616416304594,27.8872542261576,29.3799998760223,31.527847079436,28.6989534201586,30.1840446931975,25.4683327571038,2.47354838888972,5.02461542532994,13.4828078946313,16.5986873437933,20.3737498521805,19.7862846771876,17.3729821147223,16.8951585807971,12.6851404789395,5.3186939130858,6.22884723842383,10.7829124536012,14.4752906425735,16.8768748641014,17.6605473898843,15.1814165620107,15.7121042559737,12.0590735738697,0.585391697096145,0.659230776868024,0.989944130014561,1,1,1,1,0.952600636395888,41.19970961,-91.49362406,2015,"IAH4",4
"PHW52/PHM49","OHH1_2016",19.9,744.63665782272,0,4,256.5,114.5,65,64,4.32806446475368,1.77600002288818,3.91514520817277,2.58074065911205,3.89075762575323,4.1704949600528,5.07906928910772,3.9577419347548,3.61459481407063,134.169998407364,8.88000011444092,44.703636136922,85.9177285974676,9.33045467463407,39.9481819326227,160.185453747484,27.6977266587994,110.118636226112,18.3437643974058,22.2428304672241,20.7314695601022,20.3598251803728,19.1523341554584,18.8282464220066,16.7204849062197,17.9873095465335,14.717978926255,19.6358064528435,29.6320003509521,26.5695358893096,28.5926358759461,29.5910605517301,30.6928383605649,29.2168918167121,28.2718868666116,26.3058832172308,8.12096774674231,16.8959997177124,14.973912901117,16.7052856168403,18.3031819083474,19.7444342603587,18.9160148979259,15.4450083848343,13.402624611054,8.11765705231608,15.3272200928741,13.170280569172,14.8167815407942,15.9685705423992,17.2330323566172,16.1171316077875,14.2150247381021,12.5845870964483,0.859331788177589,1,1,1,1,1,0.999172077691259,0.989049277132183,39.860924,-83.6755995,2016,"OHH1",9
"PHW52/PHM49","TXH1-Early_2018",13.9,739.48791688704,0,2,231,85,71.5,72,2.44233329544465,0.878333330154419,4.91741256001052,2.91095925044977,1.11232141086033,5.98734766325737,3.09403364827696,2.44530950245403,2.57365667705529,73.2699988633394,5.26999998092651,55.2178573012352,113.372142612934,4.44928564344134,64.3635703495571,86.7278586477041,13.6771427350385,77.3578569974218,13.4988632996877,14.4915455182393,13.9248534838171,19.6618496048866,19.3908269973028,19.6418435904543,19.3841029346057,21.21373351415,18.0125832346727,19.6893333117167,26.9583333333333,25.6661437272963,26.5699684543749,30.2423808461144,29.1437299615549,31.9180543268285,33.2644761993771,34.5116055384576,6.35766667922338,15.039999961853,15.1375581486321,13.6905545931612,18.240714152654,16.4484343575537,20.6307032285911,20.5015473865327,23.9749401441184,7.6135705722337,13.4071560355566,12.8752807062941,12.7953613694417,16.3441020747261,15.0664778975255,18.2123343788981,18.7591973934278,20.4060627549583,0.821476193552925,1,0.991620594691275,0.994086429913331,1,1,1,0.999013392447937,30.546318,-96.4329965,2018,"TXH1-Early",10
"PHG39/TX205","WIH2_2016",22.8,812.21388260352,0,2,296.5,155,66,67,2.18548383155177,6.56333343187968,3.44709445848626,4.12469378805335,6.70715902429638,6.1588801108116,5.9452931370305,1.65427351296643,4.75874244467604,67.7499987781048,39.3800005912781,44.4554541761225,149.271818908778,18.9127270525152,63.8631812875921,228.761364199898,17.1177273826166,143.160909706896,20.0716181416665,17.6468149820964,20.4812055398289,20.037160747392,21.0009714148261,18.7397162859105,16.3191195187663,14.9467084400859,10.3303758997605,18.3467741935484,27.6566664377848,25.5962674903388,27.3504729025317,29.4464014732476,29.1534918075751,26.7093807853849,24.2132901889739,20.3726808053147,4.8400000141513,15.2516667048136,12.4366041874811,15.2184635103349,16.1839015628352,17.8104753683421,15.2982692422456,12.0891496999401,9.53777032181792,6.76617685026666,13.679230162364,11.7742945200385,13.6256578041453,15.0809804038395,15.5695050800475,13.3573766462884,11.1053684800171,8.84996703908283,0.729688938724281,1,1,1,1,0.998061417783429,0.979766621647087,0.886131911688794,43.32649075,-89.33882925,2016,"WIH2",5
"PHN11_PHG47_0251/PHB47","KSH1_2016",13.8,783.89580745728,0,2,180,80,91,91,0.381562503054738,5.59374988079071,9.0311369591709,3.98190999396102,0,0.897724768782806,5.01142138710802,3.32242425282796,5.67007326271352,12.2100000977516,44.7499990463257,140.950907804749,148.509091756561,0,8.37409110773693,139.43863695589,19.9345455169678,175.772271144119,18.4331542551517,14.0458284318447,18.3461373797249,20.8844651238299,22.7032874280756,20.5944180136979,18.3498667163808,18.1537938724865,17.325101912546,19.1512499600649,21.7012498378754,22.3390124406673,27.1937706264094,36.3127268877896,35.1754003625928,32.0107843193833,33.8563335245306,30.7689589111686,2.13062504353002,11.4649999141693,9.56823857872411,14.2621367966756,21.5872724706476,22.0435392319554,20.7806130140041,22.7113486636769,19.4913931130664,6.31585730010902,9.66729101728267,9.62689037894436,13.3541884288908,19.5659910681005,19.143975364632,18.068246454854,19.1205473197881,17.0374461461811,0.741573662447211,1,0.9212797776386,0.98604226771574,0.991287871402522,0.998977630941292,0.993550001780192,1,39.14480675,-96.62898225,2016,"KSH1",3
"TX779/LH195","MNH1_2020",36.55,686.06972967936,0,0,263.5,147,83,80,0.94300509867826,6.54607305060729,4.14035912753596,4.70748763912835,0.452236840599462,2.54351275702983,5.92890111667188,4.27061504377344,2.50108778318406,29.2331580590261,64.9010543540904,50.6168419938338,155.384736988105,0.714736844363965,28.6173683906856,219.299474794614,34.3447376494541,76.9310546087983,20.8351621174448,15.7339994616729,19.7482846720118,20.9752267105361,19.7857435502504,20.2008613357514,18.410630506817,15.8353278990905,12.8477663152691,15.7084550036336,18.5315520479183,25.8284042289769,28.495260522451,29.9249994378341,28.2199240924829,26.5218522585541,25.9398792816591,19.7406792160144,2.26123937792406,9.18620770652177,13.9924403556009,16.6828678833046,19.344474052128,16.9052831803402,15.0937764647406,14.3091431196277,8.59321732280189,5.3706805778496,7.95338430636633,12.4659637890829,14.7786587119029,16.6623657697956,14.7511618456846,13.2528818768791,13.0175246736152,8.66613029209796,0.62261399417653,0.838417993402521,1,1,1,0.988450437108742,0.930664219656181,0.78075899295554,44.06907839,-93.53263028,2020,"MNH1",5
"B37/OH43","IAH1_2019",30.3,651.95932098048,0,2,190,80,65,64,8.15718757361174,0.753333350022634,7.31557737378795,1.14438907355141,0.212857144219535,0.731688292769643,3.10367980083365,5.185721734979,4.91897999248289,261.030002355576,4.5200001001358,87.3064272063119,32.2664281300136,0.212857144219535,8.04857122046607,121.503570373569,46.3999997164522,147.939998852355,18.0190464556217,22.72114833196,18.5386832301204,20.8461719391544,19.2009373846508,21.9142898522414,16.4832458017069,14.2334940540468,11.0087876791229,22.3099999427795,27.5299997329712,24.5261778894118,31.4481277966288,28.6304760887509,29.4787013190133,27.1100269740106,25.007314114315,20.465771880493,10.9306250140071,14.9633332888285,14.9168448304933,20.0276676596814,18.3645236378624,16.3407141202456,15.6768667145032,13.067469943752,9.59281948388693,10.1177915198658,13.5813792925954,12.0903962382799,17.7390317751967,15.5681627046477,15.0835359367902,13.708186378737,12.1429510521349,9.38787554144245,0.87926339437919,1,1,1,1,0.994329881257634,0.928985237406225,0.79775290707702,41.1992562,-91.4941418,2019,"IAH1",11
"B37/OH43","NYH2_2018",21.025,688.676279778048,1,13.5,208.75,103.75,69.5,67.75,4.15290321265497,0.855714253016881,1.31693108037102,2.05687731597006,18.6071429092304,4.17142207984413,1.79646054057165,3.7134592103056,2.00191168391851,128.739999592304,5.98999977111816,17.5049994406956,73.5107148954911,37.6500000993588,45.137142878558,70.0178583988122,34.8200002163649,60.5300002843142,20.6438379902993,23.734383719308,20.979802756266,21.2837364687676,15.7229437487466,18.2684387615749,18.5091505369441,13.7748191949597,12.8345781276578,12.8280644647537,24.7271431514195,24.7677545588972,27.6010100898047,28.9642853736877,28.5122726960616,26.9105002489963,24.0160674085693,19.6655860562055,1.45225804755765,10.4899997711182,13.0755966585126,14.8719080974443,19.0864286082132,17.4819285981067,14.9501351065933,12.8073849135839,7.86512439486738,4.11302762674546,10.7452289392157,11.828471820398,13.7492806797528,16.0509662796631,15.0657523924464,13.3718144658096,11.4287385087198,8.14411924534505,0.351670501693603,1,0.973410203661018,0.995047280170266,1,0.991140912992252,0.940533101368687,0.821942421986262,42.72611075,-76.65530175,2018,"NYH2",12
"CG44/CGR01","IAH3_2017",15.95,763.94443633152,0,2,229,110,65,64,4.15375001356006,4.4766666730245,3.4047203572685,2.20734772714641,0.783636364069852,2.62827690366871,1.89268759309194,2.32887627154288,1.79425708641638,132.920000433922,67.1500000953674,54.0395462729714,78.3386354229667,1.5672727281397,28.0268186547539,71.8554548783736,19.050454611128,54.6954545270313,16.1449318900704,17.7512798945109,18.8930383212172,22.0798596418591,20.5492319916234,20.9938448555213,19.8185231453598,17.2291948925967,15.6432695544943,15.8431249856949,15.5066665013631,21.4265257838852,27.7149819965626,28.4552275339762,29.9007438281351,27.6545797965623,25.6472085203787,25.1376095450402,4.41906251013279,4.14133334358533,9.7822950630621,13.5652693310904,16.0590146888386,16.6123347960228,14.8096001989659,12.7460062737417,11.2819135157885,5.81888047108444,5.62230390959762,9.38713007160935,13.2881535043606,14.425618602213,15.384310503314,13.6587126105144,11.8979604849715,11.2922363413291,0.568604913274092,0.570380948412986,0.879734313174242,1,1,1,1,0.979205627165315,41.9758706,-92.24318881,2017,"IAH3",7
"LH74/PHN82","WIH1_2017",17.7,731.12121286656,0,2,229,110,65,64,3.89483860231215,1.69400000274181,3.49156577965838,6.2519143171591,26.2978026361176,12.3515148027377,1.78262104808487,1.03121945111417,2.01941396652895,120.739996671677,16.9400000274181,60.7700004577637,238.208635676991,55.4840900247747,148.218177632852,77.271818082441,11.1354542618448,60.745454186743,17.960097635946,21.5698625564575,18.7158230082745,20.7331612703905,19.6944010185473,19.5872614094705,19.1692292014325,15.6915139185436,12.2199858597646,16.0345162114789,20.211999797821,20.2299808812544,26.7106026620157,27.0055303284616,27.1642803278836,24.808088372499,24.0364187930535,21.8450449974554,3.37838715026456,6.26000000238419,9.26856570777133,14.6662764981358,15.355757669969,16.2110985698122,13.1758958125295,11.5252111876034,9.50942962348574,5.50743496208047,7.7204112419547,8.66460263667967,13.1489127920754,13.4606804243422,13.904384596596,11.6785635653614,10.9014606457238,9.60826542273389,0.606900931675039,0.87353569992951,0.867893568108202,1,1,0.99822024159571,0.971647402783493,0.89569217047159,43.05668125,-89.5308135,2017,"WIH1",5
"B37/MO17","WIH1_2019",25.4,686.71332229632,0,0,270,142.5,80,80,3.10419357784333,4.99090914292769,3.98920662549874,5.06363266413622,7.17410234304575,5.65778887364623,3.97949085463652,4.11797166752897,7.04355999802981,96.2300009131432,54.9000005722046,56.4653849074474,184.967692155104,7.65615360553448,56.9199983019095,170.604614062951,43.341538381118,211.846154779196,19.3280051139093,20.4798962853172,21.1458576062267,19.9408146892547,20.4834896967961,19.0017179792578,17.7048067848719,14.7075956148864,11.1326062354694,14.4303226009492,19.6027271964333,23.7118626418456,26.5439932262088,29.1737174987793,29.5182899630709,25.9977532118412,22.1012555477932,19.2220794107448,3.04419357449778,6.37545462088151,11.9064976497962,15.0265328184469,17.4678201919947,18.4264638023777,14.7831372601031,11.2484903147107,9.42963116005236,4.97487523770926,7.49736964439653,10.7580109567202,13.2666390890037,15.4222728670387,16.0334344717331,12.801516016577,10.1287512075045,8.73034007736801,0.520449311090505,0.882272728851863,0.994529142515775,0.999440504080004,1,0.998245341608072,0.929327890439505,0.792629622344668,43.060857,-89.494068,2019,"WIH1",6
"LH212HT/LH195","OHH1_2017",19,744.63665782272,0,2,229,110,65,64,4.40193544664691,12.2957145145961,4.29988011636302,6.25204526150179,18.3629999076327,4.89239555808631,3.19531729304598,3.431958171936,3.79468875169434,136.459998846054,86.0700016021729,53.6394991636276,223.820499566197,40.8649998873472,50.2680010676384,124.096999973059,30.9940001368523,115.432001267374,19.0647902027253,19.0342750549316,21.0022649127082,20.1503275418602,19.6955542882284,18.8958009767532,18.6983791102966,16.0400154962856,13.8551068441073,20.4790323934247,25.431428364345,25.2400270438728,27.2580381755079,28.0954167842865,28.7327046767148,26.3045644702003,24.6939537054533,24.2572073293261,8.01193550132936,13.4499996730259,12.5988240944101,15.9167310176739,16.7535833597183,18.3982409451225,14.9768818892318,13.115358865932,11.8128440258155,8.40722803270821,12.106521996237,11.6372129301586,13.8931373004777,14.6377478966591,15.6322437267281,13.0725287527822,11.6601203930959,11.1333327080566,0.85352534955273,1,1,1,1,0.996926047829299,1,0.964956739838543,39.855785,-83.66477375,2017,"OHH1",9
"F42/OH43","TXH1_2020",10.5175,719.85834206976,0,2,205.105,58.42,69.5,68.25,2.28433333331098,0,4.61353044432774,2.94980638849668,1.36294118095847,6.7410564637935,2.84486909263784,3.82908822368173,2.301094230755,68.5299999993294,0,55.9705880389494,110.798823826453,1.36294118095847,71.5223531162038,82.3205902821877,18.9735293598736,69.2911760666791,13.9134384314219,13.3863348007202,15.088164375906,19.7933785915297,19.4813054589664,19.2417072595335,19.7711375744947,20.7945973003612,17.9149533192166,20.0226665178935,27.1799999237061,26.6081594159341,26.5247929322772,29.3961763568953,29.1298912438196,32.2266945953012,33.0307648490457,34.5951133136882,6.79433329502742,17.2040002822876,15.2455437040242,13.6535979675367,17.2968629762238,16.6133713076813,20.7334833408845,20.0616762385649,24.2403706907095,7.90124714145222,14.2729251500305,13.3803758475957,12.7673898940848,15.580090070985,15.1112637437017,18.3989215931754,18.5370137273102,20.5020201130472,0.821357143209094,1,0.992435039560276,0.993791593664641,1,1,1,0.999042533455884,30.53781575,-96.4283715,2020,"TXH1",7
"PHN11_PHW65_0323/LH195","MNH1_2019",31.55,678.9902108928,1,5.5,247.5,95.5,68.5,66,5.30124999210238,3.47599983215332,3.60299378627318,6.92957115427657,0.665000021457672,5.49479165176551,5.26307022404481,5.62118794891682,3.21881721081833,169.639999747276,17.3799991607666,52.0374994277954,225.572501003742,0.665000021457672,65.9374998211861,237.316251464188,64.0400005728006,97.0975001901388,20.0842315778136,23.2336845397949,18.8906272807902,19.1063209647488,20.6643508672714,19.8986852665742,15.0132103211517,12.5741625363823,8.93122793448869,18.8415625393391,30.0759998321533,22.6451724673558,27.8446755981407,25.9343744516373,26.9881248474121,23.6397081757986,22.6739672911093,11.5065174453361,7.59031248651445,16.4659999847412,13.0671384378346,17.8515840394576,15.2050002813339,15.8895832598209,13.3964084402092,11.7388528195551,1.69308199473627,7.6900194806172,15.3684929006174,10.6019980821293,14.9363235224757,12.8914050476525,13.69019131122,11.2618925569911,10.7198729254511,4.44753291503672,0.811763394823564,1,1,1,1,0.985092269101156,0.878346273590444,0.404429721362895,44.0664117,-93.52500471,2019,"MNH1",9
"PHB47/PHZ51","DEH1_2017",16.65,716.31858267648,0,9.5,248.75,128,66,65.75,2.91718745790422,6.20142868586949,3.00780289028715,3.51798387630548,1.21142852117145,1.63275129076034,5.21425936785246,11.3193468755605,4.88273070798553,93.349998652935,43.4100008010864,45.3457148869832,126.779048942384,1.26857137680054,15.4833330313365,157.85333279201,69.2480949220203,151.3147630578,17.0564796179533,17.7322864532471,20.7109648054357,19.5738604252989,19.1555669421241,20.8859280858721,18.2123717552112,18.1575605574108,16.5860739368814,20.2662499845028,24.6614287240165,21.7224504345482,26.8229896455589,30.3507143656413,30.3114816221611,30.695552993145,28.4309092143225,27.2970235560896,9.32593758031726,14.1957142693656,10.687522006195,16.7585521273381,19.9063490004767,19.8815078785811,21.2169032219805,18.721444546014,17.9144449122429,8.6904799528833,12.0840231421066,9.78793426930988,14.1243186804428,17.1548256791078,17.1405073545012,17.9479055635566,15.6354630937149,14.7461382337137,0.907287955683257,1,0.959736116003801,1,1,1,1,1,38.67025825,-75.4333645,2017,"DEH1",1
"F42/OH43","NCH1_2015",18.7,731.12121286656,0,0,241.5,119.5,65,64,3.01406249962747,9.69285692487444,3.04330832410036,7.00027835031834,0,3.41134798604678,2.88671641131125,10.3153333224502,6.56176467005171,96.4499999880791,67.8499984741211,47.4647058125804,233.853526101393,0,30.1217642391429,80.4405882078059,53.9476469544803,203.414704771603,18.5664188563824,18.5514960970197,20.3873328310438,17.1836904295842,24.3925100214341,21.0362960372875,20.3018930406527,17.2717840606091,15.5850313791061,22.3831250071526,24.9499999455043,23.1803462918337,27.4024498932643,31.8211766411276,31.7674348182928,33.3084592700098,33.2296859142827,31.1603984543223,8.59218750149012,12.5099998201643,10.485350050131,18.4028683148743,19.9205883250517,21.4626141077553,22.3400113714156,22.6128236359241,21.9246869403904,9.28512769721026,11.4677352876307,10.1580144688938,14.9923900224101,17.8708824830897,18.6065247653655,19.7182694534911,19.8442286940319,18.5353187927943,0.955334819055029,1,0.995809597891475,1,1,1,1,1,35.29657708,-77.5664625,2015,"NCH1",8
"TX777/LH195","IAH1_2020",22.8333333333333,731.12121286656,0.166666666666667,3,229,110,65,64,1.68806450597702,6.19600019454956,3.07937370009497,6.53305792599394,1.27142855099269,2.67326977555714,1.85421064008438,0.708456623919156,3.75561601346081,52.3299996852875,61.9600019454956,37.2349991798401,213.622142757688,2.19857137543815,25.9085708005088,60.1178565110479,6.01214278170041,115.372858315706,19.46953176683,15.0466018676758,20.6424708637148,20.3159834913117,21.992077418736,21.0955225202772,19.7297913964658,19.804555562767,15.1169259092225,15.8729031931969,18.7070004463196,25.7217689451961,28.5067430861476,31.9299994877407,30.8792140748766,28.6114739112471,29.3732770515948,24.6307950130622,3.3483870948755,9.75300015211105,14.6592933360598,17.3863334611218,19.8571428571429,19.2884919363355,17.2726116483618,15.4681903785589,11.8318310619754,5.55848579964145,8.12545645677116,12.6575733793141,15.0980196558132,17.8935711724418,17.0907883427003,15.1212185598445,14.7539709043416,11.4769448256727,0.621440085247674,0.927035726393972,1,1,1,0.99851414246496,0.992713008729779,0.918334154475424,41.19774214,-91.48767072,2020,"IAH1",3
"B73/TX779","TXH1-Late_2018",11.4,758.79569539584,0,2,241,97,63,62.5,3.5793750025332,7.22999986012777,0.880950212466032,3.39399650565147,5.74642871958869,3.61914694878968,3.45560049644284,0.428285707746233,2.2787097211807,114.540000081062,43.3799991607666,11.7107142976352,109.309285019125,11.4928574391774,35.4171440643924,87.1585709388767,2.14142853873117,70.6400013566017,15.1890550404787,16.9814987182617,20.4111461997292,19.9987621572639,15.8160833404178,20.1152116011059,19.5823012089101,16.3941785948617,18.6152318413906,25.4215626120567,25.4816667238871,24.9240564974382,29.8609676759365,30.5592857315427,31.1110338370005,33.471735544548,33.678570665632,35.6292394646851,13.7340625077486,14.7233331998189,12.1417448389526,16.9768337518894,21.1738096872966,19.9290791380973,21.6003019523645,24.8844285964966,24.5352535247803,12.2487610557836,12.9546326020938,11.4732109690061,15.6369768953886,17.8686949252443,17.4931939916305,19.3485664524142,20.6305847067263,20.9047458821383,0.995234378746578,0.961607143992469,1,1,1,0.999944235746723,0.999152383350191,0.99903341174675,30.546318,-96.4329965,2018,"TXH1-Late",4
"F42/H95","MIH1_2019",27.25,724.04169408,18,14.5,250.75,136.5,72,70.5,3.72032261471594,6.18999987840652,7.08189690006846,2.96191688400863,8.70871785970835,0.913986012652204,1.81721631743115,4.46805386621966,4.01325090748622,115.330001056194,49.5199990272522,106.890000159924,93.8269234987406,16.8199998415433,10.8061538292811,84.3607687308238,63.3192304020318,120.886153043033,19.3198693644616,19.659396648407,18.5197910648149,21.0044455619677,17.0154062173305,20.0474262743285,16.9686392658752,12.0289328686849,10.8756886384412,17.6070966566763,21.672500371933,22.6907490026934,28.9340565953721,30.5653851582454,27.9492195425056,26.0065468645292,21.5026069405808,17.4653024474005,6.21032255887985,10.3187500834465,12.2184779380965,16.8660470129547,18.7433329973465,15.8530651856136,14.0059099463102,11.3257615513,7.16116346403536,6.87677389559506,9.31438263555815,10.3976173052964,15.104532747528,16.8626129686687,14.1939107322347,12.5855318269076,10.0060636582943,7.51165680343827,0.696382483441709,1,0.995173883167682,1,1,0.988904737193903,0.895422602144151,0.709438731296917,42.70789125,-84.4706665,2019,"MIH1",8
"LH195/PHN37","NCH1_2017",16.5,731.12121286656,0,2,229.5,107,65,64,5.92935477918194,4.0971428326198,0.297958701828474,3.8605887218635,6.67380964188349,5.43709003925323,2.5136726855367,1.67758050992105,4.1404608350745,183.80999815464,28.6799998283386,4.0233332543146,115.819522829283,10.9095240093413,51.8457151651382,65.1576194422586,9.6885714899926,128.354285887309,16.8479611796717,19.660787991115,22.200774141109,19.2039608935909,15.7724910842048,20.5483989412822,18.7994722996277,19.2660637939868,16.4083516821151,26.0700000639885,23.5785715920585,28.1701127560743,29.7261436573129,31.0140472896515,30.4881481291756,32.5472167507523,31.9569590380403,30.4313824649231,13.6406452425065,11.251428263528,15.697578023226,18.8753639802544,22.5767457295978,19.8479362164856,22.2803962481536,21.2748593008167,20.8135023424702,12.5644242151493,10.4878498696085,14.2666594933888,16.3604491100229,18.7994083488786,17.2114406625619,19.3855749588707,18.573365725773,17.6526987585521,0.998329492208595,1,1,1,1,1,1,1,35.29663725,-77.5668065,2017,"NCH1",5
"B37/MO17","MIH1_2016",20.95,699.58517463552,0,10,229.5,123.5,64,63,3.21387092721078,0.372000002861023,1.27766823751149,2.07214459371672,0.20476189870683,2.3826363414913,6.27786691564838,3.12959525082612,4.11573424348527,99.6299987435341,1.86000001430511,16.7785713445573,74.4033328010922,0.614285696120489,24.3414283479963,217.368091578285,23.8857143783853,123.581428226261,20.0448123255084,22.6962894439697,22.5746065354076,21.1906692752228,19.6251171808394,19.4147049585978,17.4353601100157,14.1652357247952,12.412394394877,17.7432258052211,29.2099998474121,25.5794776543011,28.1508514012466,27.2354765089731,30.3278356370472,28.2729452857857,26.6388532040611,22.5021940360482,5.29967743350613,16.3360000610352,11.9036117370239,14.7044761053872,15.7457937664456,17.5267100049304,16.2551167156484,15.5865084050104,10.8682508092492,6.61582777611151,14.8990897437943,11.6236597478117,13.829435271034,13.7090853107975,16.0158399076304,14.4864957883775,13.4826500001342,10.0912945511251,0.734400921702934,1,1,1,1,0.999987732756559,0.993265589821636,0.936590208093553,42.41206675,-84.2952625,2016,"MIH1",7
"TX777/LH195","DEH1_2015",19.4,709.23906388992,0,0.5,269,130,65.5,64.5,2.877187483944,6.84800000190735,1.65812227065002,2.89981113868033,0.533124998211861,6.39805544084973,4.54206526084818,4.66633341695581,5.69481861783612,92.069999486208,68.4800000190735,26.8631244525313,94.403749205172,0.778750002384186,57.5824989676476,115.858124211431,26.7362504601479,176.53937715292,18.0978914797306,17.2013893604279,20.1115188355204,21.0089776981854,21.5349248051643,19.2473051614232,17.7019111319721,15.0562807784194,15.1484673523134,16.8265626430511,19.2440000534058,20.7237695406926,27.6889034218542,31.5665628314018,31.8635417355431,32.09465687106,30.4336400264785,29.0939515059994,6.26593750482425,9.85899999141693,10.7453803031313,17.6787637613727,20.387500166893,21.3565970261892,22.772206074744,22.282508844421,20.5664716151453,6.52196032901766,8.41291476735724,9.22995774812798,14.8599372331721,17.9770314991474,18.5817073937474,19.3617069706047,18.3580744354498,16.8673674529789,0.750435272946821,0.870857151065554,0.962682183853112,1,1,1,1,1,38.62935675,-75.4656925,2015,"DEH1",4
"CG60/LH162","ONH2_2017",17.025,755.89952861952,0,4,220,107,56,55.25,3.5667742529223,5.81600005626678,0.640467161488946,2.60285034576314,0.27619046824319,0.553043346265297,1.77415042468807,1.8322193505358,2.40528059047854,110.570001840591,58.1600005626678,8.99904758589608,96.0257148231779,0.55238093648638,6.91857143810817,78.7085716128349,24.0661906514849,72.9814284727687,18.8542372026751,16.7486707210541,24.2129103871374,19.3709418074881,21.1971578446646,20.8470523735834,17.6115175917995,14.25368499546,9.92782470727663,15.7532256957023,18.6889998435974,23.4026282865202,26.349749969441,26.5938094911121,26.8606501324273,24.5722531696102,22.9174861617247,20.0059681545616,5.76483872628981,10.960000038147,12.0335911848343,16.1800782706558,16.6330158142816,15.9192033646599,13.1457407086605,11.2717777505092,10.1065058561854,6.14192830243868,8.3866030604193,10.6839465453898,13.5252167119854,13.7753985037319,13.6499871813553,11.5882146496872,10.4155272324174,9.10741430426533,0.598502302774086,0.966571422985622,1,1,1,0.999084662263501,0.956230826192702,0.830002500100802,42.45293025,-81.8827315,2017,"ONH2",2
"TX951/LH195","IAH3_2015",25.4,719.53654576128,23,0,265.5,152,65,64,1.88812499120831,2.91357139178685,3.78481399490418,6.97192884345098,0,3.25750006437302,1.48738522759636,2.54144646929843,4.50744494696458,60.4199997186661,40.7899994850159,55.4399998188019,241.660000324249,0,32.5750006437302,50.3143747076392,24.6850003898144,138.775626681745,19.8017279356718,20.0399833406721,15.9141292010857,20.6828349141208,21.6913648645083,21.2442863583565,20.6378456393082,18.6830175797854,14.9219848873154,14.6418750584126,16.6814285005842,21.6371087993342,27.6137224668604,30.8788542747498,30.3035624980927,28.5962540049038,28.5165626687663,24.3338990757542,0.832500039599836,3.60071423649788,12.2454287241307,16.0517815224708,19.4736456473668,18.1100625455379,15.9931958270939,14.3037321656942,10.6490121472687,4.60513154837493,5.78749983119766,10.114657753447,14.1164012039241,17.1762499610583,16.2539166939567,14.5767076625307,13.9758338636144,10.8754278827313,0.501462055137381,0.634540812549542,0.981270752987184,1,1,1,0.968879462565695,0.933929792194543,41.97585629,-92.24291804,2015,"IAH3",5
"TX714/PHZ51","MNH1_2020",17.05,767.80599203328,0,0.5,268.5,158.5,65,64,0.94300509867826,6.54607305060729,4.14035912753596,4.70748763912835,0.452236840599462,2.54351275702983,5.92890111667188,4.27061504377344,2.50108778318406,29.2331580590261,64.9010543540904,50.6168419938338,155.384736988105,0.714736844363965,28.6173683906856,219.299474794614,34.3447376494541,76.9310546087983,20.8351621174448,15.7339994616729,19.7482846720118,20.9752267105361,19.7857435502504,20.2008613357514,18.410630506817,15.8353278990905,12.8477663152691,15.7084550036336,18.5315520479183,25.8284042289769,28.495260522451,29.9249994378341,28.2199240924829,26.5218522585541,25.9398792816591,19.7406792160144,2.26123937792406,9.18620770652177,13.9924403556009,16.6828678833046,19.344474052128,16.9052831803402,15.0937764647406,14.3091431196277,8.59321732280189,5.3706805778496,7.95338430636633,12.4659637890829,14.7786587119029,16.6623657697956,14.7511618456846,13.2528818768791,13.0175246736152,8.66613029209796,0.62261399417653,0.838417993402521,1,1,1,0.988450437108742,0.930664219656181,0.78075899295554,44.06907839,-93.53263028,2020,"MNH1",2
"B14A/H95","SCH1_2018",14.96,731.12121286656,1,2,216,126.5,62,63.5,5.50937507301569,3.37250000238419,5.77532792752829,7.72812766098977,4.71095229046685,3.13060314183971,3.12348515829066,2.01328565960839,5.79306446956599,176.300002336502,26.9800000190735,97.6099995204381,245.673573059695,5.41571421282632,31.8442854029792,83.9342848232814,10.5378568683352,179.584998556546,18.6477236524224,19.2869287729263,21.173054595667,18.1631813069703,18.8474233264015,19.2548603041347,19.9945130026415,19.3178334372384,16.3013944175386,22.5390624701977,22.5337498188019,23.0902047939223,27.6187004518251,28.0654765991938,28.9085680901058,32.584791315526,33.4833329836528,31.116866401813,9.30156246945262,9.31125009059906,8.76240008069966,17.5066534747267,16.7615474973406,18.3829589417142,21.2079791456952,21.6712853658767,20.8076727291406,9.59119125294698,9.40007484305004,9.57450522783795,14.7679377529716,14.5196225818089,15.7238139666896,18.8616965293534,19.451053178185,17.9628857433375,0.951841517750706,1,0.982626498534951,0.991514694994028,1,1,1,1,34.6223015,-82.7364835,2018,"SCH1",9
"B37/MO17","ONH2_2016",20.45,713.74421220864,0,24,257.5,122,78.5,71,1.4354838748132,1.74083332717419,1.46380271581139,3.02268752387098,0.150999999046326,1.134659085057,3.04644667291448,1.69350377760537,2.7651166654242,44.5000001192093,20.8899999260902,18.8460003852844,117.159000921249,0.150999999046326,12.2534999370575,101.044499832392,13.1614999294281,84.2689999639988,19.7256392663525,22.197474638621,21.6895404820885,21.7736589642688,18.986648273468,19.926783043688,16.6990616557451,15.6815267119186,12.907202899033,14.1074193523776,17.5808333555857,26.0075868502758,26.0489445105545,27.7809998512268,28.7928724592382,28.2480381953381,25.9224786042651,23.7534801354972,4.25741936266422,7.13166666030884,15.038288106176,14.1477788974648,17.7269997119904,17.3392411925576,18.2467210190433,15.9549466693556,14.1752601318334,5.1313461369791,6.98684124280148,12.8511639495985,12.6517199671275,14.842964971112,15.2602720524723,15.3178202053561,13.2653460605469,11.6762118863421,0.511244241010895,0.799851208925247,1,1,1,1,1,0.97582928193879,42.4530035,-81.88279875,2016,"ONH2",8
"TX777/LH195","WIH1_2015",30.35,760.08288062976,0,6,269.5,150,65,64,4.73000005912036,9.05999978383382,2.43061068168386,6.19005986556151,3.24281251430511,1.73931090915814,2.56322206766969,2.5826045268506,2.06486223506671,151.360001891851,54.3599987030029,32.300625488162,198.088750079274,6.48562502861023,21.1143751442432,113.252501126379,35.4293755665421,62.4800001233816,19.3236754387617,22.1910498936971,23.8972514964953,19.0410510068734,21.6280432442824,20.7255365879108,16.0925579709474,13.722787601418,9.59556191513936,19.9571875482798,28.1500002543132,26.0532609907049,28.8593200589564,29.0738543669383,26.5105607723578,24.8273939882814,20.1808902607393,14.5154980836536,8.51718754309695,15.3049998283386,11.8280294384883,17.4878351835719,16.4801037510236,14.4961537795189,12.3150913731169,8.58194562556843,2.68044018258631,8.55835087322049,13.98301753897,11.81015597229,15.2618382755968,14.9558189846116,12.9875354191,11.6812346906955,8.628108427747,5.08755073101082,0.777276777234095,1,1,1,1,0.929186389078322,0.833919484023419,0.505939954463764,43.05511725,-89.528525,2015,"WIH1",5
"LH212HT/LH195","DEH1_2015",20.85,698.94158201856,0,0,261,142.5,69.5,66,2.877187483944,6.84800000190735,1.65812227065002,2.89981113868033,0.533124998211861,6.39805544084973,4.54206526084818,4.66633341695581,5.69481861783612,92.069999486208,68.4800000190735,26.8631244525313,94.403749205172,0.778750002384186,57.5824989676476,115.858124211431,26.7362504601479,176.53937715292,18.0978914797306,17.2013893604279,20.1115188355204,21.0089776981854,21.5349248051643,19.2473051614232,17.7019111319721,15.0562807784194,15.1484673523134,16.8265626430511,19.2440000534058,20.7237695406926,27.6889034218542,31.5665628314018,31.8635417355431,32.09465687106,30.4336400264785,29.0939515059994,6.26593750482425,9.85899999141693,10.7453803031313,17.6787637613727,20.387500166893,21.3565970261892,22.772206074744,22.282508844421,20.5664716151453,6.52196032901766,8.41291476735724,9.22995774812798,14.8599372331721,17.9770314991474,18.5817073937474,19.3617069706047,18.3580744354498,16.8673674529789,0.750435272946821,0.870857151065554,0.962682183853112,1,1,1,1,1,38.62935675,-75.4656925,2015,"DEH1",10
"B14A/MO17","DEH1_2018",14.365,455.01998019072,0,2,199.25,91.25,67,66.5,3.41322579499214,4.72454556551847,2.00775327918751,2.76062415391978,0.287142855780465,8.86277766454787,3.9158652312497,4.93358162276599,5.97197165156839,105.809999644756,51.9700012207031,28.2621423006058,90.3585697838238,0.861428567341396,79.7649989809309,101.102142018931,26.3792856761387,184.740002146789,18.2473833330216,20.3033478476784,18.9606146470246,21.1924231312641,20.3949074972244,18.857703663054,17.7348203831473,14.4784469860752,15.0837273726632,17.38161277771,18.2845456383445,22.0146909227081,28.1479547134017,32.2871426173619,31.6823014910259,32.0928691179815,30.4210680254463,28.7979001527192,6.70387100404309,7.41363637013869,12.8585797691042,17.9749757557002,22.0019048963274,21.3199205701313,22.7642059419863,22.2614113645489,20.2152603631745,6.82571116473102,7.36638381566628,10.3838574094334,15.2115811688111,19.1075311123214,18.4785044144811,19.3587997645324,18.3420426743588,16.5827432526275,0.7816013778959,0.839058448354919,0.98942529531986,1,1,1,1,1,38.65164475,-75.44913625,2018,"DEH1",6
"PHW52/PHN82","WIH2_2018",28.4166666666667,757.93757190656,4.83333333333333,2,263.166666666667,131.833333333333,67.8333333333333,66.8333333333333,3.14419357238277,1.76857142789023,3.7850711937244,5.16484622721252,1.71595238503956,3.40222404942368,3.04494882245682,9.61559933750402,3.37177261638065,97.470000743866,12.3799999952316,46.2814290182931,179.869998318808,4.56071427890233,37.7064288343702,131.482145317963,73.4771447862898,101.717141609107,19.2573341092756,21.1210829871041,21.4752587688556,21.2745392970238,18.3171726181394,18.5302155637122,18.6607088369069,13.625803150659,11.3718547526592,15.5287096115851,24.665714263916,26.0917028350164,28.2348686412978,27.8659524917603,27.6583875546724,26.7064113625472,24.9215236168329,17.9686743887339,3.195161296956,12.9500000817435,13.8890289352891,15.1338539459878,17.4050001189822,17.0648214997667,13.7709706188762,13.5657747038241,6.88716511658397,5.28984108241052,11.5719513224068,12.6458491000419,14.0894685781005,14.7169908688233,14.5010708096508,12.893566291538,12.2339728232487,7.2792037808306,0.580092163387394,1,1,1,1,0.981419112725804,0.932006969360863,0.738663650155215,43.38075,-89.38645,2018,"WIH2",7
"PHW52/PHM49","SCH1_2019",15.5,731.12121286656,0,2,186.69,58.42,55.5,57.5,3.52258064477674,3.02666664123535,1.83207166627958,3.15534991018595,1.49702380668549,2.43988097139767,1.83821312723543,1.7150475976013,2.16246542897642,109.199999988079,18.1599998474121,19.9499998688698,97.8735719323158,2.84642858164651,21.9271430288042,50.916428404195,9.48142844438553,67.036428298269,18.2238053967876,19.247888247172,19.8381614833763,19.938859204939,17.7934952236357,20.8877508432146,19.9301129518968,20.1952560402098,17.6553152003047,24.0812904296383,27.556666692098,26.8636026409599,30.303022531239,30.1509526570638,31.8182345420595,32.8750149825147,31.8445712543669,32.3335714516002,10.7222581025093,15.8883333206177,14.7897779125592,18.3349862715708,20.4966665676662,19.4895437936934,21.1836656381328,19.1694286028544,20.1650460304752,10.6271599305538,13.8823950294698,13.2745578864924,16.3672741997006,17.323809612365,17.6458035283698,19.009890666677,17.48787313509,18.1591706145628,0.967315667785258,1,1,1,1,1,1,1,34.62248225,-82.73756775,2019,"SCH1",11
"B73/PHN82","IAH1_2015",20.9,704.7339155712,0,6,258,144,65,64,1.56645163797563,2.21307695370454,8.40241855686024,1.32346369240836,0.084411761339973,2.29735939798791,2.93999255048908,2.37101190956701,2.73279376330065,48.5600007772446,28.770000398159,122.139999866486,43.5299997925758,0.168823522679946,22.8235286263859,100.118234865806,16.6700000342201,83.8129400085,20.4321490257017,18.8581149761493,14.6331772809511,22.3127675938035,19.1422725845786,22.2080652261871,19.8386258824345,18.3376315823456,15.0581957022198,16.087741913334,16.6453845684345,21.8469785316973,28.7334183023463,30.2685291065889,31.3074705248565,29.0510553070878,29.396362715275,24.6694635680625,1.83903228419442,4.86538466123434,13.1289285435553,16.8676896249547,20.0594113854801,18.0570519634322,16.3929613969702,15.4374991619954,11.1722985517151,5.44712973145307,6.09818857737345,10.4824096365253,14.9963247305916,17.1663926633043,16.728841860151,14.9692492703924,14.7713722092671,11.3064436073178,0.593087559179639,0.682994502258825,0.988452544600181,1,1,0.997626800819033,1,0.896934673983109,41.9980952,-93.69336973,2015,"IAH1",14
"PHG39/PHN82","MIH1_2017",17.7,731.12121286656,0,2,229,110,65,64,2.65129033404012,1.64250004291534,0.365195355155368,3.68588979784018,0.0229824551364832,0.46297232149101,1.74576806741443,1.92419894727902,6.21584880662018,82.1900003552437,13.1400003433228,4.41789476338186,131.667893061512,0.0689473654094495,5.87157878122832,77.4078943196096,25.1578945925361,187.919470972136,20.7548004581082,19.5261926651001,24.4742989093836,19.8905510316777,21.9433432796545,22.1206047711906,17.4790874196007,14.7643136405382,9.64132186376111,18.9967743350613,22.1187500953674,26.4465225468316,27.4969315652497,27.7329823008755,27.824925694871,25.3738691139958,24.1007104170058,20.6398986734167,5.96129034796069,11.9187499284744,11.3631864125553,16.0503932975266,16.0887717866061,14.9625505184838,12.276571042592,9.93890341042346,8.93630907537408,7.30321713873745,10.0125802625948,11.8678501821976,14.0611352118072,14.116078975745,13.7509617648401,11.6765951301922,10.5934889835682,9.14877577769738,0.770126732675711,1,1,1,1,0.999072621356021,0.94927833355258,0.816440377467249,42.68116575,-84.49434125,2017,"MIH1",9
"PHN11_PHW65_0323/LH195","NYH3_2015",19,731.12121286656,0,0,227,104,81,79,4.26838707539343,0,1.23480362862861,3.31548590496468,3.74470586428309,3.70874331928192,2.03473858875296,2.09190753286542,2.16016066343177,132.319999337196,0,17.669999435544,111.464706651428,9.84352939345819,38.4235294566435,75.3511776310556,21.4923532237025,65.3723531067371,20.9588571671517,21.7616018295288,22.010031667843,20.4765439063008,19.3750716377707,18.8480084862939,18.0995458235427,14.2586651794525,12.1716549346147,15.2151612850928,28.4139999389648,23.9726607996166,27.9485215330969,28.2241176156437,29.0064544300345,26.8861269088758,22.6542903882269,19.0203909387172,3.20645156502724,16.0079999923706,11.6223586733296,15.6103262901363,16.7502940963296,17.7263369351147,14.8880444255661,11.6083206558939,7.35658823269703,5.34962666660979,14.3873497094372,10.9577344850549,14.1718313559719,14.6193748893675,15.4121399843839,13.3167035418842,10.3456969793581,7.70771127893227,0.504331792142534,1,0.972673749990107,0.996219796126396,1,0.995345527139322,0.95775528025916,0.812032548066487,42.7233625,-76.6555945,2015,"NYH3",10
"B97/PHB47","DEH1_2015",18.55,711.81343435776,0,0,242,109.5,61.5,60,2.877187483944,6.84800000190735,1.65812227065002,2.89981113868033,0.533124998211861,6.39805544084973,4.54206526084818,4.66633341695581,5.69481861783612,92.069999486208,68.4800000190735,26.8631244525313,94.403749205172,0.778750002384186,57.5824989676476,115.858124211431,26.7362504601479,176.53937715292,18.0978914797306,17.2013893604279,20.1115188355204,21.0089776981854,21.5349248051643,19.2473051614232,17.7019111319721,15.0562807784194,15.1484673523134,16.8265626430511,19.2440000534058,20.7237695406926,27.6889034218542,31.5665628314018,31.8635417355431,32.09465687106,30.4336400264785,29.0939515059994,6.26593750482425,9.85899999141693,10.7453803031313,17.6787637613727,20.387500166893,21.3565970261892,22.772206074744,22.282508844421,20.5664716151453,6.52196032901766,8.41291476735724,9.22995774812798,14.8599372331721,17.9770314991474,18.5817073937474,19.3617069706047,18.3580744354498,16.8673674529789,0.750435272946821,0.870857151065554,0.962682183853112,1,1,1,1,1,38.62935675,-75.4656925,2015,"DEH1",2
"B73/MO17","ARH1_2018",20.65,473.877243867648,0,1.5,219,117.5,65.5,59.5,6.80749994516373,4.70999993596758,2.62777637512911,4.73591215777578,3.61916664668492,6.96017852632536,4.33043756926438,0.796285740818296,3.37467743449497,217.839998245239,32.9699995517731,35.4892859118325,145.294284343719,5.83142852783203,62.5142853089741,109.797857735838,4.00357156140464,104.615000469344,17.9970670938492,21.7022604261126,20.0594998235876,19.526801115197,21.5939762251718,17.9926481322637,18.0574776027005,19.3321502186003,18.3042435536187,21.0706250667572,24.3185710906982,24.0216893355052,29.4527985731761,31.7309522401719,30.7069242303334,32.5717108049104,33.2952144259498,31.8374196285476,10.2671874910593,12.0357142857143,12.7020508751037,18.6741208320572,19.9915478343055,20.6467757206115,22.9033521317947,23.2358570643834,21.2883410212082,9.22327753419032,11.0103677478877,11.2783232173313,16.1126744540351,17.8620654597657,17.6775747954964,19.7277038225499,20.1946927088828,18.5436880911809,0.945725440979004,1,1,1,1,1,1,1,34.729679,-90.7603455,2018,"ARH1",5
"F42/MO17","IAH1_2019",26.65,669.3363216384,0,3.5,213,96,65,64,8.15718757361174,0.753333350022634,7.31557737378795,1.14438907355141,0.212857144219535,0.731688292769643,3.10367980083365,5.185721734979,4.91897999248289,261.030002355576,4.5200001001358,87.3064272063119,32.2664281300136,0.212857144219535,8.04857122046607,121.503570373569,46.3999997164522,147.939998852355,18.0190464556217,22.72114833196,18.5386832301204,20.8461719391544,19.2009373846508,21.9142898522414,16.4832458017069,14.2334940540468,11.0087876791229,22.3099999427795,27.5299997329712,24.5261778894118,31.4481277966288,28.6304760887509,29.4787013190133,27.1100269740106,25.007314114315,20.465771880493,10.9306250140071,14.9633332888285,14.9168448304933,20.0276676596814,18.3645236378624,16.3407141202456,15.6768667145032,13.067469943752,9.59281948388693,10.1177915198658,13.5813792925954,12.0903962382799,17.7390317751967,15.5681627046477,15.0835359367902,13.708186378737,12.1429510521349,9.38787554144245,0.87926339437919,1,1,1,1,0.994329881257634,0.928985237406225,0.79775290707702,41.1992562,-91.4941418,2019,"IAH1",7
"B14A/MO17","GAH1_2017",13.7,705.37750818816,2,2,185,95,60,59,1.92968747392297,5.73000001907349,0.343252103133586,3.44928658477499,2.10761896769206,4.58677246557972,5.88411512674098,3.46279361891368,5.79033786946544,61.749999165535,45.8400001525879,4.18523797534761,115.462857757296,3.16142845153809,44.2476188795907,164.396192306564,18.0028569698334,179.500473953429,16.8024901300669,20.1373232603073,20.1734204678472,19.2707622430691,21.2048014383467,16.6798162969963,18.1585808485972,19.3751740168011,17.7370458682012,23.5584374964237,24.7612497806549,28.7388454609341,29.029321913538,29.7903175656758,30.1182594269041,30.8846873649595,33.0415872604128,32.3946695928383,8.65499997884035,9.07374995946884,13.8160128648753,15.9456908272656,16.8514287131173,20.0705928338268,21.0580026966177,22.2436510176886,22.0341169412967,9.93516597929203,10.3201673994425,13.6844889022653,14.8136399848139,15.5596332003494,17.1078969773464,17.9595982908683,19.6134998817186,19.1980031961101,0.883437499936138,1,1,1,1,1,1,1,31.50794425,-83.55854475,2017,"GAH1",7
"PHG39/PHN82","INH1_2020",22.88,722.303994014208,0,2,213.8,100.75,69,67.25,2.63064515013849,6.09222216076321,2.38090554163418,2.63802878915032,0.629411795560051,2.97723527796128,3.34980336859539,1.09505251642703,1.57514418927949,81.5499996542931,54.8299994468689,26.3500001711004,86.9017637687571,0.755294154672062,29.7723527796128,114.917647417854,7.60117643019732,48.4147051677984,19.1204067507098,14.4686205122206,21.683403471156,21.7538997697412,20.2483905343448,19.6695943495807,18.7818895809529,18.0082829882238,15.450766363346,15.2067741424807,20.6899998982747,27.1104927022189,29.4265010732643,32.0752935970531,30.3638822218951,28.1583408143781,28.6678223609317,25.4133379392123,2.93419356355744,11.5155556201935,15.1781191785852,16.469441937157,19.3758825414321,18.2375294629265,16.6673405457507,16.5683672047159,12.5233751913666,5.19370579464667,9.33766425162009,13.5421990121603,15.1602616547628,17.7314612721144,16.3694037021206,14.6116717912345,14.8394952945466,11.9009549885014,0.576025337581673,0.994801586582547,1,1,1,1,1,0.975702380729156,40.4787965,-86.9895995,2020,"INH1",10
"CG44/CGR01","ARH2_2016",12.75,731.12121286656,0,2,180.5,95.5,59.5,58.5,5.78093742206693,12.265000184377,3.71212020820834,7.02228860006285,1.10500001907349,0.295568184419112,1.93128791351543,1.45469692692612,6.28083569178483,184.989997506142,73.5900011062622,50.6740907539021,233.205909837376,2.21000003814697,2.36454547535289,51.2972726388411,7.65681795640425,194.70590644533,17.7645711898804,17.2271962165833,20.1405853736324,19.8064448117891,18.8826211727027,19.79738723148,18.6944065441324,19.8885487758752,15.607143551723,21.0278125703335,25.6983334223429,24.8822470662624,27.5574788870291,33.1628784988866,33.3801704536785,32.4072806330723,33.7124844464389,31.3768475300406,8.51718754693866,14.1383333206177,13.2669300286413,16.7583488235741,22.7915153503418,23.2152275497263,22.5635331248055,22.9502423373136,22.3752492012516,8.62630812400512,12.3761800663264,11.7581879605187,14.4664485465038,19.8918990278765,20.2426308826887,19.4302420192383,20.2373530270853,18.8112695233672,0.958649555088154,1,1,1,1,1,1,1,35.838614,-90.66530155,2016,"ARH2",8
"B73/PHN82","MNH1_2018",20.33625,719.2147494528,0,2,255.625,124.375,64.25,62.25,2.7938710316535,5.66428569384984,1.88138350844846,4.66962568011348,0.280777778890398,5.314848416261,5.50309775567603,4.90259317369494,1.74449034129874,86.6100019812584,39.6499998569489,19.6633331219355,156.026667060455,0.653333338101705,61.1846658706665,207.324669293563,42.5680015007655,52.6160005594293,18.6861717470231,18.6483766010829,23.2219031340296,20.2349813747085,21.884095509847,21.2045387879767,17.4384910052928,14.0280589904444,11.4776368163264,18.2458064786849,23.5114288330078,30.4956820770299,28.4029569689886,27.6728887134128,27.8828838203893,26.244249248564,23.4899370002514,17.2954946981698,6.62290317012418,13.3528570447649,16.1020055964721,17.0711162868408,16.2537779596117,15.7901464996916,14.8351560856314,12.4297014384783,6.3474709751724,7.12789266978397,11.1508268377611,15.4213678280709,14.9171949913789,14.1582048951777,14.1049189391121,13.0806653562654,11.2032413303021,7.12656051864639,0.79756912012254,1,1,1,1,0.978734696021031,0.910102722236681,0.699884152136365,44.07044721,-93.53494127,2018,"MNH1",15
"PHB47/PHN82","MNH1_2018",19.79,714.3878048256,0,2,245,97.5,61,57.5,2.7938710316535,5.66428569384984,1.88138350844846,4.66962568011348,0.280777778890398,5.314848416261,5.50309775567603,4.90259317369494,1.74449034129874,86.6100019812584,39.6499998569489,19.6633331219355,156.026667060455,0.653333338101705,61.1846658706665,207.324669293563,42.5680015007655,52.6160005594293,18.6861717470231,18.6483766010829,23.2219031340296,20.2349813747085,21.884095509847,21.2045387879767,17.4384910052928,14.0280589904444,11.4776368163264,18.2458064786849,23.5114288330078,30.4956820770299,28.4029569689886,27.6728887134128,27.8828838203893,26.244249248564,23.4899370002514,17.2954946981698,6.62290317012418,13.3528570447649,16.1020055964721,17.0711162868408,16.2537779596117,15.7901464996916,14.8351560856314,12.4297014384783,6.3474709751724,7.12789266978397,11.1508268377611,15.4213678280709,14.9171949913789,14.1582048951777,14.1049189391121,13.0806653562654,11.2032413303021,7.12656051864639,0.79756912012254,1,1,1,1,0.978734696021031,0.910102722236681,0.699884152136365,44.07044721,-93.53494127,2018,"MNH1",6
"TX777/LH195","ONH1_2015",34.4,717.6057679104,0,0,232.5,122.5,89,89.5,1.60562500171363,2.29631582059358,1.4114260910993,1.97329795371468,0.512941168803795,3.43676916784781,2.64103540530206,1.79995381645545,2.36057120934647,51.3800000548363,43.6300005912781,20.3011770318536,73.5029410351725,0.818823519875022,40.7335294695461,103.936472787577,19.5847062696429,71.148825086215,18.0216946154833,20.4737019036946,23.3400709093662,22.6454399715782,20.2406537486058,18.0725441178749,18.6044729913646,14.2275523091565,12.219208949974,9.77156253159046,12.6347369143837,23.7578119012338,26.8344168593777,29.9094126084272,27.4692824860095,26.1197207542336,22.8220175470625,18.3525084633076,-0.327500017825514,2.04526315237346,11.0134760611429,13.3191988703222,17.4331371830959,16.5032930170151,14.0677575161805,11.6957219533643,7.01371468782571,2.85121172458945,4.201400589021,10.6771310509359,12.7739998184956,15.7658975270033,14.1503260638498,12.635773860967,10.4824980569175,7.37915990096047,0.167098218209243,0.403345873929504,0.957007130525896,0.991950294097347,1,0.994472793880519,0.939113043318717,0.77236656111447,43.49741975,-80.44806025,2015,"ONH1",6
"F42/MO17","TXH1_2019",9.585,824.44214232576,0,0,203,70,68.5,67.5,1.71448274965173,0.072857141494751,3.656594302147,9.09543456371003,0.409285715648106,1.20767857134342,5.35585078307965,1.24614285230637,1.57441934339828,49.7199997399002,0.509999990463257,52.0078563094139,328.212138780526,0.592857139451163,9.66142857074738,146.447857277734,6.531428532941,47.5149996536119,15.4280570457722,20.5213113512312,18.768988344457,18.5703255916766,21.4234965869359,18.852815253394,20.148813605732,21.0307275136312,19.8408923398148,18.4500000723477,25.7642857687814,24.4325494379212,27.2758673216928,31.0900000163487,32.3786609854017,32.7243520483546,34.0447144826253,34.9820077594341,6.8262069143098,10.3500000408718,10.6796315414328,14.7876673923985,18.6585717882429,21.8507142748152,21.0244273483534,21.7961428233555,22.6049738996772,7.4578164675981,11.1589152046898,10.8511947929525,13.4663040330347,16.9119367665064,19.1141210544432,18.8476531392514,19.7780710195599,20.0141955883191,0.749667494461454,1,0.945308164445992,1,1,1,1,0.999698925164804,30.546318,-96.4329965,2019,"TXH1",8
"B97/PHB47","NYH1_2017",17.7,731.12121286656,0,2,229,110,65,64,4.75870958066756,4.13999998569489,2.95302494204596,5.71550623200518,4.32087287827144,2.70173206300027,2.61632844338824,1.02263058497457,3.61426843911905,147.519997000694,37.259999871254,45.1261899925414,219.922381491888,11.2685710702624,35.6957141047432,128.424762705962,13.3047620654106,110.890000857058,18.9744435125782,17.8100527657403,22.0763726985416,19.3839747471171,18.5614137876601,19.2253497353029,16.7138256789592,13.4350664320207,9.03754833240572,17.0696775221056,20.2333335876465,22.7745171017373,25.664886994249,26.7039681691972,25.3269152449164,23.2600727170173,23.9684052634079,17.611198191458,5.96419353350516,10.1900000042386,10.9371763249011,15.2036229448209,16.362936383202,14.6065672757674,11.3179340366411,11.5668532308226,6.66954478092379,6.64112734378757,8.72725367499605,10.1527049274721,12.7947461464451,13.7193522643836,12.3756778221065,10.4503517934596,10.9124923049431,7.23915136927561,0.685760370631646,1,1,1,1,0.982493677824514,0.953634339212795,0.701363064221172,42.72880835,-76.6515625,2017,"NYH1",3
"PHN11_PHW65_0323/LH195","TXH1-Late_2018",11.3666666666667,748.7127443968,0,2,253.333333333333,86.3333333333333,63,63,3.5793750025332,7.22999986012777,0.880950212466032,3.39399650565147,5.74642871958869,3.61914694878968,3.45560049644284,0.428285707746233,2.2787097211807,114.540000081062,43.3799991607666,11.7107142976352,109.309285019125,11.4928574391774,35.4171440643924,87.1585709388767,2.14142853873117,70.6400013566017,15.1890550404787,16.9814987182617,20.4111461997292,19.9987621572639,15.8160833404178,20.1152116011059,19.5823012089101,16.3941785948617,18.6152318413906,25.4215626120567,25.4816667238871,24.9240564974382,29.8609676759365,30.5592857315427,31.1110338370005,33.471735544548,33.678570665632,35.6292394646851,13.7340625077486,14.7233331998189,12.1417448389526,16.9768337518894,21.1738096872966,19.9290791380973,21.6003019523645,24.8844285964966,24.5352535247803,12.2487610557836,12.9546326020938,11.4732109690061,15.6369768953886,17.8686949252443,17.4931939916305,19.3485664524142,20.6305847067263,20.9047458821383,0.995234378746578,0.961607143992469,1,1,1,0.999944235746723,0.999152383350191,0.99903341174675,30.546318,-96.4329965,2018,"TXH1-Late",11
"LH82/PHB47","NYH3_2017",18.65,759.4392880128,0.5,23,237,104.5,71,71,4.98580635363056,2.59333333704207,3.4402922444776,5.9245534070043,1.05166665712992,3.38114006522593,2.2324385401157,2.79862502887845,4.01837100812825,154.559996962547,23.3400000333786,54.1374994516373,222.242500424385,2.04999995231628,44.4449994266033,102.857500582933,24.5575002506375,123.662501238286,18.9189640937313,18.2290218141344,21.600702212488,19.423770573439,18.7574106454849,18.6598477415986,17.2884684616096,13.4743607759476,9.52887015240167,16.549032380504,19.8011112213135,22.3479983508587,25.7161786980239,25.8875002861023,25.2532692400964,23.4987706805266,24.2957499265671,19.1539193195681,5.23967740420372,10.2422222031487,10.5661832437504,15.2041484381282,15.9916667938232,14.888186783581,11.7096748409168,11.1405000209808,8.07706999143045,6.26789810278045,8.57074783107705,9.8009436942741,12.8252190591825,13.147223213623,12.447155484198,10.6753052079461,10.8600266816938,8.09342402838055,0.638917053418775,1,1,1,1,0.987943118304987,0.977741071156093,0.791930494543462,42.73339625,-76.652747,2017,"NYH3",5
"PHG80/PHZ51","GAH1_2015",12.85,720.18013837824,0,1,200,105,59.5,57,4.23124991450459,0,5.95843648977752,3.85260314316124,2.594000032213,2.42992595566644,4.21775937236542,2.2254666519165,2.66739782620502,135.399997264147,0,82.5659990310669,137.561997858683,4.85133333206177,21.8693336009979,117.57799987793,11.1273332595825,82.6893326123556,16.5993611216545,21.5826927820841,19.1166129616996,20.6161636639978,14.5260023964776,17.8647365923281,19.7929930049444,19.1551458994548,18.4643243789673,25.4328122735023,26.8150002161662,26.0085422722365,27.8265794265258,29.9603331036038,30.5756295522054,31.8228302996983,33.5869333394368,33.7522152726368,12.5037499815226,10.5999999046326,12.2444831422419,13.9045236436884,20.7681110594008,20.2534813916242,20.6425490405989,22.1771998596191,22.2909034236785,11.854479674764,11.7266463096301,11.9406266754272,13.4149299134414,17.3642220815023,17.4145554719148,18.2371492286976,19.8306681454467,19.8965389447966,0.988973218681557,1,1,1,1,1,1,1,31.505771,-83.555095,2015,"GAH1",3
"B37/H95","MOH1_2015",15.4,731.12121286656,0,0.5,205,100,75.5,73.5,3.91483872167526,3.00272724845193,2.70388340007172,5.64622626815722,2.26875001192093,1.18333334392971,4.73674408601423,1.74040179593222,3.6664919433214,121.360000371933,33.0299997329712,34.4199993312359,178.871247828007,5.86875003576279,10.6500000953674,140.261874556541,11.8831250667572,113.661250242963,18.8184669402338,18.8870315551758,16.929197347905,21.705914807588,15.7215426564217,19.9453006850349,18.4742217908113,20.1287302806264,17.0265389219407,18.2845160884242,18.0018183101307,23.7780545636798,28.9302828526302,29.8559374809265,31.7611801889208,30.4214076278912,28.5805001264527,28.4314314703788,5.85709682707825,7.50000006502325,15.2148777665246,17.6487962035776,21.6728123426437,21.4597915940815,20.2818253816477,17.0989999456065,17.2866936922073,7.06854431480445,7.30219313947649,11.971425794578,15.3979636076336,17.7643749117851,18.6104858915011,17.38069400277,14.991826945877,15.0531743909791,0.723283405334169,0.814935085835395,1,1,1,1,1,1,38.8965375,-92.20800417,2015,"MOH1",13
"CG119/CG108","IAH2_2019",16.8,738.84432427008,1.5,3,184.5,89,65,64,1.62499997764826,4.99466671943665,7.63382698125987,4.02341454883287,10.5352383568173,1.2235000201634,2.76356744289516,7.26151782906954,4.77332183541973,51.9999992847443,74.9200007915497,126.729286615338,144.380714906113,31.605715070452,12.235000201634,103.205714230027,58.2335712058204,145.353572113173,19.4007869511843,15.5991585731506,17.733772213764,20.3714196622645,18.6917074294317,21.1146088668278,19.0489610311361,16.4610812394392,13.9454261347262,15.7803125455976,14.7866665522257,21.3077396412048,26.9056014090092,30.4667857033866,29.366785798754,27.7021302399588,26.078908695115,24.6989301095544,1.82374999648891,4.27600004474322,9.22220813411321,15.0646722365935,19.7144050598145,18.1754287719727,16.7421217731022,15.3263292785675,13.453586662864,5.18898236774639,5.37138114303097,9.15066822380473,13.4185125554301,17.1062666762375,15.7965739643108,14.4428391706503,13.0451790767413,11.9235761362982,0.546495538936662,0.532857125358922,0.866155154080708,0.998157433935226,1,1,1,0.956872448730631,42.06583499,-94.72067796,2019,"IAH2",5
"PB80/PHZ51","MNH1_2016",19.45,731.12121286656,0,2,229,110,70.5,68.5,2.89322576407463,0.170000008174351,5.03042527209908,6.12170522401334,6.43858322699865,6.21095447112214,8.17923871751135,7.61717088871532,9.39474284643768,89.6899986863136,1.19000005722046,67.7949996709824,212.853000384569,13.6799997210503,65.1149991810322,295.599999034405,62.2075004458427,287.315494990349,17.8967360373466,26.286114011492,18.122651996026,20.2994832360595,15.8094130674998,17.8757813947851,16.9356863757804,15.2931511149142,12.1500887665185,17.5148386032351,25.4542857578823,24.5326991112838,27.6333701421214,28.1445000648499,28.7026912923293,27.1588718316529,24.8505404014058,22.530326319715,6.33838710765685,9.82428567750113,13.6815540208608,15.8141053471531,17.8242501338323,18.4263501505418,16.9297657858623,13.571238894951,11.5045660662643,6.87113486692201,10.9020425096258,11.6566452042554,13.9836924770311,15.0551188632125,15.6807639131871,14.2208678743316,11.8615305728452,10.2698260241427,0.73452764457684,1,1,1,1,0.999952476900843,0.987298810035877,0.93609264544991,44.06646925,-93.533648,2016,"MNH1",4
"B14A/H95","IAH2_2017",15.5,735.62636118528,1,26.5,221.5,109,65,64,2.99193547618005,4.00374990701675,5.59415436127969,1.82415974193672,2.96590905297886,1.13861617337574,3.54439579705404,5.52586092903759,3.22496434239523,92.7499997615814,32.029999256134,86.8399996757507,64.743636071682,5.88090901483189,11.0354546579448,133.685001557524,39.366364874623,98.0227279554714,18.9181115088924,22.0308394432068,18.3906703843513,21.9130098121916,21.5970702604814,21.0005855088282,18.7624625632021,16.5013675579605,14.5633697451035,16.7025806211656,25.2537500858307,21.1644402920874,28.7879280313535,31.3429540287365,31.038908986371,27.7923067917653,26.5413899369054,25.0180860311055,3.83612903808394,9.06000000238419,9.83648406203406,14.7235259390494,17.1804546009411,18.0048533863491,15.618900018401,13.9478747019692,12.2571085666223,5.88435640664124,10.5205817772981,9.32555658634035,14.1961143177765,16.2939337097197,16.5715003347332,14.0580127584531,12.7380351430824,11.5799250069021,0.659274194561254,1,0.882113053044242,1,1,1,1,0.976890028652541,42.06582876,-94.72050129,2017,"IAH2",10
"B37/MO17","WIH2_2017",17.7,731.12121286656,0,2,229,110,65,64,5.04870961558434,4.63666661580404,1.14238357494139,5.76385788548466,8.00159072875977,6.16004860362449,1.60777643285742,1.16772651324412,2.25755526788773,156.509998083115,41.7299995422363,17.5799998044968,219.396364270963,12.1440906524658,74.0409079194069,72.28863683072,15.0440909293565,68.0204556950114,18.1690344041394,19.7204955418905,20.6472768327282,20.2328798799047,19.1316367929632,19.3749324300072,18.5140157590327,14.9334047713424,10.8947823268053,16.0312902696671,21.8655554453532,22.157460706825,26.5968914308851,27.900455012466,26.7679925429357,24.7306206922626,22.3853339347559,20.5127478068356,3.24419354046545,8.79111109839545,9.55349760092549,14.5433731880084,16.8103789199482,15.3783115840061,12.1927125768691,9.1932024860582,7.86886657741529,5.43821820192816,9.20913123615215,9.45120310694411,13.0570841123019,14.516823010886,13.3761072292611,11.3130637266799,9.68633375424708,8.85311395885718,0.624158990547954,0.847976183134412,0.950288767513294,1,1,0.998699911088751,0.954544861800485,0.834596302261351,43.3246415,-89.33688775,2017,"WIH2",9
"B73/PHZ51","MOH1_2017",17.0714285714286,731.12121286656,0.428571428571429,3.28571428571429,257,129.142857142857,64.1428571428571,63,8.9377417372119,9.40166687965393,2.5122307210309,3.31803000298191,5.03571436897157,1.79449076217318,1.99698652419733,1.22007939712801,1.67255760975148,277.069993853569,56.4100012779236,33.266191187359,103.90142990152,11.9309525943938,15.8776192438035,65.301428034192,7.33476209640503,51.2547620932261,18.7248205369519,18.0883291562398,22.6242269395262,21.0080017307694,18.7751449554686,19.9343814805702,19.7053313769018,19.3664612148354,17.3432911467809,21.9203225412676,25.3299999237061,25.4749503644893,29.3008720310805,30.4665072910369,32.2541201606629,29.9202677395283,28.2214596385048,28.0482789753525,10.0600000504524,15.2766664822896,12.998270884804,17.3976861805709,19.7822220514691,21.2135912224098,18.704048814453,16.3385714299284,14.9717184025754,9.61284732078703,12.7690302394973,11.9492820630245,15.4976191875118,17.12130987162,18.6727738376249,16.2046370134919,14.4820857755482,13.9285000836298,0.915472352559665,1,1,1,1,1,1,0.999239795872954,38.89264,-92.2057525,2017,"MOH1",3
"B14A/H95","KSH1_2016",14.8,785.1829926912,0,2,175,80,93,93,0.381562503054738,5.59374988079071,9.0311369591709,3.98190999396102,0,0.897724768782806,5.01142138710802,3.32242425282796,5.67007326271352,12.2100000977516,44.7499990463257,140.950907804749,148.509091756561,0,8.37409110773693,139.43863695589,19.9345455169678,175.772271144119,18.4331542551517,14.0458284318447,18.3461373797249,20.8844651238299,22.7032874280756,20.5944180136979,18.3498667163808,18.1537938724865,17.325101912546,19.1512499600649,21.7012498378754,22.3390124406673,27.1937706264094,36.3127268877896,35.1754003625928,32.0107843193833,33.8563335245306,30.7689589111686,2.13062504353002,11.4649999141693,9.56823857872411,14.2621367966756,21.5872724706476,22.0435392319554,20.7806130140041,22.7113486636769,19.4913931130664,6.31585730010902,9.66729101728267,9.62689037894436,13.3541884288908,19.5659910681005,19.143975364632,18.068246454854,19.1205473197881,17.0374461461811,0.741573662447211,1,0.9212797776386,0.98604226771574,0.991287871402522,0.998977630941292,0.993550001780192,1,39.14480675,-96.62898225,2016,"KSH1",11
"LH195/PHZ51","DEH1_2015",19.425,707.63008234752,0,0.75,259.25,128.75,68.5,66.25,2.877187483944,6.84800000190735,1.65812227065002,2.89981113868033,0.533124998211861,6.39805544084973,4.54206526084818,4.66633341695581,5.69481861783612,92.069999486208,68.4800000190735,26.8631244525313,94.403749205172,0.778750002384186,57.5824989676476,115.858124211431,26.7362504601479,176.53937715292,18.0978914797306,17.2013893604279,20.1115188355204,21.0089776981854,21.5349248051643,19.2473051614232,17.7019111319721,15.0562807784194,15.1484673523134,16.8265626430511,19.2440000534058,20.7237695406926,27.6889034218542,31.5665628314018,31.8635417355431,32.09465687106,30.4336400264785,29.0939515059994,6.26593750482425,9.85899999141693,10.7453803031313,17.6787637613727,20.387500166893,21.3565970261892,22.772206074744,22.282508844421,20.5664716151453,6.52196032901766,8.41291476735724,9.22995774812798,14.8599372331721,17.9770314991474,18.5817073937474,19.3617069706047,18.3580744354498,16.8673674529789,0.750435272946821,0.870857151065554,0.962682183853112,1,1,1,1,1,38.62935675,-75.4656925,2015,"DEH1",3
"W10005_0107/PHB47","IAH1_2015",16.8,725.97247193088,0,12,273,129,65,64,1.56645163797563,2.21307695370454,8.40241855686024,1.32346369240836,0.084411761339973,2.29735939798791,2.93999255048908,2.37101190956701,2.73279376330065,48.5600007772446,28.770000398159,122.139999866486,43.5299997925758,0.168823522679946,22.8235286263859,100.118234865806,16.6700000342201,83.8129400085,20.4321490257017,18.8581149761493,14.6331772809511,22.3127675938035,19.1422725845786,22.2080652261871,19.8386258824345,18.3376315823456,15.0581957022198,16.087741913334,16.6453845684345,21.8469785316973,28.7334183023463,30.2685291065889,31.3074705248565,29.0510553070878,29.396362715275,24.6694635680625,1.83903228419442,4.86538466123434,13.1289285435553,16.8676896249547,20.0594113854801,18.0570519634322,16.3929613969702,15.4374991619954,11.1722985517151,5.44712973145307,6.09818857737345,10.4824096365253,14.9963247305916,17.1663926633043,16.728841860151,14.9692492703924,14.7713722092671,11.3064436073178,0.593087559179639,0.682994502258825,0.988452544600181,1,1,0.997626800819033,1,0.896934673983109,41.9980952,-93.69336973,2015,"IAH1",5
"LH195/LH82","KSH1_2016",13.4333333333333,792.90610409472,0,2,165,70,91,91,0.381562503054738,5.59374988079071,9.0311369591709,3.98190999396102,0,0.897724768782806,5.01142138710802,3.32242425282796,5.67007326271352,12.2100000977516,44.7499990463257,140.950907804749,148.509091756561,0,8.37409110773693,139.43863695589,19.9345455169678,175.772271144119,18.4331542551517,14.0458284318447,18.3461373797249,20.8844651238299,22.7032874280756,20.5944180136979,18.3498667163808,18.1537938724865,17.325101912546,19.1512499600649,21.7012498378754,22.3390124406673,27.1937706264094,36.3127268877896,35.1754003625928,32.0107843193833,33.8563335245306,30.7689589111686,2.13062504353002,11.4649999141693,9.56823857872411,14.2621367966756,21.5872724706476,22.0435392319554,20.7806130140041,22.7113486636769,19.4913931130664,6.31585730010902,9.66729101728267,9.62689037894436,13.3541884288908,19.5659910681005,19.143975364632,18.068246454854,19.1205473197881,17.0374461461811,0.741573662447211,1,0.9212797776386,0.98604226771574,0.991287871402522,0.998977630941292,0.993550001780192,1,39.14480675,-96.62898225,2016,"KSH1",2
"B73/PHZ51","NYH2_2016",17.4,731.12121286656,0,2,179,93,80,74,2.03451613264699,1.03000000119209,1.88805842038864,0.867300395588696,1.14095236573901,2.3264502044364,3.37645110879505,4.28774657460297,3.20857245139568,63.0700001120567,12.3600000143051,22.4085715952374,34.4438095036007,2.62285709381103,25.5909522488004,116.656190026374,31.7580950827826,97.8257142560823,19.2124098193261,23.3558462460836,23.4055682219574,22.1788358644049,23.9445644560314,21.2536164940178,17.188970918256,16.172458164546,13.3590641317158,14.0493548300958,18.6874999205271,27.5085128267558,26.2363372785012,28.7807143075126,29.3169266424138,28.4163855529889,26.4450086476851,23.1529754740241,1.68677417501327,4.43999998768171,12.9269903570741,12.8553450425452,13.8947619256519,15.6558873601806,16.8638179961093,13.5881803360115,10.5576226536427,4.5112983091881,6.60715549716729,12.8876567633635,12.3333042748845,13.7996271971815,14.74166699264,14.8229567266396,12.6605081320414,10.2684241420574,0.447315666670074,0.804761906110105,0.9994000377118,0.994542932132847,1,0.999880087618925,0.994843293976969,0.949842164673799,42.726117,-76.655339,2016,"NYH2",4
"B14A/OH43","NYH3_2015",20.3,731.12121286656,0.5,6,218.5,113.5,82,80,4.26838707539343,0,1.23480362862861,3.31548590496468,3.74470586428309,3.70874331928192,2.03473858875296,2.09190753286542,2.16016066343177,132.319999337196,0,17.669999435544,111.464706651428,9.84352939345819,38.4235294566435,75.3511776310556,21.4923532237025,65.3723531067371,20.9588571671517,21.7616018295288,22.010031667843,20.4765439063008,19.3750716377707,18.8480084862939,18.0995458235427,14.2586651794525,12.1716549346147,15.2151612850928,28.4139999389648,23.9726607996166,27.9485215330969,28.2241176156437,29.0064544300345,26.8861269088758,22.6542903882269,19.0203909387172,3.20645156502724,16.0079999923706,11.6223586733296,15.6103262901363,16.7502940963296,17.7263369351147,14.8880444255661,11.6083206558939,7.35658823269703,5.34962666660979,14.3873497094372,10.9577344850549,14.1718313559719,14.6193748893675,15.4121399843839,13.3167035418842,10.3456969793581,7.70771127893227,0.504331792142534,1,0.972673749990107,0.996219796126396,1,0.995345527139322,0.95775528025916,0.812032548066487,42.7233625,-76.6555945,2015,"NYH3",7
"TX714/PHZ51","ONH2_2015",20.3,771.02395511808,0,0,284,164,80,79,1.8764516076734,4.28266668319702,1.92800543142355,1.5826126299147,10.8026474223417,1.92320858157255,3.11438839923848,4.29490191426152,2.35638896233292,58.1699998378754,64.2400002479553,23.6199996471405,57.2247065095341,21.6052948446835,21.155294397298,115.501765766565,31.5629407868666,72.1164696006214,18.9538011243266,18.7670978546143,21.1774380927546,22.4541887468383,20.0410301545087,18.4543581008911,18.4537391837158,15.8007825277989,13.3453952521331,11.1738709480532,14.384666633606,23.912001533754,26.6127938053419,30.1517652623794,27.6505346247219,26.7798692937751,25.8746404647827,20.7920556972632,2.00677422361989,5.63600003321966,13.6495024548441,15.646883458515,19.3264702628641,18.5181282879835,16.7469462265247,15.4972220963123,11.0305445628027,3.74293843582847,5.61712950522319,11.5306591381689,13.5235311876304,16.7854267763897,15.1342186639452,13.9515349469929,13.1846932018183,9.37660248979743,0.276970042748385,0.589690475094886,0.985132405558233,1,1,1,0.993019958754548,0.931831119234909,42.45408625,-81.8816065,2015,"ONH2",3
"B97/PHB47","WIH2_2015",25.95,820.580586624,0,0,262.5,127.5,65,64,3.12677418801092,2.65500004092852,4.10360587788369,5.33606725073504,1.86882352828979,3.14284756646862,3.06635871261474,6.46327216547577,3.42627895726651,96.9299998283386,15.9300002455711,53.5811765053693,186.069413493661,5.43588234396542,36.0370585217195,132.474706411362,52.801177333383,103.499412364819,19.6364621193178,20.5731145540873,21.5892617017256,21.0711117653476,18.3630023844102,19.2051703551661,18.5458357222424,13.68038167737,11.3747629179222,15.6409677997712,24.9766667683919,26.1182311514896,28.0952907748788,27.5158822676715,27.9129860396904,26.446906195709,23.9533144307555,17.6364554289999,3.35580646607184,13.6266668637594,13.8892249418098,15.1778817355709,17.2276475008796,16.9294609080024,13.7343451854096,12.6373390166389,6.34391337544442,5.37086055393058,11.9313890592981,12.6525642606911,14.0429022055175,14.4358603312718,14.5758898439564,12.7664601406529,11.4948295633928,7.02316371690367,0.588214291611575,1,1,1,1,0.979783321564246,0.914260834660243,0.715230077160589,43.3264485,-89.33359975,2015,"WIH2",4
"2369/LH123HT","ARH2_2017",17.15,731.12121286656,0,2,195.5,88.5,67,64.5,2.78999999538064,15.8328568594796,4.77601641275428,2.85394902786212,1.14250000317891,5.6518181520279,3.90594825537953,2.44303250003171,4.68862172454333,89.2799998521805,110.829998016357,61.6427268981934,88.9586376927116,3.00318182598461,52.4286360849034,105.244998791001,13.3377274599942,145.347273460843,17.1448929607868,19.0943690708705,20.93439510552,19.6567025811074,19.8440968123349,19.121190304708,18.8117640717936,19.6525999680226,17.5468659967271,23.6565626561642,24.5514286586217,25.3854145473792,28.9612549027647,32.4009845762542,30.8456569180344,31.842414729907,32.8362724886312,30.2008795304732,12.0734375119209,12.1614287240165,12.7110645043048,18.0477898004787,21.7873485449589,20.244100979121,21.8778156646752,22.2563917395356,20.2611290842207,10.8387815822115,11.2209416506324,11.8857993828006,15.6258454685709,19.0941665606065,17.5448789485777,18.8103181039231,19.2769367120475,17.252651155063,0.991674107100282,1,0.973153680072931,1,1,1,1,1,35.67418125,-90.0752695,2017,"ARH2",9
"LH195/PHZ51","WIH1_2017",20.45,725.97247193088,0,2,259,128.5,80,80,3.89483860231215,1.69400000274181,3.49156577965838,6.2519143171591,26.2978026361176,12.3515148027377,1.78262104808487,1.03121945111417,2.01941396652895,120.739996671677,16.9400000274181,60.7700004577637,238.208635676991,55.4840900247747,148.218177632852,77.271818082441,11.1354542618448,60.745454186743,17.960097635946,21.5698625564575,18.7158230082745,20.7331612703905,19.6944010185473,19.5872614094705,19.1692292014325,15.6915139185436,12.2199858597646,16.0345162114789,20.211999797821,20.2299808812544,26.7106026620157,27.0055303284616,27.1642803278836,24.808088372499,24.0364187930535,21.8450449974554,3.37838715026456,6.26000000238419,9.26856570777133,14.6662764981358,15.355757669969,16.2110985698122,13.1758958125295,11.5252111876034,9.50942962348574,5.50743496208047,7.7204112419547,8.66460263667967,13.1489127920754,13.4606804243422,13.904384596596,11.6785635653614,10.9014606457238,9.60826542273389,0.606900931675039,0.87353569992951,0.867893568108202,1,1,0.99822024159571,0.971647402783493,0.89569217047159,43.05668125,-89.5308135,2017,"WIH1",4
"PHW52/PHN82","NYH1_2019",26,686.71332229632,0,1,259,134.8333333,70,70,3.74249998852611,3.13750004023314,5.75382418421519,3.19318469405372,5.05499997505775,4.67964498742798,3.14173431505368,2.11561926224602,4.09564599909039,119.759999632835,25.1000003218651,83.0561534670683,110.787691554198,10.5969229478102,60.8353848365637,169.678460007677,49.6684614184957,126.198460106666,19.3120462298393,22.906525015831,19.4055643197987,20.0954846191366,19.5441625057123,18.4327194563736,14.7868750412398,11.8266811133142,8.21836269058601,18.6993749439716,22.8587503433228,22.9010546045212,27.5168322059324,28.2501282325158,26.2428401066707,22.0298851708133,19.800822747137,11.0057352093984,7.84562503546476,10.0637499690056,12.2881303876188,16.102631765372,16.0733334345695,14.3993490828565,10.6740678622988,8.35750533580157,1.63569085205791,7.63952840037155,9.77521380841136,10.4905594472129,14.0585405915596,14.3930059612616,12.7382854892206,9.76289549498727,8.6764710214225,3.98046667720391,0.838560268548982,0.991875007748604,1,1,1,0.934962265626692,0.800347461722585,0.399612351739001,42.7288875,-76.65152084,2019,"NYH1",8
"B14A/MO17","TXH3_2019",9.865,769.968463226265,0,0,198.5,75,69.5,69.5,1.71448274965173,0.072857141494751,3.656594302147,9.09543456371003,0.409285715648106,1.20767857134342,5.35585078307965,1.24614285230637,1.57441934339828,49.7199997399002,0.509999990463257,52.0078563094139,328.212138780526,0.592857139451163,9.66142857074738,146.447857277734,6.531428532941,47.5149996536119,15.4280570457722,20.5213113512312,18.768988344457,18.5703255916766,21.4234965869359,18.852815253394,20.148813605732,21.0307275136312,19.8408923398148,18.4500000723477,25.7642857687814,24.4325494379212,27.2758673216928,31.0900000163487,32.3786609854017,32.7243520483546,34.0447144826253,34.9820077594341,6.8262069143098,10.3500000408718,10.6796315414328,14.7876673923985,18.6585717882429,21.8507142748152,21.0244273483534,21.7961428233555,22.6049738996772,7.4578164675981,11.1589152046898,10.8511947929525,13.4663040330347,16.9119367665064,19.1141210544432,18.8476531392514,19.7780710195599,20.0141955883191,0.749667494461454,1,0.945308164445992,1,1,1,1,0.999698925164804,30.546318,-96.4329965,2019,"TXH3",8
"PHW52/PHN82","IAH1_2017",17.1833333333333,757.07944841728,0.333333333333333,1.66666666666667,192.666666666667,84.6666666666667,65,64,3.40562492981553,4.9653845842068,4.75627611908435,1.83360658706262,3.81409099607757,2.22148488699788,3.67080832802223,1.81325483980117,2.34747311753145,108.979997754097,64.5499995946884,71.2827261577953,63.7872725833546,4.17772737416354,22.8386367667805,118.906818606637,13.7622724988244,72.0368181575428,16.1986516714096,17.4117801372822,18.8419865113308,22.0772261853777,19.5709462599321,20.6423577019663,19.6533487855188,19.1238258402757,16.8780910515948,17.1134373545647,15.3784616176899,22.9595167923024,28.098072667094,26.507423805468,30.2796059126806,29.7994892260695,26.9283494144291,26.376740509697,5.4131250269711,4.92307697809659,11.465490162608,14.1696252786347,11.6175757754933,16.6577523703527,16.6650409071547,13.3875722172112,12.4151066155028,6.53077833948335,5.76856381165309,10.4537021498713,13.7196511279626,11.9478337828281,15.6426259768559,15.399646170179,12.7123989246095,12.1737806011652,0.629988832066634,0.555054952155103,0.946458761983939,1,1,1,1,0.998130952344312,41.19924609,-91.49402296,2017,"IAH1",9
"PHW52/PHM49","SCH1_2020",14.135,731.12121286656,2,8,90,37,60.5,59.5,6.72612905502319,12.6195001602173,14.6709951034396,2.00004706411726,2.50574996471405,4.42531940539678,2.2684627114437,6.18714998006821,5.02309186842493,208.510000705719,84.1300010681152,163.686000823975,61.5099992394447,5.0114999294281,39.6814996480942,62.5769994258881,33.6459998607636,155.465497928858,20.3681760849491,19.6697832584381,14.7552605822739,19.8596108181735,19.9601446628571,19.2446548587746,19.8780910530624,16.407526623408,15.6462510356339,22.325677311805,25.3399996757507,25.3184633196214,29.1971057408356,32.4110002994537,31.6696106500096,33.3203228086908,31.9290998840332,30.2404226837363,7.9367419769687,12.7089999675751,16.319556633101,18.6552118308069,21.0972501277924,21.173652598593,21.4688300754659,21.1913665390015,20.4882623517641,8.96370159284429,11.7659358628616,13.234286057093,15.9884621138667,18.754125213623,18.4214103661816,19.3242599964586,18.5602332115173,17.4029431579922,0.984170503605346,1,0.97395093803367,1,1,1,1,1,34.62225,-82.736661,2020,"SCH1",12
"PHP02/PHB47","ARH2_2017",18.85,731.12121286656,0,2,142,65.5,62,58,2.78999999538064,15.8328568594796,4.77601641275428,2.85394902786212,1.14250000317891,5.6518181520279,3.90594825537953,2.44303250003171,4.68862172454333,89.2799998521805,110.829998016357,61.6427268981934,88.9586376927116,3.00318182598461,52.4286360849034,105.244998791001,13.3377274599942,145.347273460843,17.1448929607868,19.0943690708705,20.93439510552,19.6567025811074,19.8440968123349,19.121190304708,18.8117640717936,19.6525999680226,17.5468659967271,23.6565626561642,24.5514286586217,25.3854145473792,28.9612549027647,32.4009845762542,30.8456569180344,31.842414729907,32.8362724886312,30.2008795304732,12.0734375119209,12.1614287240165,12.7110645043048,18.0477898004787,21.7873485449589,20.244100979121,21.8778156646752,22.2563917395356,20.2611290842207,10.8387815822115,11.2209416506324,11.8857993828006,15.6258454685709,19.0941665606065,17.5448789485777,18.8103181039231,19.2769367120475,17.252651155063,0.991674107100282,1,0.973153680072931,1,1,1,1,1,35.67418125,-90.0752695,2017,"ARH2",4
"F42/H95","NEH2_2018",15.85,760.08288062976,0,2,237.5,96,65,64,1.22354839309569,0.707272735509005,4.76391163477479,2.42266069272827,9.35923087596893,1.18776923774654,2.22139935021973,1.06061537239578,2.65564350872566,37.9300001859665,7.78000009059906,61.5892304823949,72.5253856457197,18.7184617519379,11.034615443303,72.0223070428922,6.79538455376258,82.0723077448515,19.8632896023412,17.8607451698997,17.2435083841872,22.6349901528079,18.628623522245,21.2128618370773,19.6223780615579,18.4525281914861,16.5687013774395,17.691935500791,17.4790908640081,23.0465718636968,30.8117888702973,30.823461826031,31.1549999628312,29.4152359702256,30.1389270020929,26.5711762356107,3.02612899964856,6.97909088568254,13.8680170539226,18.3158259088611,19.9407690488375,19.0567348488376,17.5250552467636,17.6920075343205,12.6963680309468,6.27529999293415,6.96591957194354,11.1088917397853,16.6618821512434,17.3821154374343,17.1119836026383,15.6185736804764,16.0902520506476,12.6873550713879,0.680334109864477,0.762240243422521,1,1,1,0.996687975382261,0.997695055112734,0.910447977617617,41.38042275,-96.55988375,2018,"NEH2",9
"PHG29/PHG47","NEH4_2017",10.865,820.580586624,19,3,229,73,65,64,4.59032254834329,9.02400010824204,0.479867887087711,3.81196387431756,0.538484847906864,1.68492423765587,2.26785004737447,4.65714278971994,3.86350145999521,142.299998998642,90.2400010824204,5.1100001335144,117.465453971516,1.61545454372059,15.1345454129306,79.631816983223,32.5999995280396,117.425454340198,19.4391373357465,17.2153170108795,24.1724838998111,20.9591997537085,19.5087172190348,19.2150816303311,18.9073912886805,17.6974393903435,15.3998570417962,20.6222579863764,19.5259998321533,28.5942012750084,30.0674228663154,31.2254544460412,32.427121184089,28.6164972680056,28.4793340540552,26.8324867737025,7.51935482409693,9.5090000629425,13.5708453749115,16.7542414705589,19.4418183529016,20.4097727645527,17.1637547198432,15.7475164269472,13.7100762172769,8.50655754019973,8.45038905221992,13.6268597566258,15.5881735310777,17.3431474848323,18.3684917818816,14.9784288099449,14.344579744287,12.8768287854953,0.797626728973081,0.881249991485051,1,1,1,1,1,0.994264068992333,41.162,-96.409,2017,"NEH4",2
"PHP02/PHB47","IAH4_2017",19,718.24936052736,1,2,212,95,65,65,3.05419361206793,4.63857133047921,5.65428284440315,2.35614602206887,0.14500000260093,0.823262633699359,3.0299399841441,2.50648539721385,3.02203274721158,94.6800019741058,32.4699993133545,92.5500001907349,79.8100001811981,0.29000000520186,7.93136371265758,110.043181820349,17.6581818705255,91.7922727492723,19.6043462753296,22.3785518918719,18.8162880805234,21.4694011437152,22.4233230460774,21.2695237410189,19.151369503563,15.9420575880557,15.341385783443,17.8393548227126,25.2142854418073,21.7675578492375,28.8834045222006,30.8898489258506,30.9933841088806,28.3060990673118,26.2662246385522,25.9343880588008,4.95258065529408,10.1399999346052,10.2470841328658,15.0215020746586,17.4712879585497,18.0760807755018,15.8066246452854,13.8702660153955,12.5135465144736,6.57524394811711,10.823012742074,9.64996062135486,14.3656457039619,16.2281010402398,16.5739815495123,14.3659785216558,12.5754656563723,12.0621406847053,0.727396317478698,1,0.91008219867215,1,1,1,1,0.9871688305106,41.99455432,-93.69030947,2017,"IAH4",5
"PHG80/PHZ51","ONH2_2017",17.7,731.12121286656,0,2,229,110,65,64,3.5667742529223,5.81600005626678,0.640467161488946,2.60285034576314,0.27619046824319,0.553043346265297,1.77415042468807,1.8322193505358,2.40528059047854,110.570001840591,58.1600005626678,8.99904758589608,96.0257148231779,0.55238093648638,6.91857143810817,78.7085716128349,24.0661906514849,72.9814284727687,18.8542372026751,16.7486707210541,24.2129103871374,19.3709418074881,21.1971578446646,20.8470523735834,17.6115175917995,14.25368499546,9.92782470727663,15.7532256957023,18.6889998435974,23.4026282865202,26.349749969441,26.5938094911121,26.8606501324273,24.5722531696102,22.9174861617247,20.0059681545616,5.76483872628981,10.960000038147,12.0335911848343,16.1800782706558,16.6330158142816,15.9192033646599,13.1457407086605,11.2717777505092,10.1065058561854,6.14192830243868,8.3866030604193,10.6839465453898,13.5252167119854,13.7753985037319,13.6499871813553,11.5882146496872,10.4155272324174,9.10741430426533,0.598502302774086,0.966571422985622,1,1,1,0.999084662263501,0.956230826192702,0.830002500100802,42.45293025,-81.8827315,2017,"ONH2",4
"PHG29/PHG47","IAH1_2017",15.55,743.3494725888,1,4,168.5,79,65,64,3.40562492981553,4.9653845842068,4.75627611908435,1.83360658706262,3.81409099607757,2.22148488699788,3.67080832802223,1.81325483980117,2.34747311753145,108.979997754097,64.5499995946884,71.2827261577953,63.7872725833546,4.17772737416354,22.8386367667805,118.906818606637,13.7622724988244,72.0368181575428,16.1986516714096,17.4117801372822,18.8419865113308,22.0772261853777,19.5709462599321,20.6423577019663,19.6533487855188,19.1238258402757,16.8780910515948,17.1134373545647,15.3784616176899,22.9595167923024,28.098072667094,26.507423805468,30.2796059126806,29.7994892260695,26.9283494144291,26.376740509697,5.4131250269711,4.92307697809659,11.465490162608,14.1696252786347,11.6175757754933,16.6577523703527,16.6650409071547,13.3875722172112,12.4151066155028,6.53077833948335,5.76856381165309,10.4537021498713,13.7196511279626,11.9478337828281,15.6426259768559,15.399646170179,12.7123989246095,12.1737806011652,0.629988832066634,0.555054952155103,0.946458761983939,1,1,1,1,0.998130952344312,41.19924609,-91.49402296,2017,"IAH1",3
"F42/OH43","ARH1_2018",21.2,506.764826594304,0,2,202,111.5,65.5,56,6.80749994516373,4.70999993596758,2.62777637512911,4.73591215777578,3.61916664668492,6.96017852632536,4.33043756926438,0.796285740818296,3.37467743449497,217.839998245239,32.9699995517731,35.4892859118325,145.294284343719,5.83142852783203,62.5142853089741,109.797857735838,4.00357156140464,104.615000469344,17.9970670938492,21.7022604261126,20.0594998235876,19.526801115197,21.5939762251718,17.9926481322637,18.0574776027005,19.3321502186003,18.3042435536187,21.0706250667572,24.3185710906982,24.0216893355052,29.4527985731761,31.7309522401719,30.7069242303334,32.5717108049104,33.2952144259498,31.8374196285476,10.2671874910593,12.0357142857143,12.7020508751037,18.6741208320572,19.9915478343055,20.6467757206115,22.9033521317947,23.2358570643834,21.2883410212082,9.22327753419032,11.0103677478877,11.2783232173313,16.1126744540351,17.8620654597657,17.6775747954964,19.7277038225499,20.1946927088828,18.5436880911809,0.945725440979004,1,1,1,1,1,1,1,34.729679,-90.7603455,2018,"ARH1",9
"PHW52/PHM49","TXH1_2020",11.4,762.97904740608,0,2,189.865,53.34,69.75,69,2.28433333331098,0,4.61353044432774,2.94980638849668,1.36294118095847,6.7410564637935,2.84486909263784,3.82908822368173,2.301094230755,68.5299999993294,0,55.9705880389494,110.798823826453,1.36294118095847,71.5223531162038,82.3205902821877,18.9735293598736,69.2911760666791,13.9134384314219,13.3863348007202,15.088164375906,19.7933785915297,19.4813054589664,19.2417072595335,19.7711375744947,20.7945973003612,17.9149533192166,20.0226665178935,27.1799999237061,26.6081594159341,26.5247929322772,29.3961763568953,29.1298912438196,32.2266945953012,33.0307648490457,34.5951133136882,6.79433329502742,17.2040002822876,15.2455437040242,13.6535979675367,17.2968629762238,16.6133713076813,20.7334833408845,20.0616762385649,24.2403706907095,7.90124714145222,14.2729251500305,13.3803758475957,12.7673898940848,15.580090070985,15.1112637437017,18.3989215931754,18.5370137273102,20.5020201130472,0.821357143209094,1,0.992435039560276,0.993791593664641,1,1,1,0.999042533455884,30.53781575,-96.4283715,2020,"TXH1",13
"F42/MO17","WIH3_2020",22.575,672.71518287744,0.125,0.375,266.875,140.75,67.875,65.125,2.73387099466016,5.44666663805644,6.11239434228461,4.74655673957897,3.65520838896433,1.04360978993086,2.52737357222777,3.69928986022844,2.61452892025312,84.750000834465,32.6799998283386,82.9068754017353,167.614998608828,8.00312513113022,12.5831251740456,113.845000911504,40.7431249599904,78.9343756753951,20.4191938446414,18.2775026957194,21.3363986461162,20.4033799459214,19.4941376050313,18.9932405837835,17.8085082296476,14.1515686256897,10.1168500992159,15.4835483797135,26.5249999364217,25.3910038587283,27.3054167793066,28.0012496709824,27.2440142776722,25.7761753723956,21.7808881945413,14.6724570472394,3.10612901901045,15.185000260671,12.312735908122,15.123175314262,16.146249661843,16.3134012592909,13.1733057892212,9.92591724029578,4.43131184304203,5.28710284240159,13.2823577957378,11.7041650335396,13.6199253532732,14.285058816977,13.9780898767752,12.2905957931118,9.65764349110555,5.63013772707548,0.571854837255956,1,1,1,1,0.965668941592988,0.879609053948229,0.560799012057334,44.115703,-89.54491325,2020,"WIH3",9
"LH74/PHN82","DEH1_2016",19.75,737.55713903616,0.5,2.5,246,126,77.5,78,2.70187503471971,7.43181821432981,3.8913443672194,3.01543568987816,5.35810598460111,2.45305554595861,7.02803129397506,2.62431810561455,3.19686020007931,86.4600011110306,81.7500003576279,66.3949995338917,101.616362200542,13.3345452438701,24.0222726382992,188.323178079995,15.0527268241752,98.5804540785876,18.330474331975,10.1000462011857,19.4097170760173,21.0293855949914,18.2505545182662,17.6465201137042,18.9446848277627,17.7865102970239,16.4444979187331,18.0900000035763,16.6009089730003,19.9020842077776,27.6764673780698,27.7968177506418,28.9030859032063,31.9137982464639,31.2181211240364,30.5716960682314,5.52968750568107,9.93090907010165,10.1128978635646,16.858989299231,18.0210605245648,19.7880051766983,21.9088104518459,21.6295759258848,20.1612733062994,6.82557737843557,7.64560586528393,8.60663778636783,14.4360322816611,14.984016447316,16.3761010057792,18.8554137385462,18.377489564845,17.3477874995971,0.726328134087713,0.729318175997053,0.99092985905268,1,1,1,1,1,38.6482025,-75.44606,2016,"DEH1",6
"PB80/PHZ51","IAH1_2017",16.5,772.311140352,1,1,215.5,99.5,65,64,3.40562492981553,4.9653845842068,4.75627611908435,1.83360658706262,3.81409099607757,2.22148488699788,3.67080832802223,1.81325483980117,2.34747311753145,108.979997754097,64.5499995946884,71.2827261577953,63.7872725833546,4.17772737416354,22.8386367667805,118.906818606637,13.7622724988244,72.0368181575428,16.1986516714096,17.4117801372822,18.8419865113308,22.0772261853777,19.5709462599321,20.6423577019663,19.6533487855188,19.1238258402757,16.8780910515948,17.1134373545647,15.3784616176899,22.9595167923024,28.098072667094,26.507423805468,30.2796059126806,29.7994892260695,26.9283494144291,26.376740509697,5.4131250269711,4.92307697809659,11.465490162608,14.1696252786347,11.6175757754933,16.6577523703527,16.6650409071547,13.3875722172112,12.4151066155028,6.53077833948335,5.76856381165309,10.4537021498713,13.7196511279626,11.9478337828281,15.6426259768559,15.399646170179,12.7123989246095,12.1737806011652,0.629988832066634,0.555054952155103,0.946458761983939,1,1,1,1,0.998130952344312,41.19924609,-91.49402296,2017,"IAH1",5
"LH74/PHN82","WIH1_2020",19.75,732.40839810048,0.5,5,245,117,72.5,70.5,1.59838711061785,6.50714300359998,4.41352047113916,5.45542643820132,9.57615368182843,6.84825181127428,1.84719881902334,1.30244238470478,3.23367497316562,49.5500004291534,91.1000020503998,54.0530769802057,191.976921805969,14.7699995774489,75.3307699240171,75.5292314841197,17.1992309551973,99.2976933901127,20.3303611970717,17.7093844073159,19.6377469573902,21.7192805749651,19.4719141446627,18.0877809324465,19.5250672167142,17.0227731666303,12.7424436758233,13.8093548359409,15.7821428094591,24.7187017149516,28.033127103902,31.3961546971248,28.1712590197583,26.9553556739421,26.2427392980096,20.067150654637,1.33290325153259,5.15000006104154,13.2586988238647,14.9072456821681,18.8092307677636,17.6374126180902,14.6682007343716,13.0054438131186,8.42975850841346,4.40407542638638,5.92012185452547,11.7383860300671,13.8805458366735,17.1295568336927,14.9524727582334,13.3020801105566,12.6359188849815,8.58850906873917,0.464815660178112,0.623010193140303,1,1,1,0.987099279404792,0.934776512387789,0.808464704181206,43.05505505,-89.52853825,2020,"WIH1",7
"PHW52/PHM49","OHH1_2019",15.75,722.75450884608,0,0,241,125.5,57.5,54,4.52187501639128,5.60142850450107,9.49218418812764,3.67767790493084,1.56571434225355,0.385974026345587,1.86530509479137,1.65904762083981,1.75173883737507,144.700000524521,39.2099995315075,109.352857010705,105.492856400354,2.90714296272823,4.24571428980146,67.7371422350407,11.4071428733213,52.9257135008063,18.8840596526861,17.4926710128784,16.8400286458912,20.3390746061215,18.2435736315591,21.9239106364064,17.3234712965801,16.4353543187485,12.6882473915586,23.6978123784065,23.0442856379918,25.9338769538436,30.6462611406935,27.2342853546143,29.1364936828613,27.6347160934714,28.4020578731485,24.227758823928,12.3731250613928,13.0142856325422,16.5405247622919,19.1537767425904,17.2985715184893,16.61116872515,15.6873998226323,14.4186055400745,10.1522703877059,11.0978151065421,10.856451580884,13.4108578189607,16.9524907944801,14.3911883936558,15.002149715115,13.9211580533092,13.8157455840743,10.7664966885892,0.952522322535515,1,1,1,1,1,1,0.923664696824271,39.85685125,-83.67122475,2019,"OHH1",14
"F42/OH43","DEH1_2016",22.9,672.5542847232,1.5,2.5,272.5,128.5,77,77,2.70187503471971,7.43181821432981,3.8913443672194,3.01543568987816,5.35810598460111,2.45305554595861,7.02803129397506,2.62431810561455,3.19686020007931,86.4600011110306,81.7500003576279,66.3949995338917,101.616362200542,13.3345452438701,24.0222726382992,188.323178079995,15.0527268241752,98.5804540785876,18.330474331975,10.1000462011857,19.4097170760173,21.0293855949914,18.2505545182662,17.6465201137042,18.9446848277627,17.7865102970239,16.4444979187331,18.0900000035763,16.6009089730003,19.9020842077776,27.6764673780698,27.7968177506418,28.9030859032063,31.9137982464639,31.2181211240364,30.5716960682314,5.52968750568107,9.93090907010165,10.1128978635646,16.858989299231,18.0210605245648,19.7880051766983,21.9088104518459,21.6295759258848,20.1612733062994,6.82557737843557,7.64560586528393,8.60663778636783,14.4360322816611,14.984016447316,16.3761010057792,18.8554137385462,18.377489564845,17.3477874995971,0.726328134087713,0.729318175997053,0.99092985905268,1,1,1,1,1,38.6482025,-75.44606,2016,"DEH1",10
"WF9/H95","NYH3_2015",21.3,731.12121286656,0,10,237,106.5,79,77.5,4.26838707539343,0,1.23480362862861,3.31548590496468,3.74470586428309,3.70874331928192,2.03473858875296,2.09190753286542,2.16016066343177,132.319999337196,0,17.669999435544,111.464706651428,9.84352939345819,38.4235294566435,75.3511776310556,21.4923532237025,65.3723531067371,20.9588571671517,21.7616018295288,22.010031667843,20.4765439063008,19.3750716377707,18.8480084862939,18.0995458235427,14.2586651794525,12.1716549346147,15.2151612850928,28.4139999389648,23.9726607996166,27.9485215330969,28.2241176156437,29.0064544300345,26.8861269088758,22.6542903882269,19.0203909387172,3.20645156502724,16.0079999923706,11.6223586733296,15.6103262901363,16.7502940963296,17.7263369351147,14.8880444255661,11.6083206558939,7.35658823269703,5.34962666660979,14.3873497094372,10.9577344850549,14.1718313559719,14.6193748893675,15.4121399843839,13.3167035418842,10.3456969793581,7.70771127893227,0.504331792142534,1,0.972673749990107,0.996219796126396,1,0.995345527139322,0.95775528025916,0.812032548066487,42.7233625,-76.6555945,2015,"NYH3",4
"F42/OH43","MOH1_2015",17.25,731.12121286656,0,9,210,107.5,78,76,3.91483872167526,3.00272724845193,2.70388340007172,5.64622626815722,2.26875001192093,1.18333334392971,4.73674408601423,1.74040179593222,3.6664919433214,121.360000371933,33.0299997329712,34.4199993312359,178.871247828007,5.86875003576279,10.6500000953674,140.261874556541,11.8831250667572,113.661250242963,18.8184669402338,18.8870315551758,16.929197347905,21.705914807588,15.7215426564217,19.9453006850349,18.4742217908113,20.1287302806264,17.0265389219407,18.2845160884242,18.0018183101307,23.7780545636798,28.9302828526302,29.8559374809265,31.7611801889208,30.4214076278912,28.5805001264527,28.4314314703788,5.85709682707825,7.50000006502325,15.2148777665246,17.6487962035776,21.6728123426437,21.4597915940815,20.2818253816477,17.0989999456065,17.2866936922073,7.06854431480445,7.30219313947649,11.971425794578,15.3979636076336,17.7643749117851,18.6104858915011,17.38069400277,14.991826945877,15.0531743909791,0.723283405334169,0.814935085835395,1,1,1,1,1,1,38.8965375,-92.20800417,2015,"MOH1",11
"B97/PHB47","ILH1_2015",11.1,736.26995380224,0,0,252.5,112.5,65.5,64.5,4.34343749051914,1.29615384340286,7.654899738758,5.34311294988612,3.67499995231628,2.46729163328807,4.64726805078788,0.712819956420433,1.9519079085119,138.989999696612,16.8499999642372,99.8675005473197,177.342500980943,7.34999990463257,22.2056246995926,144.025624632835,5.03937511332333,60.0618743356317,19.4076893031597,20.2182017839872,17.5801237771363,22.592317287411,17.3577569425106,20.1224286291334,18.7955131537028,20.3716592643233,16.8099873810686,15.693750217557,16.2761536378127,23.8148397458069,28.7742831748073,30.2824996709824,31.917013724645,28.6589959642683,28.4854071997461,27.0987701069283,2.91687501082197,4.60230773228865,13.9338979229276,16.2604470887104,20.4774998426437,20.4138195912043,17.7954354684494,15.771967322202,14.6267217462101,5.33980004312561,5.92163564241169,11.5310566581626,14.7484368961231,17.379999756813,18.1717816417615,15.315695861998,14.446488469174,13.3642133617155,0.599162963767802,0.63684064575604,1,1,1,1,1,0.998281250042575,40.05982425,-88.23397575,2015,"ILH1",5
"B73/MO17","SCH1_2018",14.815,731.12121286656,0,2,198.5,112,64,64,5.50937507301569,3.37250000238419,5.77532792752829,7.72812766098977,4.71095229046685,3.13060314183971,3.12348515829066,2.01328565960839,5.79306446956599,176.300002336502,26.9800000190735,97.6099995204381,245.673573059695,5.41571421282632,31.8442854029792,83.9342848232814,10.5378568683352,179.584998556546,18.6477236524224,19.2869287729263,21.173054595667,18.1631813069703,18.8474233264015,19.2548603041347,19.9945130026415,19.3178334372384,16.3013944175386,22.5390624701977,22.5337498188019,23.0902047939223,27.6187004518251,28.0654765991938,28.9085680901058,32.584791315526,33.4833329836528,31.116866401813,9.30156246945262,9.31125009059906,8.76240008069966,17.5066534747267,16.7615474973406,18.3829589417142,21.2079791456952,21.6712853658767,20.8076727291406,9.59119125294698,9.40007484305004,9.57450522783795,14.7679377529716,14.5196225818089,15.7238139666896,18.8616965293534,19.451053178185,17.9628857433375,0.951841517750706,1,0.982626498534951,0.991514694994028,1,1,1,1,34.6223015,-82.7364835,2018,"SCH1",6
"CG119/CG108","OHH1_2020",14,755.57773231104,0,2,229,110,49,47,4.17531252652407,1.24000000953674,2.00345390284468,2.60983029866827,3.23846153112558,4.45886834167934,3.00036561176739,1.62123751863745,2.44580479004937,133.61000084877,6.20000004768372,24.4130769326137,78.6046159542524,5.61230769524207,46.1353850364685,105.099228918552,18.4038462547156,73.9823074799318,19.0699402838945,20.3434976577759,22.2606296382627,20.3012567157111,18.9498025820805,17.7236463467836,17.4778105651895,14.6981523061276,13.3187672602627,20.7559375166893,29.3100002288818,26.9862925042267,30.2695111898902,31.9223073812631,29.6345828447586,27.3548547015208,24.4549626237029,20.9133971554963,9.30187501414912,17.6140003204346,14.1865254708109,18.2208269882724,19.4742308396559,18.7425546755046,15.6630529320659,13.0705697417276,8.16455502736238,9.09812715428091,15.5392395086553,13.053962338305,16.293566554699,17.6982691104595,16.2136008397491,13.8472545696004,11.755231160095,8.71363226327798,0.810993301958661,1,1,1,1,0.998602591314452,0.941606618318591,0.857376018975295,39.85643475,-83.67288725,2020,"OHH1",6
"B73/TX779","GAH2_2020",14.75,762.01365848064,1,26,225,132.25,64.25,62.25,4.57387093959316,0.441111114290025,8.35394185372255,2.5962924982051,5.73357168265751,2.10309520316502,2.17900143835476,2.48514287812369,3.91854836534245,141.789999127388,3.97000002861023,91.3907156842096,80.7742858465229,11.4150005068098,18.9278568284852,57.7149996161461,12.4257143906185,121.474999325616,20.6617187376945,23.2718448638916,17.5894329765579,19.5164109002456,18.7530079569135,20.3538568436153,20.2600156135181,17.1142686435155,16.0110933209345,24.3293548707039,22.8122221628825,27.2504947599791,29.7690339777179,31.2345238640195,32.734285172962,34.1389163525176,33.4245718002319,31.6445851084274,9.68354843124267,7.43777778413561,15.0700236897766,18.4119594858843,20.4682145799909,20.9503967497084,21.2406723049754,21.9171428135463,20.839055221751,10.3443726467021,8.95024401989543,13.555408754191,16.1518166823771,17.8513692220052,18.8423409613352,19.4006118837996,19.5800409446887,18.2372896183776,0.993479262299252,1,1,1,1,1,1,1,33.72355555,-83.30265185,2020,"GAH2",5
"PHP02/PHB47","KSH1_2016",13,787.75736315904,0,2,150,55,93,93,0.381562503054738,5.59374988079071,9.0311369591709,3.98190999396102,0,0.897724768782806,5.01142138710802,3.32242425282796,5.67007326271352,12.2100000977516,44.7499990463257,140.950907804749,148.509091756561,0,8.37409110773693,139.43863695589,19.9345455169678,175.772271144119,18.4331542551517,14.0458284318447,18.3461373797249,20.8844651238299,22.7032874280756,20.5944180136979,18.3498667163808,18.1537938724865,17.325101912546,19.1512499600649,21.7012498378754,22.3390124406673,27.1937706264094,36.3127268877896,35.1754003625928,32.0107843193833,33.8563335245306,30.7689589111686,2.13062504353002,11.4649999141693,9.56823857872411,14.2621367966756,21.5872724706476,22.0435392319554,20.7806130140041,22.7113486636769,19.4913931130664,6.31585730010902,9.66729101728267,9.62689037894436,13.3541884288908,19.5659910681005,19.143975364632,18.068246454854,19.1205473197881,17.0374461461811,0.741573662447211,1,0.9212797776386,0.98604226771574,0.991287871402522,0.998977630941292,0.993550001780192,1,39.14480675,-96.62898225,2016,"KSH1",6
"B73/PHM49","KSH1_2018",15.3,792.26251147776,26.5,2,229,110,65,64,0.123225804298155,1.30900002717972,2.83506375319456,1.2459214324312,6.19076948899489,0.847777789474553,5.1218265908424,3.69192301692107,0.576771714573463,3.8199999332428,13.0900002717972,33.3599996566772,37.3992318190061,6.19076948899489,7.63000010527097,140.858461535894,22.1515381015264,17.8223077677763,23.1370286018618,19.2060641288757,23.7691797272003,25.0194683662448,21.7231781299298,23.9963390562269,18.765791145748,18.1217001366528,19.2415732235431,22.7570966443708,20.7710000038147,27.0889297319322,34.1348485103316,36.7992310157189,35.2770086761214,33.1767755582226,30.5195789686489,31.4897389333834,3.91580647806967,6.77899992465973,10.7568288663889,16.6038358814018,18.2684613741361,18.3700854309604,18.8712576128239,16.1529120385865,15.043086003567,8.2550349486535,8.26760082812303,11.9055120329443,16.7397208326489,17.8402190283281,17.7325687288557,17.5454570775247,15.4375755545796,15.4362136309613,0.847615199154972,0.789999990803855,1,1,1,1,1,0.970122946724322,37.810107,-100.775188,2018,"KSH1",8
"W10005_0107/PHB47","WIH2_2017",20.6,786.47017792512,0,2,250,116.5,74,75,5.04870961558434,4.63666661580404,1.14238357494139,5.76385788548466,8.00159072875977,6.16004860362449,1.60777643285742,1.16772651324412,2.25755526788773,156.509998083115,41.7299995422363,17.5799998044968,219.396364270963,12.1440906524658,74.0409079194069,72.28863683072,15.0440909293565,68.0204556950114,18.1690344041394,19.7204955418905,20.6472768327282,20.2328798799047,19.1316367929632,19.3749324300072,18.5140157590327,14.9334047713424,10.8947823268053,16.0312902696671,21.8655554453532,22.157460706825,26.5968914308851,27.900455012466,26.7679925429357,24.7306206922626,22.3853339347559,20.5127478068356,3.24419354046545,8.79111109839545,9.55349760092549,14.5433731880084,16.8103789199482,15.3783115840061,12.1927125768691,9.1932024860582,7.86886657741529,5.43821820192816,9.20913123615215,9.45120310694411,13.0570841123019,14.516823010886,13.3761072292611,11.3130637266799,9.68633375424708,8.85311395885718,0.624158990547954,0.847976183134412,0.950288767513294,1,1,0.998699911088751,0.954544861800485,0.834596302261351,43.3246415,-89.33688775,2017,"WIH2",6
"CG119/CG108","WIH2_2017",17.7,731.12121286656,0,2,229,110,65,64,5.04870961558434,4.63666661580404,1.14238357494139,5.76385788548466,8.00159072875977,6.16004860362449,1.60777643285742,1.16772651324412,2.25755526788773,156.509998083115,41.7299995422363,17.5799998044968,219.396364270963,12.1440906524658,74.0409079194069,72.28863683072,15.0440909293565,68.0204556950114,18.1690344041394,19.7204955418905,20.6472768327282,20.2328798799047,19.1316367929632,19.3749324300072,18.5140157590327,14.9334047713424,10.8947823268053,16.0312902696671,21.8655554453532,22.157460706825,26.5968914308851,27.900455012466,26.7679925429357,24.7306206922626,22.3853339347559,20.5127478068356,3.24419354046545,8.79111109839545,9.55349760092549,14.5433731880084,16.8103789199482,15.3783115840061,12.1927125768691,9.1932024860582,7.86886657741529,5.43821820192816,9.20913123615215,9.45120310694411,13.0570841123019,14.516823010886,13.3761072292611,11.3130637266799,9.68633375424708,8.85311395885718,0.624158990547954,0.847976183134412,0.950288767513294,1,1,0.998699911088751,0.954544861800485,0.834596302261351,43.3246415,-89.33688775,2017,"WIH2",7
"B73/PHM49","ARH2_2016",13.15,731.12121286656,0,1.5,215,119.5,67.5,65,5.78093742206693,12.265000184377,3.71212020820834,7.02228860006285,1.10500001907349,0.295568184419112,1.93128791351543,1.45469692692612,6.28083569178483,184.989997506142,73.5900011062622,50.6740907539021,233.205909837376,2.21000003814697,2.36454547535289,51.2972726388411,7.65681795640425,194.70590644533,17.7645711898804,17.2271962165833,20.1405853736324,19.8064448117891,18.8826211727027,19.79738723148,18.6944065441324,19.8885487758752,15.607143551723,21.0278125703335,25.6983334223429,24.8822470662624,27.5574788870291,33.1628784988866,33.3801704536785,32.4072806330723,33.7124844464389,31.3768475300406,8.51718754693866,14.1383333206177,13.2669300286413,16.7583488235741,22.7915153503418,23.2152275497263,22.5635331248055,22.9502423373136,22.3752492012516,8.62630812400512,12.3761800663264,11.7581879605187,14.4664485465038,19.8918990278765,20.2426308826887,19.4302420192383,20.2373530270853,18.8112695233672,0.958649555088154,1,1,1,1,1,1,1,35.838614,-90.66530155,2016,"ARH2",9
"PHG29/PHG47","TXH3_2020",10.085,617.20531966464,0,2,240.03,99.06,65,64,3.45875000953674,5.34571429661342,0.996479651065087,4.09089315236596,11.3717651367188,0.0555555571138469,3.33441812268722,0.880352915034575,2.22611003899258,110.680000305176,37.4200000762939,12.0805880813038,124.975883862552,22.7435302734375,0.45000001262216,88.3282351318528,3.71411754103268,69.0094112087698,15.8034200966358,18.3400974273682,21.3054113252054,19.4076227493762,20.1658006742889,20.6212549708248,19.0289956494815,16.9470315596637,18.7516036187449,25.77062484622,24.0028569357736,27.6357750244424,29.9540296499709,30.1918626486086,32.3806370161717,33.3632814274538,35.0383530111874,35.6320682503919,14.19906270504,12.2442855153765,13.9206276091926,17.6015685916535,18.339215222527,21.1414216421788,21.8859169591652,25.7136472589829,24.3476091308883,12.6037243600486,11.2042502750959,13.2986533327034,15.9636428686288,16.2736183942562,18.6961842054097,19.4144726026518,21.4701964617595,20.8190107741322,0.989866069384984,1,1,1,1,0.999954159902907,0.999321566563027,0.99882700580498,30.53869475,-96.4274175,2020,"TXH3",4
"PHG39/PHN82","ONH2_2019",34.75,664.18758070272,0,13,289,125,59,55.5,3.14874995499849,1.70714281286512,2.88478878582076,4.44773275651569,0.559615387366368,2.38131568065973,1.59106214821635,2.96387361569317,2.69305606778773,100.759998559952,11.9499996900558,28.2407691662128,155.597694811913,1.39846153901174,27.5169231799933,83.6784609051851,41.8892305951852,82.5030758701838,19.6654808521271,22.323328426906,21.1459014041639,19.5390308172258,19.2147134634165,16.2444364531594,13.8092693178142,11.1541441922889,7.41587626159587,21.2543748617172,24.3300001961844,28.1206539538635,27.659403107452,26.5880771050086,26.077726198008,22.1992560806981,19.8977064041247,9.54949914399213,11.3362499326468,14.4399998528617,17.9479147188671,17.4548671138241,16.3180770874023,16.9592551594127,13.1325379725634,10.9534959742334,1.83470634407937,9.51581683305432,11.9253960701515,15.1221785585939,14.6984840520084,13.6236651087795,13.694452367005,10.6453631912323,9.34459481385867,3.45337100836876,0.985803572194917,1,1,1,1,0.939863719862613,0.838029256830481,0.289255913067737,42.45221275,-81.881844,2019,"ONH2",11
"LH74/PHN82","ONH2_2017",17.7,731.12121286656,0,2,229,110,65,64,3.5667742529223,5.81600005626678,0.640467161488946,2.60285034576314,0.27619046824319,0.553043346265297,1.77415042468807,1.8322193505358,2.40528059047854,110.570001840591,58.1600005626678,8.99904758589608,96.0257148231779,0.55238093648638,6.91857143810817,78.7085716128349,24.0661906514849,72.9814284727687,18.8542372026751,16.7486707210541,24.2129103871374,19.3709418074881,21.1971578446646,20.8470523735834,17.6115175917995,14.25368499546,9.92782470727663,15.7532256957023,18.6889998435974,23.4026282865202,26.349749969441,26.5938094911121,26.8606501324273,24.5722531696102,22.9174861617247,20.0059681545616,5.76483872628981,10.960000038147,12.0335911848343,16.1800782706558,16.6330158142816,15.9192033646599,13.1457407086605,11.2717777505092,10.1065058561854,6.14192830243868,8.3866030604193,10.6839465453898,13.5252167119854,13.7753985037319,13.6499871813553,11.5882146496872,10.4155272324174,9.10741430426533,0.598502302774086,0.966571422985622,1,1,1,0.999084662263501,0.956230826192702,0.830002500100802,42.45293025,-81.8827315,2017,"ONH2",8
"B37/OH43","NYH2_2016",19.85,731.12121286656,1.5,1.5,165,68,78,72.5,2.03451613264699,1.03000000119209,1.88805842038864,0.867300395588696,1.14095236573901,2.3264502044364,3.37645110879505,4.28774657460297,3.20857245139568,63.0700001120567,12.3600000143051,22.4085715952374,34.4438095036007,2.62285709381103,25.5909522488004,116.656190026374,31.7580950827826,97.8257142560823,19.2124098193261,23.3558462460836,23.4055682219574,22.1788358644049,23.9445644560314,21.2536164940178,17.188970918256,16.172458164546,13.3590641317158,14.0493548300958,18.6874999205271,27.5085128267558,26.2363372785012,28.7807143075126,29.3169266424138,28.4163855529889,26.4450086476851,23.1529754740241,1.68677417501327,4.43999998768171,12.9269903570741,12.8553450425452,13.8947619256519,15.6558873601806,16.8638179961093,13.5881803360115,10.5576226536427,4.5112983091881,6.60715549716729,12.8876567633635,12.3333042748845,13.7996271971815,14.74166699264,14.8229567266396,12.6605081320414,10.2684241420574,0.447315666670074,0.804761906110105,0.9994000377118,0.994542932132847,1,0.999880087618925,0.994843293976969,0.949842164673799,42.726117,-76.655339,2016,"NYH2",13
"PHG39/PHN82","IAH2_2017",17.7,731.12121286656,0,2,229,110,65,64,2.99193547618005,4.00374990701675,5.59415436127969,1.82415974193672,2.96590905297886,1.13861617337574,3.54439579705404,5.52586092903759,3.22496434239523,92.7499997615814,32.029999256134,86.8399996757507,64.743636071682,5.88090901483189,11.0354546579448,133.685001557524,39.366364874623,98.0227279554714,18.9181115088924,22.0308394432068,18.3906703843513,21.9130098121916,21.5970702604814,21.0005855088282,18.7624625632021,16.5013675579605,14.5633697451035,16.7025806211656,25.2537500858307,21.1644402920874,28.7879280313535,31.3429540287365,31.038908986371,27.7923067917653,26.5413899369054,25.0180860311055,3.83612903808394,9.06000000238419,9.83648406203406,14.7235259390494,17.1804546009411,18.0048533863491,15.618900018401,13.9478747019692,12.2571085666223,5.88435640664124,10.5205817772981,9.32555658634035,14.1961143177765,16.2939337097197,16.5715003347332,14.0580127584531,12.7380351430824,11.5799250069021,0.659274194561254,1,0.882113053044242,1,1,1,1,0.976890028652541,42.06582876,-94.72050129,2017,"IAH2",12
"PHW52/PHM49","GAH1_2018",14.32,635.676427771392,0,2,195,95,61.5,60.5,4.23124991450459,1.93499994277954,5.57546423139444,3.80102721408996,1.06785716329302,3.25619050056215,3.93224686575623,3.81685705866132,2.68502302543359,135.399997264147,11.6099996566772,76.7957134246826,135.018569469452,1.51642860685076,29.3057145050594,107.19214289529,19.0842852933066,83.2357137884412,16.891305744648,18.8303790092468,19.9789378987127,20.3262259893163,17.1663663727897,17.4750944924733,19.9805820305679,18.7765754699707,18.3549691213441,25.6268748044968,28.5650002161662,25.4642801168346,27.9641718628224,30.5753573008946,30.5485713292682,31.9994496950806,33.0712854930333,33.6833643056281,12.7006249800324,14.4699996312459,11.3598847335803,14.2730199772345,20.4792857851301,20.4244442742968,20.683989012522,21.8254284177508,22.3090554821876,11.9929111910296,13.9163936520453,11.3353404179938,13.6365222515622,17.5273215430123,17.4865078017825,18.3396781460675,19.3698555277453,19.8838856953605,0.988973218681557,1,1,1,1,1,1,1,31.50582525,-83.55515025,2018,"GAH1",15
"F42/MO17","MIH1_2017",27.2,659.03883976704,0,34.5,106,57,66,68,2.65129033404012,1.64250004291534,0.365195355155368,3.68588979784018,0.0229824551364832,0.46297232149101,1.74576806741443,1.92419894727902,6.21584880662018,82.1900003552437,13.1400003433228,4.41789476338186,131.667893061512,0.0689473654094495,5.87157878122832,77.4078943196096,25.1578945925361,187.919470972136,20.7548004581082,19.5261926651001,24.4742989093836,19.8905510316777,21.9433432796545,22.1206047711906,17.4790874196007,14.7643136405382,9.64132186376111,18.9967743350613,22.1187500953674,26.4465225468316,27.4969315652497,27.7329823008755,27.824925694871,25.3738691139958,24.1007104170058,20.6398986734167,5.96129034796069,11.9187499284744,11.3631864125553,16.0503932975266,16.0887717866061,14.9625505184838,12.276571042592,9.93890341042346,8.93630907537408,7.30321713873745,10.0125802625948,11.8678501821976,14.0611352118072,14.116078975745,13.7509617648401,11.6765951301922,10.5934889835682,9.14877577769738,0.770126732675711,1,1,1,1,0.999072621356021,0.94927833355258,0.816440377467249,42.68116575,-84.49434125,2017,"MIH1",10
"LH195/PHZ51","ONH1_2017",17.7,731.12121286656,0,2,229,110,65,64,4.42290318973603,4.90499987602234,1.54517322055995,3.42043524389027,1.69537500639757,2.59470000425975,1.85553477411666,1.54565171024702,2.38311134809945,137.109998881817,49.0499987602234,23.5260000944138,140.803499376774,5.37800000905991,36.4615000605583,95.2335010707378,29.8530000910163,72.442500063777,18.6566223482932,17.085453414917,23.1081316370623,20.1258676762395,18.1123231848081,19.448199154763,16.3365299663776,11.6220921499278,7.95773399619337,13.9432257683046,18.2070002555847,22.3568953625361,24.8004575461006,25.1718332052231,25.2296929018838,22.7939628290416,22.1395736741961,13.2953202319795,3.57838706624123,9.70699996948242,10.1038785092604,14.1218529553715,14.8234999100367,13.6326119545528,10.3904861973293,9.84747559454018,3.16628943898447,4.95821241247301,8.02589456270986,9.65909793089355,11.970962334223,12.3574061250221,11.983111058727,9.95345599460199,10.065401602519,5.27337575174164,0.439723497986244,0.877642858028412,1,1,1,0.972410901067044,0.840292505181159,0.515578472813697,43.49546,-80.42596875,2017,"ONH1",5
"PHN11_PHG47_0251/PHB47","DEH1_2016",15.5,698.2979894016,1,3.5,252.5,118.5,78,75.5,2.70187503471971,7.43181821432981,3.8913443672194,3.01543568987816,5.35810598460111,2.45305554595861,7.02803129397506,2.62431810561455,3.19686020007931,86.4600011110306,81.7500003576279,66.3949995338917,101.616362200542,13.3345452438701,24.0222726382992,188.323178079995,15.0527268241752,98.5804540785876,18.330474331975,10.1000462011857,19.4097170760173,21.0293855949914,18.2505545182662,17.6465201137042,18.9446848277627,17.7865102970239,16.4444979187331,18.0900000035763,16.6009089730003,19.9020842077776,27.6764673780698,27.7968177506418,28.9030859032063,31.9137982464639,31.2181211240364,30.5716960682314,5.52968750568107,9.93090907010165,10.1128978635646,16.858989299231,18.0210605245648,19.7880051766983,21.9088104518459,21.6295759258848,20.1612733062994,6.82557737843557,7.64560586528393,8.60663778636783,14.4360322816611,14.984016447316,16.3761010057792,18.8554137385462,18.377489564845,17.3477874995971,0.726328134087713,0.729318175997053,0.99092985905268,1,1,1,1,1,38.6482025,-75.44606,2016,"DEH1",4
"TX951/LH195","NEH1_2015",21.45,736.9135464192,0,2,275,145,65,60,2.95906250551343,0.753999996185303,4.74563283345314,2.18704069073799,0.179999995976687,3.60144891745383,1.54800079262728,0.0578125016763806,1.58921436409676,94.6900001764298,3.76999998092651,46.8499994277954,63.5081251226366,0.239999994635582,39.1218755729496,55.4949998706579,0.586250016465783,47.8581244703382,19.0719456225634,25.8469993591309,20.0059366173214,19.9624584223382,20.9646370410919,17.862962844426,18.3117533318471,17.3040564497312,12.3794141031722,23.749062538147,30.5139999389648,29.1300998729287,30.7414867126068,30.7375001907349,28.4385862173456,29.1303174585083,26.8837498406569,20.1234253179002,13.1921873912215,15.4699998855591,18.0403649873505,19.1809282210085,19.1128125190735,17.3324828895656,15.9213148381598,11.1533021022876,6.52520026862121,11.6448137461047,15.2595573319928,15.683366010067,16.9689110631387,16.9384551391655,15.0734546124166,14.9518339258185,12.0107008879437,8.15887847021127,0.924598212486931,1,1,1,1,0.969696650265103,0.982957587710449,0.758540942647513,41.290979,-96.41664325,2015,"NEH1",6
"TX951/LH195","DEH1_2020",28.55,699.26337832704,1.125,1.25,249,140,68.625,67.375,3.88483868875811,2.91874992847443,0.484801505503061,3.71268255549857,3.96392849513463,10.5487894544762,3.68050884933542,4.08975176026626,5.319973187453,120.429999351501,23.3499994277954,5.74999997019768,113.1935703797,6.56571415492467,94.9292836615017,102.593572867768,23.166428906577,164.612859283175,19.3438995884311,17.33862388134,21.2312624647651,20.3726220481303,20.8446989627112,18.1338016267807,16.8296419143509,15.5006431469301,15.1408180300907,17.434838879493,21.1624999046326,25.0214381114927,29.0102466521478,32.2544050670805,31.3041766938709,31.9504815386958,29.3682823985612,28.2151496441866,6.79290319402372,12.8525000810623,15.4018443361914,18.8679049092236,21.2860713232131,21.9305357119394,22.8433926389509,21.0652513572148,19.3078685858649,6.86665098039301,10.0448246591535,12.6407234275317,16.020283469814,18.7216176458005,18.6039745498917,19.328040061196,17.2231380052054,15.9100314441845,0.793629040417995,0.982098209006446,1,1,1,1,1,1,38.628981,-75.46566025,2020,"DEH1",7
"LH198/PHZ51","OHH1_2016",16.175,776.49449236224,0,22,289,135.75,65,64,4.32806446475368,1.77600002288818,3.91514520817277,2.58074065911205,3.89075762575323,4.1704949600528,5.07906928910772,3.9577419347548,3.61459481407063,134.169998407364,8.88000011444092,44.703636136922,85.9177285974676,9.33045467463407,39.9481819326227,160.185453747484,27.6977266587994,110.118636226112,18.3437643974058,22.2428304672241,20.7314695601022,20.3598251803728,19.1523341554584,18.8282464220066,16.7204849062197,17.9873095465335,14.717978926255,19.6358064528435,29.6320003509521,26.5695358893096,28.5926358759461,29.5910605517301,30.6928383605649,29.2168918167121,28.2718868666116,26.3058832172308,8.12096774674231,16.8959997177124,14.973912901117,16.7052856168403,18.3031819083474,19.7444342603587,18.9160148979259,15.4450083848343,13.402624611054,8.11765705231608,15.3272200928741,13.170280569172,14.8167815407942,15.9685705423992,17.2330323566172,16.1171316077875,14.2150247381021,12.5845870964483,0.859331788177589,1,1,1,1,1,0.999172077691259,0.989049277132183,39.860924,-83.6755995,2016,"OHH1",5
"B14A/OH43","KSH1_2016",14.8,749.14180614144,0,2,150,65,94,94,0.381562503054738,5.59374988079071,9.0311369591709,3.98190999396102,0,0.897724768782806,5.01142138710802,3.32242425282796,5.67007326271352,12.2100000977516,44.7499990463257,140.950907804749,148.509091756561,0,8.37409110773693,139.43863695589,19.9345455169678,175.772271144119,18.4331542551517,14.0458284318447,18.3461373797249,20.8844651238299,22.7032874280756,20.5944180136979,18.3498667163808,18.1537938724865,17.325101912546,19.1512499600649,21.7012498378754,22.3390124406673,27.1937706264094,36.3127268877896,35.1754003625928,32.0107843193833,33.8563335245306,30.7689589111686,2.13062504353002,11.4649999141693,9.56823857872411,14.2621367966756,21.5872724706476,22.0435392319554,20.7806130140041,22.7113486636769,19.4913931130664,6.31585730010902,9.66729101728267,9.62689037894436,13.3541884288908,19.5659910681005,19.143975364632,18.068246454854,19.1205473197881,17.0374461461811,0.741573662447211,1,0.9212797776386,0.98604226771574,0.991287871402522,0.998977630941292,0.993550001780192,1,39.14480675,-96.62898225,2016,"KSH1",8
"PHN11_PHW65_0323/LH195","ARH2_2017",16.85,731.12121286656,0,2,172.5,73.5,66,64.5,2.78999999538064,15.8328568594796,4.77601641275428,2.85394902786212,1.14250000317891,5.6518181520279,3.90594825537953,2.44303250003171,4.68862172454333,89.2799998521805,110.829998016357,61.6427268981934,88.9586376927116,3.00318182598461,52.4286360849034,105.244998791001,13.3377274599942,145.347273460843,17.1448929607868,19.0943690708705,20.93439510552,19.6567025811074,19.8440968123349,19.121190304708,18.8117640717936,19.6525999680226,17.5468659967271,23.6565626561642,24.5514286586217,25.3854145473792,28.9612549027647,32.4009845762542,30.8456569180344,31.842414729907,32.8362724886312,30.2008795304732,12.0734375119209,12.1614287240165,12.7110645043048,18.0477898004787,21.7873485449589,20.244100979121,21.8778156646752,22.2563917395356,20.2611290842207,10.8387815822115,11.2209416506324,11.8857993828006,15.6258454685709,19.0941665606065,17.5448789485777,18.8103181039231,19.2769367120475,17.252651155063,0.991674107100282,1,0.973153680072931,1,1,1,1,1,35.67418125,-90.0752695,2017,"ARH2",12
"B14A/H95","GAH1_2015",14.05,755.57773231104,0,7,175,90,63,61,4.23124991450459,0,5.95843648977752,3.85260314316124,2.594000032213,2.42992595566644,4.21775937236542,2.2254666519165,2.66739782620502,135.399997264147,0,82.5659990310669,137.561997858683,4.85133333206177,21.8693336009979,117.57799987793,11.1273332595825,82.6893326123556,16.5993611216545,21.5826927820841,19.1166129616996,20.6161636639978,14.5260023964776,17.8647365923281,19.7929930049444,19.1551458994548,18.4643243789673,25.4328122735023,26.8150002161662,26.0085422722365,27.8265794265258,29.9603331036038,30.5756295522054,31.8228302996983,33.5869333394368,33.7522152726368,12.5037499815226,10.5999999046326,12.2444831422419,13.9045236436884,20.7681110594008,20.2534813916242,20.6425490405989,22.1771998596191,22.2909034236785,11.854479674764,11.7266463096301,11.9406266754272,13.4149299134414,17.3642220815023,17.4145554719148,18.2371492286976,19.8306681454467,19.8965389447966,0.988973218681557,1,1,1,1,1,1,1,31.505771,-83.555095,2015,"GAH1",12
"CG44/CGR01","MIH1_2020",15.45,685.4261370624,0,7.5,239.75,106,54.5,53.5,4.98483870923519,2.44714290755136,2.78018427009266,2.64718347009905,5.50687503814697,1.47688446110397,2.68871709191529,6.006552647497,2.65185956958561,154.529999986291,17.1300003528595,30.4349994659424,89.0756237506866,6.05375003814697,16.1737499088049,112.214375276119,49.723750218749,79.8756258003414,20.4058846196821,19.2874285834176,24.3268306442503,21.0696464608904,18.4752662777901,19.4080278884281,18.0526796650652,13.1805551271503,11.863256798973,17.7548387435175,24.1285716465541,28.1873650077177,29.2573483428402,30.4718749523163,29.1245189395818,27.1972088196306,23.6594714909683,18.5364556646876,5.910322619542,13.1857141767229,13.3644935122433,15.8775388488027,17.5762503743172,17.4043921524828,14.2199518023274,12.0943050066264,6.60396104622783,6.8868715678645,11.6421850150292,13.333055631482,14.8654457194695,16.0410496696027,15.3373797335684,13.2580116996543,11.1781078521307,7.34910041504178,0.705645170045613,0.993469381818966,1,1,1,0.99098153775779,0.929873564470905,0.775463757102006,42.7085775,-84.4705825,2020,"MIH1",9
"CG44/CGR01","NCH1_2016",15.1,731.12121286656,0,24,198,121,65,64,2.90156245231628,3.1257141658238,7.13790793537677,4.68303443912438,4.31772709976543,0.863030289158677,5.22628340706996,5.10418182503093,4.50766866787438,92.8499984741211,21.8799991607666,91.8631831515919,160.77363422513,8.49772692810405,8.49545440890572,139.931818181818,26.1277273243124,139.737728704106,16.3685781806707,22.2713846479143,15.4949862283056,18.7284907802807,21.8793197978627,21.8664798996665,18.529991999807,18.05675721891,17.3265616131668,20.861250013113,25.5857140677316,25.6894626938102,27.1054564010764,30.2031816569242,31.055969704522,32.4242385211894,33.5976670091802,33.2603517739304,7.69218749413267,8.21285721233913,14.2700391136405,16.0730002825544,18.0268178419633,18.8016968052797,21.2796372022056,22.6219093149359,22.7218181954101,8.38342182115148,10.4398532157701,12.4646866942302,13.955992978898,16.1716004230384,16.9972748117641,18.8316059181804,19.9805669981395,19.8669778055321,0.913761163346602,1,1,1,1,1,1,1,35.30015175,-77.57127825,2016,"NCH1",10
"LH198/PHZ51","GAH1_2015",13.95,780.67784437248,0,5,195,95,60.5,59.5,4.23124991450459,0,5.95843648977752,3.85260314316124,2.594000032213,2.42992595566644,4.21775937236542,2.2254666519165,2.66739782620502,135.399997264147,0,82.5659990310669,137.561997858683,4.85133333206177,21.8693336009979,117.57799987793,11.1273332595825,82.6893326123556,16.5993611216545,21.5826927820841,19.1166129616996,20.6161636639978,14.5260023964776,17.8647365923281,19.7929930049444,19.1551458994548,18.4643243789673,25.4328122735023,26.8150002161662,26.0085422722365,27.8265794265258,29.9603331036038,30.5756295522054,31.8228302996983,33.5869333394368,33.7522152726368,12.5037499815226,10.5999999046326,12.2444831422419,13.9045236436884,20.7681110594008,20.2534813916242,20.6425490405989,22.1771998596191,22.2909034236785,11.854479674764,11.7266463096301,11.9406266754272,13.4149299134414,17.3642220815023,17.4145554719148,18.2371492286976,19.8306681454467,19.8965389447966,0.988973218681557,1,1,1,1,1,1,1,31.505771,-83.555095,2015,"GAH1",6
"F42/OH43","KSH1_2018",14.725,769.73676988416,10.75,8,229,110,65,64,0.123225804298155,1.30900002717972,2.83506375319456,1.2459214324312,6.19076948899489,0.847777789474553,5.1218265908424,3.69192301692107,0.576771714573463,3.8199999332428,13.0900002717972,33.3599996566772,37.3992318190061,6.19076948899489,7.63000010527097,140.858461535894,22.1515381015264,17.8223077677763,23.1370286018618,19.2060641288757,23.7691797272003,25.0194683662448,21.7231781299298,23.9963390562269,18.765791145748,18.1217001366528,19.2415732235431,22.7570966443708,20.7710000038147,27.0889297319322,34.1348485103316,36.7992310157189,35.2770086761214,33.1767755582226,30.5195789686489,31.4897389333834,3.91580647806967,6.77899992465973,10.7568288663889,16.6038358814018,18.2684613741361,18.3700854309604,18.8712576128239,16.1529120385865,15.043086003567,8.2550349486535,8.26760082812303,11.9055120329443,16.7397208326489,17.8402190283281,17.7325687288557,17.5454570775247,15.4375755545796,15.4362136309613,0.847615199154972,0.789999990803855,1,1,1,1,1,0.970122946724322,37.810107,-100.775188,2018,"KSH1",12
"F42/OH43","ILH1_2016",16.2,740.131509504,0,2,282,126,77.5,75,2.97690523692196,4.38840902691538,2.26653606655233,5.61207630954248,2.38484847184383,3.5965513070917,3.31235071929027,4.35749997459836,4.79379031928375,93.7199998497963,46.3549993336201,33.4606812819839,180.417726646093,4.62886360558597,41.7338635867292,104.141365719112,28.3243180147626,148.202045347203,18.8248824135911,16.772414523905,21.3206123477011,20.186536070862,20.742345383673,18.0798104173881,18.8666988996862,17.8581825314146,16.0768072129811,18.0508114395122,19.2020452456041,23.0422996986406,29.4229266243166,27.9030872836257,26.9731781198959,29.6021857332558,29.1593882944677,28.1759287739546,4.96004029539143,8.5312726020813,10.4507586023432,17.100495052534,15.9971779440389,16.8488147764823,19.4105485847029,18.8438310752183,17.0974068698762,6.7812351246955,7.96926780707668,10.1711916616246,15.4161417086623,14.2957979847463,14.1538489170388,16.5199597663553,16.0495125310087,14.8445893652738,0.666766271376172,0.897956158588459,0.946860721270467,1,1,1,1,0.999883116813965,40.0607245,-88.2338815,2016,"ILH1",13
"W10001_0022/PHB47","GAH1_2015",13.7,816.71903092224,0,9.5,195,80,56,54,4.23124991450459,0,5.95843648977752,3.85260314316124,2.594000032213,2.42992595566644,4.21775937236542,2.2254666519165,2.66739782620502,135.399997264147,0,82.5659990310669,137.561997858683,4.85133333206177,21.8693336009979,117.57799987793,11.1273332595825,82.6893326123556,16.5993611216545,21.5826927820841,19.1166129616996,20.6161636639978,14.5260023964776,17.8647365923281,19.7929930049444,19.1551458994548,18.4643243789673,25.4328122735023,26.8150002161662,26.0085422722365,27.8265794265258,29.9603331036038,30.5756295522054,31.8228302996983,33.5869333394368,33.7522152726368,12.5037499815226,10.5999999046326,12.2444831422419,13.9045236436884,20.7681110594008,20.2534813916242,20.6425490405989,22.1771998596191,22.2909034236785,11.854479674764,11.7266463096301,11.9406266754272,13.4149299134414,17.3642220815023,17.4145554719148,18.2371492286976,19.8306681454467,19.8965389447966,0.988973218681557,1,1,1,1,1,1,1,31.505771,-83.555095,2015,"GAH1",3
"WF9/H95","INH1_2015",15.95,720.18013837824,0.5,4,216,90,71.5,70,2.9680645350487,5.60875007510185,2.40179747847063,2.62059657947358,1.04906250536442,3.0483124434948,3.45413084403517,1.33253348086561,1.48437097516432,92.0100005865097,44.8700006008148,26.4431248307228,85.124374628067,1.71562501788139,30.483124434948,116.572499513626,9.31624999642372,45.6806252300739,19.4460865605262,13.5904663801193,21.8831559274163,21.6568943925879,20.6013035774231,19.7332655191422,18.7756038139106,17.9973838829568,15.6492746342254,15.6758063224054,21.0562500953674,27.4439682904935,29.5244933150031,32.6678117513657,30.1698124170303,28.1731758635525,28.469341514366,25.5406298018271,3.00451613914582,13.0524997711182,15.2206834324312,16.622144823273,19.5684375762939,18.0281877398491,16.7148970596921,16.4656363842743,12.5684752128738,5.36093065777599,9.9438759002861,13.7258189969439,15.2669641421753,18.1181246638298,16.1828720954291,14.6381021415267,14.6766784889395,11.9590249739617,0.609504607106958,1,1,1,1,1,1,0.986081101217618,40.477075,-87.000205,2015,"INH1",5
"LH195/PHN37","MOH1_2016",17.55,731.12121286656,0,2,240,105,58.5,55.5,2.46548387696666,8.05800023078918,0.26425937654912,6.28252126803095,1.94553034955805,9.25680558966717,4.35890712054063,3.35466445060003,5.45313052702641,76.4300001859665,40.2900011539459,2.87999999523163,172.837275786833,4.26272736896168,83.2036366733638,125.209091579372,21.1336360627955,168.224091789262,20.2309362965245,16.9350936889648,22.4982955657569,20.2095998884574,18.6817798614502,19.2140896434736,18.009092196306,17.1771441321352,15.8753494680802,21.8319354826404,27.5660003662109,27.8864476525043,31.2121523499736,30.2579544240778,31.2505744972614,30.5742306529435,29.8007791217787,28.2533923636667,10.0738709972751,16.7440000534058,16.2647446268316,19.8621598402259,19.9837122252493,20.4911741319329,20.7615379101816,19.9143179443491,17.5631836798883,9.49779854702591,14.2434334868972,14.2129642512569,17.4733694599123,17.1223259823391,17.869915103463,17.6510486247485,16.9099855149229,15.0956111701838,0.937315665082448,1,1,1,1,1,1,0.999442640656517,38.8955475,-92.2072025,2016,"MOH1",6
"LH195/PHZ51","NYH3_2015",20.175,731.12121286656,0.25,1.75,236,118.5,80,80.25,4.26838707539343,0,1.23480362862861,3.31548590496468,3.74470586428309,3.70874331928192,2.03473858875296,2.09190753286542,2.16016066343177,132.319999337196,0,17.669999435544,111.464706651428,9.84352939345819,38.4235294566435,75.3511776310556,21.4923532237025,65.3723531067371,20.9588571671517,21.7616018295288,22.010031667843,20.4765439063008,19.3750716377707,18.8480084862939,18.0995458235427,14.2586651794525,12.1716549346147,15.2151612850928,28.4139999389648,23.9726607996166,27.9485215330969,28.2241176156437,29.0064544300345,26.8861269088758,22.6542903882269,19.0203909387172,3.20645156502724,16.0079999923706,11.6223586733296,15.6103262901363,16.7502940963296,17.7263369351147,14.8880444255661,11.6083206558939,7.35658823269703,5.34962666660979,14.3873497094372,10.9577344850549,14.1718313559719,14.6193748893675,15.4121399843839,13.3167035418842,10.3456969793581,7.70771127893227,0.504331792142534,1,0.972673749990107,0.996219796126396,1,0.995345527139322,0.95775528025916,0.812032548066487,42.7233625,-76.6555945,2015,"NYH3",6
"LH74/PHN82","SCH1_2019",14.885,731.12121286656,0,2,186.69,73.66,54.5,55.5,3.52258064477674,3.02666664123535,1.83207166627958,3.15534991018595,1.49702380668549,2.43988097139767,1.83821312723543,1.7150475976013,2.16246542897642,109.199999988079,18.1599998474121,19.9499998688698,97.8735719323158,2.84642858164651,21.9271430288042,50.916428404195,9.48142844438553,67.036428298269,18.2238053967876,19.247888247172,19.8381614833763,19.938859204939,17.7934952236357,20.8877508432146,19.9301129518968,20.1952560402098,17.6553152003047,24.0812904296383,27.556666692098,26.8636026409599,30.303022531239,30.1509526570638,31.8182345420595,32.8750149825147,31.8445712543669,32.3335714516002,10.7222581025093,15.8883333206177,14.7897779125592,18.3349862715708,20.4966665676662,19.4895437936934,21.1836656381328,19.1694286028544,20.1650460304752,10.6271599305538,13.8823950294698,13.2745578864924,16.3672741997006,17.323809612365,17.6458035283698,19.009890666677,17.48787313509,18.1591706145628,0.967315667785258,1,1,1,1,1,1,1,34.62248225,-82.73756775,2019,"SCH1",9
"B37/H95","KSH1_2015",14.75,772.311140352,0,2,229,110,85,82,0.688124985434115,3.51874988526106,2.53723953629,4.63432691532959,6.34078425052119,4.01351628490523,5.7530108742313,3.9555966203954,1.81791271000705,22.0199995338917,28.1499990820885,47.4017647645053,147.170588188312,9.16588230694042,38.1823524166556,161.646473025574,23.7470587141374,56.3552940102185,19.4891082793474,20.3406240940094,19.219587906801,21.3066410822441,18.0035172630759,18.8081848331526,18.6006693160364,17.8671807769968,18.7825362153026,17.6940625309944,22.9675002098083,19.8522148456821,29.3189279151369,29.1170587726668,31.416705766067,31.167606554856,30.5050588602445,29.9620492345242,3.2971874922514,8.93874996900558,8.79256136460572,16.998742995872,18.0970592872769,19.8498956119313,20.1377743985527,20.0328234533636,17.0683681091728,6.18473854158211,9.47623015774604,8.38152018909972,15.3881661623318,15.6169766258551,17.6554751493738,17.6555626478954,17.3245865439199,15.7567018294421,0.677812499559617,1,0.850138809291572,1,1,1,1,0.983045539709894,39.21641775,-96.60482225,2015,"KSH1",14
"F42/H95","WIH3_2020",23,660.64782130944,0,0.5,249,128,65,62.75,2.73387099466016,5.44666663805644,6.11239434228461,4.74655673957897,3.65520838896433,1.04360978993086,2.52737357222777,3.69928986022844,2.61452892025312,84.750000834465,32.6799998283386,82.9068754017353,167.614998608828,8.00312513113022,12.5831251740456,113.845000911504,40.7431249599904,78.9343756753951,20.4191938446414,18.2775026957194,21.3363986461162,20.4033799459214,19.4941376050313,18.9932405837835,17.8085082296476,14.1515686256897,10.1168500992159,15.4835483797135,26.5249999364217,25.3910038587283,27.3054167793066,28.0012496709824,27.2440142776722,25.7761753723956,21.7808881945413,14.6724570472394,3.10612901901045,15.185000260671,12.312735908122,15.123175314262,16.146249661843,16.3134012592909,13.1733057892212,9.92591724029578,4.43131184304203,5.28710284240159,13.2823577957378,11.7041650335396,13.6199253532732,14.285058816977,13.9780898767752,12.2905957931118,9.65764349110555,5.63013772707548,0.571854837255956,1,1,1,1,0.965668941592988,0.879609053948229,0.560799012057334,44.115703,-89.54491325,2020,"WIH3",10
"PHW52/PHM49","IAH3_2015",23.3,697.65439678464,0,0,250,112.5,65,64,1.88812499120831,2.91357139178685,3.78481399490418,6.97192884345098,0,3.25750006437302,1.48738522759636,2.54144646929843,4.50744494696458,60.4199997186661,40.7899994850159,55.4399998188019,241.660000324249,0,32.5750006437302,50.3143747076392,24.6850003898144,138.775626681745,19.8017279356718,20.0399833406721,15.9141292010857,20.6828349141208,21.6913648645083,21.2442863583565,20.6378456393082,18.6830175797854,14.9219848873154,14.6418750584126,16.6814285005842,21.6371087993342,27.6137224668604,30.8788542747498,30.3035624980927,28.5962540049038,28.5165626687663,24.3338990757542,0.832500039599836,3.60071423649788,12.2454287241307,16.0517815224708,19.4736456473668,18.1100625455379,15.9931958270939,14.3037321656942,10.6490121472687,4.60513154837493,5.78749983119766,10.114657753447,14.1164012039241,17.1762499610583,16.2539166939567,14.5767076625307,13.9758338636144,10.8754278827313,0.501462055137381,0.634540812549542,0.981270752987184,1,1,1,0.968879462565695,0.933929792194543,41.97585629,-92.24291804,2015,"IAH3",16
"B14A/OH43","IAH3_2015",21.65,662.9003954688,0,1,262,123.5,65,64,1.88812499120831,2.91357139178685,3.78481399490418,6.97192884345098,0,3.25750006437302,1.48738522759636,2.54144646929843,4.50744494696458,60.4199997186661,40.7899994850159,55.4399998188019,241.660000324249,0,32.5750006437302,50.3143747076392,24.6850003898144,138.775626681745,19.8017279356718,20.0399833406721,15.9141292010857,20.6828349141208,21.6913648645083,21.2442863583565,20.6378456393082,18.6830175797854,14.9219848873154,14.6418750584126,16.6814285005842,21.6371087993342,27.6137224668604,30.8788542747498,30.3035624980927,28.5962540049038,28.5165626687663,24.3338990757542,0.832500039599836,3.60071423649788,12.2454287241307,16.0517815224708,19.4736456473668,18.1100625455379,15.9931958270939,14.3037321656942,10.6490121472687,4.60513154837493,5.78749983119766,10.114657753447,14.1164012039241,17.1762499610583,16.2539166939567,14.5767076625307,13.9758338636144,10.8754278827313,0.501462055137381,0.634540812549542,0.981270752987184,1,1,1,0.968879462565695,0.933929792194543,41.97585629,-92.24291804,2015,"IAH3",9
"B73/PHN82","GAH2_2016",16.4,731.12121286656,0,2,279,228,50,49,1.48612904548645,0,7.31639282646724,2.07978285641698,1.71842106392509,1.26467104491435,2.43256313956764,4.61773679005472,3.23545616822656,46.0700004100799,0,60.5099992752075,55.9721047376332,3.43684212785018,10.1173683593148,67.3173680117256,23.1589471101761,100.284737706184,20.2118938661391,22.8758346557617,19.1011230160256,21.3403657539832,17.8587609090303,19.8381845135438,18.504799453929,15.9975397963273,17.296879826121,27.806774262459,30.5040000915527,32.0601081155143,34.2138268998867,34.9384203459087,34.8628289574071,34.6245511355174,33.3337369617663,32.8000339166958,13.8351613013975,16.5560001373291,19.3590630480755,20.3201968396974,22.9621053996839,21.7643420821742,22.0498494210966,22.2967018729762,20.1464993783425,13.3256687060676,15.6030228291554,17.7253179345392,18.7837254612071,20.3663812460935,19.8919083811276,19.9091667022268,19.7008010464687,18.4234032944344,1,1,1,1,1,1,1,1,33.717295,-83.3110275,2016,"GAH2",16
"PHN11_OH43_0001/PHB47","NEH4_2015",13.5,801.91640073216,0,2,250,120,65,52,2.82187503576279,0,3.66820742352442,2.01257690040973,1.95124995708466,2.65489388379184,1.68415826157898,0.190010424756578,1.16607996679602,90.3000011444092,0,33.8900003433228,59.0468759536743,1.95124995708466,28.0499994158745,59.1787505969405,1.40187505632639,35.0974998101592,18.8422000855207,27.3106449127197,20.4134253279729,20.5286281482927,19.0307229757309,18.813031223326,18.3382655918127,17.1540727261986,12.6848920344665,24.0143752396107,30.7939994812012,29.6609177177603,30.9071284124221,30.8125007152557,28.6515303485321,29.5029241370045,26.7377680846623,20.9326217885139,13.3584374412894,15.5979997634888,18.4981334997849,19.2687880079637,20.2603126764297,17.3435890080351,16.2431668454296,11.0441755558763,7.09840123026522,11.803427087215,15.4488743735817,16.1431025443756,17.0943625526438,17.5373660088698,15.1870260704456,15.2510618169068,11.8830325749214,8.61837553606536,0.931774556370718,1,1,1,1,0.972846510346512,0.98414434868665,0.784438609048873,41.16732275,-96.41663225,2015,"NEH4",5
"PHW52/PHM49","NCH1_2019",13.225,771.02395511808,0,0.75,203.5,87.5,58.5,57.5,2.19112902687442,0,0.107342030975845,4.77507323258167,0.466011907373156,4.53366071837289,6.24100047954245,2.370892843746,2.94129567493308,67.924999833107,0,1.3471428326198,143.414641141891,0.941785710198539,36.2692857469831,165.010000262942,13.542499933924,91.0282135435513,18.6945283182206,25.3012667338053,21.7738242823774,19.078931758161,22.5687620866866,20.7892764977046,19.2290380742896,18.9667955189335,16.7108737708237,25.6958062879501,28.7666660944621,32.2989134582725,30.0829447266695,33.3002377010527,33.8308033858027,32.7574178138121,32.0492754949193,30.7969182892695,13.3427419508657,12.1913332621257,19.0628058780323,18.6108973402873,20.5685118834178,21.2355805294854,21.0813141387738,19.9046463969613,19.7783264509544,12.1843668285043,13.3359738524393,17.6421634826888,16.3912677221001,18.883427458337,19.4407548098431,18.824781095651,17.9808021159142,17.3116109306789,1,1,1,1,1,1,1,1,35.67010175,-78.510504,2019,"NCH1",17
"TX951/LH195","MNH1_2020",33.65,707.30828603904,0,0,267.5,147.5,75,73,0.94300509867826,6.54607305060729,4.14035912753596,4.70748763912835,0.452236840599462,2.54351275702983,5.92890111667188,4.27061504377344,2.50108778318406,29.2331580590261,64.9010543540904,50.6168419938338,155.384736988105,0.714736844363965,28.6173683906856,219.299474794614,34.3447376494541,76.9310546087983,20.8351621174448,15.7339994616729,19.7482846720118,20.9752267105361,19.7857435502504,20.2008613357514,18.410630506817,15.8353278990905,12.8477663152691,15.7084550036336,18.5315520479183,25.8284042289769,28.495260522451,29.9249994378341,28.2199240924829,26.5218522585541,25.9398792816591,19.7406792160144,2.26123937792406,9.18620770652177,13.9924403556009,16.6828678833046,19.344474052128,16.9052831803402,15.0937764647406,14.3091431196277,8.59321732280189,5.3706805778496,7.95338430636633,12.4659637890829,14.7786587119029,16.6623657697956,14.7511618456846,13.2528818768791,13.0175246736152,8.66613029209796,0.62261399417653,0.838417993402521,1,1,1,0.988450437108742,0.930664219656181,0.78075899295554,44.06907839,-93.53263028,2020,"MNH1",8
"PHG39/PHN82","IAH1_2019",23.65,710.52624912384,0,3.5,223,101,65,64,8.15718757361174,0.753333350022634,7.31557737378795,1.14438907355141,0.212857144219535,0.731688292769643,3.10367980083365,5.185721734979,4.91897999248289,261.030002355576,4.5200001001358,87.3064272063119,32.2664281300136,0.212857144219535,8.04857122046607,121.503570373569,46.3999997164522,147.939998852355,18.0190464556217,22.72114833196,18.5386832301204,20.8461719391544,19.2009373846508,21.9142898522414,16.4832458017069,14.2334940540468,11.0087876791229,22.3099999427795,27.5299997329712,24.5261778894118,31.4481277966288,28.6304760887509,29.4787013190133,27.1100269740106,25.007314114315,20.465771880493,10.9306250140071,14.9633332888285,14.9168448304933,20.0276676596814,18.3645236378624,16.3407141202456,15.6768667145032,13.067469943752,9.59281948388693,10.1177915198658,13.5813792925954,12.0903962382799,17.7390317751967,15.5681627046477,15.0835359367902,13.708186378737,12.1429510521349,9.38787554144245,0.87926339437919,1,1,1,1,0.994329881257634,0.928985237406225,0.79775290707702,41.1992562,-91.4941418,2019,"IAH1",13
"LH198/PHZ51","COH1_2017",30.6875,640.3746538752,0,3.875,227.625,104,73.5,71.5,3.39312494290061,0,0.00170868351345971,0.360843908083864,0.891428553868854,3.56038209699924,1.42287894970366,1.56567067457265,1.77087045139264,108.57999817282,0,0.029047619728815,12.2947617719571,1.60047616277422,43.7852383255959,56.4828571748166,21.0252381148083,53.2028570139692,22.2680299282074,25.656948362078,25.993106298919,24.2875628049184,21.2698285844591,19.3765266793928,19.6563178718538,15.9259101156787,11.9913693493718,20.3862498551607,26.2785715375628,29.0099024905478,30.9575008483351,32.8439676496718,29.2459773876014,27.8707551629923,24.4981203104176,17.6400496374322,4.67625003145076,9.95571436200823,11.4416630470283,13.3349225420512,15.6419047401065,14.2894836037956,11.5599296846894,8.65086998417367,2.50572452632776,7.38781388850004,11.2215251258146,12.9782738928515,14.5313666366823,16.2303242626942,14.1158650824494,12.5801561869845,10.4056817622244,6.00700011612576,0.85979910066817,1,1,1,1,0.978368119236658,0.88222033244958,0.65364973214317,40.64850025,-104.9997825,2017,"COH1",7
"LH82/PHB47","MOH1_2015",14.5,731.12121286656,0,0,185,90,70,68,3.91483872167526,3.00272724845193,2.70388340007172,5.64622626815722,2.26875001192093,1.18333334392971,4.73674408601423,1.74040179593222,3.6664919433214,121.360000371933,33.0299997329712,34.4199993312359,178.871247828007,5.86875003576279,10.6500000953674,140.261874556541,11.8831250667572,113.661250242963,18.8184669402338,18.8870315551758,16.929197347905,21.705914807588,15.7215426564217,19.9453006850349,18.4742217908113,20.1287302806264,17.0265389219407,18.2845160884242,18.0018183101307,23.7780545636798,28.9302828526302,29.8559374809265,31.7611801889208,30.4214076278912,28.5805001264527,28.4314314703788,5.85709682707825,7.50000006502325,15.2148777665246,17.6487962035776,21.6728123426437,21.4597915940815,20.2818253816477,17.0989999456065,17.2866936922073,7.06854431480445,7.30219313947649,11.971425794578,15.3979636076336,17.7643749117851,18.6104858915011,17.38069400277,14.991826945877,15.0531743909791,0.723283405334169,0.814935085835395,1,1,1,1,1,1,38.8965375,-92.20800417,2015,"MOH1",6
"B37/MO17","TXH1_2019",10.6,833.079155245363,0,0,193,63.5,70.5,68,1.71448274965173,0.072857141494751,3.656594302147,9.09543456371003,0.409285715648106,1.20767857134342,5.35585078307965,1.24614285230637,1.57441934339828,49.7199997399002,0.509999990463257,52.0078563094139,328.212138780526,0.592857139451163,9.66142857074738,146.447857277734,6.531428532941,47.5149996536119,15.4280570457722,20.5213113512312,18.768988344457,18.5703255916766,21.4234965869359,18.852815253394,20.148813605732,21.0307275136312,19.8408923398148,18.4500000723477,25.7642857687814,24.4325494379212,27.2758673216928,31.0900000163487,32.3786609854017,32.7243520483546,34.0447144826253,34.9820077594341,6.8262069143098,10.3500000408718,10.6796315414328,14.7876673923985,18.6585717882429,21.8507142748152,21.0244273483534,21.7961428233555,22.6049738996772,7.4578164675981,11.1589152046898,10.8511947929525,13.4663040330347,16.9119367665064,19.1141210544432,18.8476531392514,19.7780710195599,20.0141955883191,0.749667494461454,1,0.945308164445992,1,1,1,1,0.999698925164804,30.546318,-96.4329965,2019,"TXH1",10
"PHW52/PHM49","GAH2_2017",16.45,758.15210277888,6,2,203,103,59,56.5,5.21580650729518,2.5900000504085,0.877047008250183,6.97642455518673,36.6657152743567,11.6899047257408,2.7666341943209,6.71771433921087,5.23728113098445,161.690001726151,18.1300003528595,10.9880953289214,219.498574256897,69.630001999083,116.642856779553,77.5566674754733,33.5885716960544,162.355715060518,18.5937584292504,20.9798694338117,21.9819358919917,18.5456761912278,14.3399090085711,17.7663424007476,19.7852386843795,18.8635498507493,17.5761632626324,25.9351613444667,24.1757144927979,30.4733941834677,29.3125237180294,29.5290477389381,29.7298041853324,32.7260150193597,32.1051154233971,30.7678495222522,12.1722579925291,9.93857138497489,16.1532482752429,18.0635315609615,20.4347616377331,19.5111429658516,21.2099278742435,20.8635237298044,19.9554377788772,11.9095461609865,10.3853811467122,15.4565539701251,15.7524985099092,16.9819046883356,16.6341283702326,18.9016913140486,18.4715566451785,17.4124163797098,0.999631334559709,0.985714284741149,1,1,1,1,1,1,33.727145,-83.29821525,2017,"GAH2",18
"B37/OH43","NEH4_2015",14.5,791.6189188608,0,2,260,110,65,53,2.82187503576279,0,3.66820742352442,2.01257690040973,1.95124995708466,2.65489388379184,1.68415826157898,0.190010424756578,1.16607996679602,90.3000011444092,0,33.8900003433228,59.0468759536743,1.95124995708466,28.0499994158745,59.1787505969405,1.40187505632639,35.0974998101592,18.8422000855207,27.3106449127197,20.4134253279729,20.5286281482927,19.0307229757309,18.813031223326,18.3382655918127,17.1540727261986,12.6848920344665,24.0143752396107,30.7939994812012,29.6609177177603,30.9071284124221,30.8125007152557,28.6515303485321,29.5029241370045,26.7377680846623,20.9326217885139,13.3584374412894,15.5979997634888,18.4981334997849,19.2687880079637,20.2603126764297,17.3435890080351,16.2431668454296,11.0441755558763,7.09840123026522,11.803427087215,15.4488743735817,16.1431025443756,17.0943625526438,17.5373660088698,15.1870260704456,15.2510618169068,11.8830325749214,8.61837553606536,0.931774556370718,1,1,1,1,0.972846510346512,0.98414434868665,0.784438609048873,41.16732275,-96.41663225,2015,"NEH4",14
"PHW52/PHM49","INH1_2018",21.425,876.186988729344,0,2,213.5,97.5,63,62.5,2.76709675596606,4.68454543027011,2.73375390048216,2.60824530652539,0.180000007152557,3.09446822757501,3.41266052830668,0.546071421937878,1.65396234372977,85.779999434948,51.5299997329712,31.2821428435189,86.6164276429585,0.256428582327706,29.5207140445709,116.662143298558,3.92642852238246,50.8021421858243,18.9765172312337,17.8408018458973,18.4751701998396,21.9150256529472,21.1577316011701,19.5355219181826,18.8214706584226,19.1694656130187,15.7384382406504,16.02451609027,18.1199997988614,25.3303929748321,28.9585198406568,31.3696430751256,31.1569442451774,28.1676534533201,28.4284545963903,26.0020677371692,3.26064518622814,6.86181824857538,15.0860844704856,16.0398558950766,19.1849997384208,18.8880693408146,16.7300596399639,15.8360334996758,13.1883403760726,5.57293824336651,7.2592268351296,12.7539078233479,14.7671928829524,17.2773214067732,17.0584025262361,14.6386329372145,14.4000406059153,12.3991525306716,0.613732713553625,0.707012974596643,1,1,1,1,1,0.97996853755749,40.4787825,-86.9898145,2018,"INH1",19
"B14A/H95","TXH1_2015",10.6,760.08288062976,0,2,181.5,82.5,72,70.5,2.43533335079749,0.886666695276896,4.52938673555072,2.99221044445753,0,5.40749995274977,3.23624041097661,4.52841665893793,2.20566666349769,73.0600005239248,5.32000017166138,54.1699997186661,113.789999812841,0,59.4824994802475,89.1124981939793,24.5449999645352,66.1699999049306,13.3812851905823,15.8030840555827,13.7374967764585,19.4828948425706,22.4659889936447,19.9646397883242,19.5484858334502,19.5703149755796,18.0313507497311,19.6199999491374,26.2683331171672,25.848902795857,26.4780255046089,30.3717709779739,28.7953975634141,31.9014051962311,33.4807082811991,34.3551666140556,6.12233337461948,12.7449999650319,15.3915533218787,13.6943906096253,15.8338542282581,15.9580683003772,20.411723735246,21.4527084350586,23.9322083592415,7.516768443821,12.2822135372146,13.060308889571,12.755099602335,15.355928811491,14.6742697351608,18.1104056886089,19.3060311124189,20.3777584063178,0.822428569446007,1,0.992325396748542,0.994092814847258,1,1,1,0.999431249499321,30.54708625,-96.43393475,2015,"TXH1",13
"TX714/TX779","INH1_2020",30.755,700.486204299264,0,2,245.875,134.325,75,71.5,2.63064515013849,6.09222216076321,2.38090554163418,2.63802878915032,0.629411795560051,2.97723527796128,3.34980336859539,1.09505251642703,1.57514418927949,81.5499996542931,54.8299994468689,26.3500001711004,86.9017637687571,0.755294154672062,29.7723527796128,114.917647417854,7.60117643019732,48.4147051677984,19.1204067507098,14.4686205122206,21.683403471156,21.7538997697412,20.2483905343448,19.6695943495807,18.7818895809529,18.0082829882238,15.450766363346,15.2067741424807,20.6899998982747,27.1104927022189,29.4265010732643,32.0752935970531,30.3638822218951,28.1583408143781,28.6678223609317,25.4133379392123,2.93419356355744,11.5155556201935,15.1781191785852,16.469441937157,19.3758825414321,18.2375294629265,16.6673405457507,16.5683672047159,12.5233751913666,5.19370579464667,9.33766425162009,13.5421990121603,15.1602616547628,17.7314612721144,16.3694037021206,14.6116717912345,14.8394952945466,11.9009549885014,0.576025337581673,0.994801586582547,1,1,1,1,1,0.975702380729156,40.4787965,-86.9895995,2020,"INH1",3
"B97/PHB47","INH1_2016",17.2,703.44673033728,2.5,41.5,254.5,118.5,63.5,64.5,3.03451614802883,1.38285718645368,3.10656882285516,3.96627025574623,3.5004544691606,6.75263637087562,3.45117264331826,3.19852811820579,3.02442279661389,94.0700005888939,9.68000030517578,31.2600005865097,138.875910509716,3.5004544691606,67.5263637087562,113.892727423798,21.665454398502,92.6259097240188,17.6332864915171,23.975117955889,20.6644157743121,20.1236557979185,19.9706746014682,19.3914948420091,18.1452765645095,15.9853371552059,14.6282023681807,18.7451610872822,26.3114280700684,27.8489884616612,28.128934173179,28.2027271444147,29.1450453844937,29.1677900132707,27.9556494110074,27.0773909331999,7.95032263571216,11.6942855290004,16.3181792235504,16.1060653765268,16.8522730957378,18.3487275210294,18.5888960498719,17.5028462595754,15.0384101224085,7.67710047192516,11.916890154154,14.2428837792982,14.4184555008251,14.6852160398404,15.7994255976279,15.9329094047117,14.9223815108922,13.5173469210224,0.85264976315784,1,1,1,1,1,1,0.996102814098973,40.4787595,-86.98982,2016,"INH1",6
"PHN11_PHW65_0323/LH195","NEH3_2015",16.5,740.77510212096,0,0,229,110,63.5,63.5,3.23125005699694,0.918000030517578,0.565093977294324,1.28669219481814,3.19749999046326,1.39113635366613,0.258061220527439,1.47466718299048,0.155891338361218,103.400001823902,4.59000015258789,6.15000009536743,39.0474997758865,4.72000002861023,15.3024998903275,11.1799998283386,14.5287498533726,4.64812502264977,21.7912757396698,25.6944263458252,22.867254847038,21.8227166540337,15.2631763219833,20.5907900008288,20.0641284227863,16.2796896759308,13.5386177646183,24.2875001728535,32.6459999084473,30.5877144724061,32.6773132882273,28.9159377217293,29.872386563908,30.8070712705365,25.3903164518473,21.3201827481664,9.27874993439764,13.0079998016357,13.882863304929,15.7826582019676,17.055312037468,14.6271022883329,13.1831330674245,8.87540479026961,3.33401708582752,10.4625782483436,15.2833069114413,14.4546585187703,16.2200567809637,15.0938879027355,14.4964540010227,14.5302013640258,10.9003956474841,7.85174739566555,0.909587052451181,1,1,1,1,0.965712824155829,0.862507779461642,0.809539309558486,41.15824525,-101.9872958,2015,"NEH3",13
"W10001_0022/PHB47","MOH1_2017",16.65,731.12121286656,3,22,239,114,59.5,58.5,8.9377417372119,9.40166687965393,2.5122307210309,3.31803000298191,5.03571436897157,1.79449076217318,1.99698652419733,1.22007939712801,1.67255760975148,277.069993853569,56.4100012779236,33.266191187359,103.90142990152,11.9309525943938,15.8776192438035,65.301428034192,7.33476209640503,51.2547620932261,18.7248205369519,18.0883291562398,22.6242269395262,21.0080017307694,18.7751449554686,19.9343814805702,19.7053313769018,19.3664612148354,17.3432911467809,21.9203225412676,25.3299999237061,25.4749503644893,29.3008720310805,30.4665072910369,32.2541201606629,29.9202677395283,28.2214596385048,28.0482789753525,10.0600000504524,15.2766664822896,12.998270884804,17.3976861805709,19.7822220514691,21.2135912224098,18.704048814453,16.3385714299284,14.9717184025754,9.61284732078703,12.7690302394973,11.9492820630245,15.4976191875118,17.12130987162,18.6727738376249,16.2046370134919,14.4820857755482,13.9285000836298,0.915472352559665,1,1,1,1,1,1,0.999239795872954,38.89264,-92.2057525,2017,"MOH1",4
"B73/PHZ51","GAH1_2015",13.05,725.97247193088,0,6.5,215,100,59.5,57,4.23124991450459,0,5.95843648977752,3.85260314316124,2.594000032213,2.42992595566644,4.21775937236542,2.2254666519165,2.66739782620502,135.399997264147,0,82.5659990310669,137.561997858683,4.85133333206177,21.8693336009979,117.57799987793,11.1273332595825,82.6893326123556,16.5993611216545,21.5826927820841,19.1166129616996,20.6161636639978,14.5260023964776,17.8647365923281,19.7929930049444,19.1551458994548,18.4643243789673,25.4328122735023,26.8150002161662,26.0085422722365,27.8265794265258,29.9603331036038,30.5756295522054,31.8228302996983,33.5869333394368,33.7522152726368,12.5037499815226,10.5999999046326,12.2444831422419,13.9045236436884,20.7681110594008,20.2534813916242,20.6425490405989,22.1771998596191,22.2909034236785,11.854479674764,11.7266463096301,11.9406266754272,13.4149299134414,17.3642220815023,17.4145554719148,18.2371492286976,19.8306681454467,19.8965389447966,0.988973218681557,1,1,1,1,1,1,1,31.505771,-83.555095,2015,"GAH1",5
"B73/DK3IIH6","ONH2_2017",17.7,731.12121286656,0,2,229,110,65,64,3.5667742529223,5.81600005626678,0.640467161488946,2.60285034576314,0.27619046824319,0.553043346265297,1.77415042468807,1.8322193505358,2.40528059047854,110.570001840591,58.1600005626678,8.99904758589608,96.0257148231779,0.55238093648638,6.91857143810817,78.7085716128349,24.0661906514849,72.9814284727687,18.8542372026751,16.7486707210541,24.2129103871374,19.3709418074881,21.1971578446646,20.8470523735834,17.6115175917995,14.25368499546,9.92782470727663,15.7532256957023,18.6889998435974,23.4026282865202,26.349749969441,26.5938094911121,26.8606501324273,24.5722531696102,22.9174861617247,20.0059681545616,5.76483872628981,10.960000038147,12.0335911848343,16.1800782706558,16.6330158142816,15.9192033646599,13.1457407086605,11.2717777505092,10.1065058561854,6.14192830243868,8.3866030604193,10.6839465453898,13.5252167119854,13.7753985037319,13.6499871813553,11.5882146496872,10.4155272324174,9.10741430426533,0.598502302774086,0.966571422985622,1,1,1,0.999084662263501,0.956230826192702,0.830002500100802,42.45293025,-81.8827315,2017,"ONH2",2
"PHG80/PHZ51","ONH2_2015",23.85,762.01365848064,0,1,298,158,80.5,79.5,1.8764516076734,4.28266668319702,1.92800543142355,1.5826126299147,10.8026474223417,1.92320858157255,3.11438839923848,4.29490191426152,2.35638896233292,58.1699998378754,64.2400002479553,23.6199996471405,57.2247065095341,21.6052948446835,21.155294397298,115.501765766565,31.5629407868666,72.1164696006214,18.9538011243266,18.7670978546143,21.1774380927546,22.4541887468383,20.0410301545087,18.4543581008911,18.4537391837158,15.8007825277989,13.3453952521331,11.1738709480532,14.384666633606,23.912001533754,26.6127938053419,30.1517652623794,27.6505346247219,26.7798692937751,25.8746404647827,20.7920556972632,2.00677422361989,5.63600003321966,13.6495024548441,15.646883458515,19.3264702628641,18.5181282879835,16.7469462265247,15.4972220963123,11.0305445628027,3.74293843582847,5.61712950522319,11.5306591381689,13.5235311876304,16.7854267763897,15.1342186639452,13.9515349469929,13.1846932018183,9.37660248979743,0.276970042748385,0.589690475094886,0.985132405558233,1,1,1,0.993019958754548,0.931831119234909,42.45408625,-81.8816065,2015,"ONH2",5
"B14A/OH43","ONH2_2017",26.35,803.84717858304,0,13.5,240.5,106.5,42,39,3.5667742529223,5.81600005626678,0.640467161488946,2.60285034576314,0.27619046824319,0.553043346265297,1.77415042468807,1.8322193505358,2.40528059047854,110.570001840591,58.1600005626678,8.99904758589608,96.0257148231779,0.55238093648638,6.91857143810817,78.7085716128349,24.0661906514849,72.9814284727687,18.8542372026751,16.7486707210541,24.2129103871374,19.3709418074881,21.1971578446646,20.8470523735834,17.6115175917995,14.25368499546,9.92782470727663,15.7532256957023,18.6889998435974,23.4026282865202,26.349749969441,26.5938094911121,26.8606501324273,24.5722531696102,22.9174861617247,20.0059681545616,5.76483872628981,10.960000038147,12.0335911848343,16.1800782706558,16.6330158142816,15.9192033646599,13.1457407086605,11.2717777505092,10.1065058561854,6.14192830243868,8.3866030604193,10.6839465453898,13.5252167119854,13.7753985037319,13.6499871813553,11.5882146496872,10.4155272324174,9.10741430426533,0.598502302774086,0.966571422985622,1,1,1,0.999084662263501,0.956230826192702,0.830002500100802,42.45293025,-81.8827315,2017,"ONH2",10
"F42/H95","WIH2_2015",43,785.1829926912,0,0,263,145,65,64,3.12677418801092,2.65500004092852,4.10360587788369,5.33606725073504,1.86882352828979,3.14284756646862,3.06635871261474,6.46327216547577,3.42627895726651,96.9299998283386,15.9300002455711,53.5811765053693,186.069413493661,5.43588234396542,36.0370585217195,132.474706411362,52.801177333383,103.499412364819,19.6364621193178,20.5731145540873,21.5892617017256,21.0711117653476,18.3630023844102,19.2051703551661,18.5458357222424,13.68038167737,11.3747629179222,15.6409677997712,24.9766667683919,26.1182311514896,28.0952907748788,27.5158822676715,27.9129860396904,26.446906195709,23.9533144307555,17.6364554289999,3.35580646607184,13.6266668637594,13.8892249418098,15.1778817355709,17.2276475008796,16.9294609080024,13.7343451854096,12.6373390166389,6.34391337544442,5.37086055393058,11.9313890592981,12.6525642606911,14.0429022055175,14.4358603312718,14.5758898439564,12.7664601406529,11.4948295633928,7.02316371690367,0.588214291611575,1,1,1,1,0.979783321564246,0.914260834660243,0.715230077160589,43.3264485,-89.33359975,2015,"WIH2",11
"PB80/PHZ51","ONH1_2017",30.85,657.10806191616,0,2,270,135,80.5,80.5,4.42290318973603,4.90499987602234,1.54517322055995,3.42043524389027,1.69537500639757,2.59470000425975,1.85553477411666,1.54565171024702,2.38311134809945,137.109998881817,49.0499987602234,23.5260000944138,140.803499376774,5.37800000905991,36.4615000605583,95.2335010707378,29.8530000910163,72.442500063777,18.6566223482932,17.085453414917,23.1081316370623,20.1258676762395,18.1123231848081,19.448199154763,16.3365299663776,11.6220921499278,7.95773399619337,13.9432257683046,18.2070002555847,22.3568953625361,24.8004575461006,25.1718332052231,25.2296929018838,22.7939628290416,22.1395736741961,13.2953202319795,3.57838706624123,9.70699996948242,10.1038785092604,14.1218529553715,14.8234999100367,13.6326119545528,10.3904861973293,9.84747559454018,3.16628943898447,4.95821241247301,8.02589456270986,9.65909793089355,11.970962334223,12.3574061250221,11.983111058727,9.95345599460199,10.065401602519,5.27337575174164,0.439723497986244,0.877642858028412,1,1,1,0.972410901067044,0.840292505181159,0.515578472813697,43.49546,-80.42596875,2017,"ONH1",6
"CG108/CGR03","IAH1_2015",14.9,729.83402763264,0,12,234,125,65,64,1.56645163797563,2.21307695370454,8.40241855686024,1.32346369240836,0.084411761339973,2.29735939798791,2.93999255048908,2.37101190956701,2.73279376330065,48.5600007772446,28.770000398159,122.139999866486,43.5299997925758,0.168823522679946,22.8235286263859,100.118234865806,16.6700000342201,83.8129400085,20.4321490257017,18.8581149761493,14.6331772809511,22.3127675938035,19.1422725845786,22.2080652261871,19.8386258824345,18.3376315823456,15.0581957022198,16.087741913334,16.6453845684345,21.8469785316973,28.7334183023463,30.2685291065889,31.3074705248565,29.0510553070878,29.396362715275,24.6694635680625,1.83903228419442,4.86538466123434,13.1289285435553,16.8676896249547,20.0594113854801,18.0570519634322,16.3929613969702,15.4374991619954,11.1722985517151,5.44712973145307,6.09818857737345,10.4824096365253,14.9963247305916,17.1663926633043,16.728841860151,14.9692492703924,14.7713722092671,11.3064436073178,0.593087559179639,0.682994502258825,0.988452544600181,1,1,0.997626800819033,1,0.896934673983109,41.9980952,-93.69336973,2015,"IAH1",6
"PHP02/PHB47","NEH3_2017",20.2,767.80599203328,23.5,2,212.5,97,65,64,6.03471325952092,3.95544449819459,0.188829129512864,3.84200957652886,1.31629629488345,1.43557098103158,2.76443309446567,3.91202377797001,4.15136978970562,187.076111045149,38.2161116136445,1.98722227414449,117.824443870121,3.94888888465034,12.8655554983351,93.9933318313625,27.3861108902428,126.319444947773,18.5315053719346,21.7032616649355,24.1586003396648,20.8093108086358,18.6660331266898,19.0248772604966,18.7588759454037,17.518134166324,15.1571800328497,20.2013798614557,23.212571183462,30.1338990416992,30.1333927888773,32.0646292721784,32.7677623651646,28.39622897806,27.8744937900513,27.0242908958039,7.90829748620269,10.2621508647525,15.178797122525,16.8789166514344,20.6242595601965,20.9899306164847,16.9505481771525,15.080813686053,13.7565441682783,8.47748898985228,10.0955543030392,14.9507871885065,15.6796926457152,18.3413362022528,18.7524822191277,14.7764240233045,13.7931287363447,13.0011133890262,0.78351062574389,0.953819441133075,1,1,1,1,1,0.993105158398036,41.162,-96.409,2017,"NEH3",7
"W10004_0216/PHZ51","ONH2_2016",17.6,594.67957807104,0,5.5,261.5,126,75,73,1.4354838748132,1.74083332717419,1.46380271581139,3.02268752387098,0.150999999046326,1.134659085057,3.04644667291448,1.69350377760537,2.7651166654242,44.5000001192093,20.8899999260902,18.8460003852844,117.159000921249,0.150999999046326,12.2534999370575,101.044499832392,13.1614999294281,84.2689999639988,19.7256392663525,22.197474638621,21.6895404820885,21.7736589642688,18.986648273468,19.926783043688,16.6990616557451,15.6815267119186,12.907202899033,14.1074193523776,17.5808333555857,26.0075868502758,26.0489445105545,27.7809998512268,28.7928724592382,28.2480381953381,25.9224786042651,23.7534801354972,4.25741936266422,7.13166666030884,15.038288106176,14.1477788974648,17.7269997119904,17.3392411925576,18.2467210190433,15.9549466693556,14.1752601318334,5.1313461369791,6.98684124280148,12.8511639495985,12.6517199671275,14.842964971112,15.2602720524723,15.3178202053561,13.2653460605469,11.6762118863421,0.511244241010895,0.799851208925247,1,1,1,1,1,0.97582928193879,42.4530035,-81.88279875,2016,"ONH2",7
"F42/MO17","OHH1_2017",18.45,716.31858267648,0,2,229,110,65,64,4.40193544664691,12.2957145145961,4.29988011636302,6.25204526150179,18.3629999076327,4.89239555808631,3.19531729304598,3.431958171936,3.79468875169434,136.459998846054,86.0700016021729,53.6394991636276,223.820499566197,40.8649998873472,50.2680010676384,124.096999973059,30.9940001368523,115.432001267374,19.0647902027253,19.0342750549316,21.0022649127082,20.1503275418602,19.6955542882284,18.8958009767532,18.6983791102966,16.0400154962856,13.8551068441073,20.4790323934247,25.431428364345,25.2400270438728,27.2580381755079,28.0954167842865,28.7327046767148,26.3045644702003,24.6939537054533,24.2572073293261,8.01193550132936,13.4499996730259,12.5988240944101,15.9167310176739,16.7535833597183,18.3982409451225,14.9768818892318,13.115358865932,11.8128440258155,8.40722803270821,12.106521996237,11.6372129301586,13.8931373004777,14.6377478966591,15.6322437267281,13.0725287527822,11.6601203930959,11.1333327080566,0.85352534955273,1,1,1,1,0.996926047829299,1,0.964956739838543,39.855785,-83.66477375,2017,"OHH1",11
"PHG39/PHN82","MIH1_2020",25.4,702.15954510336,0.5,0,250.25,123,64.5,62.5,4.98483870923519,2.44714290755136,2.78018427009266,2.64718347009905,5.50687503814697,1.47688446110397,2.68871709191529,6.006552647497,2.65185956958561,154.529999986291,17.1300003528595,30.4349994659424,89.0756237506866,6.05375003814697,16.1737499088049,112.214375276119,49.723750218749,79.8756258003414,20.4058846196821,19.2874285834176,24.3268306442503,21.0696464608904,18.4752662777901,19.4080278884281,18.0526796650652,13.1805551271503,11.863256798973,17.7548387435175,24.1285716465541,28.1873650077177,29.2573483428402,30.4718749523163,29.1245189395818,27.1972088196306,23.6594714909683,18.5364556646876,5.910322619542,13.1857141767229,13.3644935122433,15.8775388488027,17.5762503743172,17.4043921524828,14.2199518023274,12.0943050066264,6.60396104622783,6.8868715678645,11.6421850150292,13.333055631482,14.8654457194695,16.0410496696027,15.3373797335684,13.2580116996543,11.1781078521307,7.34910041504178,0.705645170045613,0.993469381818966,1,1,1,0.99098153775779,0.929873564470905,0.775463757102006,42.7085775,-84.4705825,2020,"MIH1",14
"B73/MO17","IAH1_2015",21.45,696.36721155072,1,0.5,278.5,154,65,64,1.56645163797563,2.21307695370454,8.40241855686024,1.32346369240836,0.084411761339973,2.29735939798791,2.93999255048908,2.37101190956701,2.73279376330065,48.5600007772446,28.770000398159,122.139999866486,43.5299997925758,0.168823522679946,22.8235286263859,100.118234865806,16.6700000342201,83.8129400085,20.4321490257017,18.8581149761493,14.6331772809511,22.3127675938035,19.1422725845786,22.2080652261871,19.8386258824345,18.3376315823456,15.0581957022198,16.087741913334,16.6453845684345,21.8469785316973,28.7334183023463,30.2685291065889,31.3074705248565,29.0510553070878,29.396362715275,24.6694635680625,1.83903228419442,4.86538466123434,13.1289285435553,16.8676896249547,20.0594113854801,18.0570519634322,16.3929613969702,15.4374991619954,11.1722985517151,5.44712973145307,6.09818857737345,10.4824096365253,14.9963247305916,17.1663926633043,16.728841860151,14.9692492703924,14.7713722092671,11.3064436073178,0.593087559179639,0.682994502258825,0.988452544600181,1,1,0.997626800819033,1,0.896934673983109,41.9980952,-93.69336973,2015,"IAH1",7
"LH212HT/LH195","IAH4_2015",19.05,728.54684239872,1.5,3,261.5,137.5,65,64,1.42451612026461,4.85461551409501,2.51366814388176,6.35112741860021,5.46999979019165,2.15468744138877,1.85099418012837,0.335758933997048,4.06477020181796,44.1599997282028,63.1100016832352,35.58999979496,218.239999890327,10.9399995803833,20.3081244528294,58.4868740737438,2.37750003859401,125.114376250654,19.8399788794979,19.2877280528729,16.0227039780687,20.6982291705844,17.2771818637848,21.3583117332723,20.173035647804,19.5936077237129,15.6142427020175,15.8303226194074,16.787692290086,22.2616416304594,27.8872542261576,29.3799998760223,31.527847079436,28.6989534201586,30.1840446931975,25.4683327571038,2.47354838888972,5.02461542532994,13.4828078946313,16.5986873437933,20.3737498521805,19.7862846771876,17.3729821147223,16.8951585807971,12.6851404789395,5.3186939130858,6.22884723842383,10.7829124536012,14.4752906425735,16.8768748641014,17.6605473898843,15.1814165620107,15.7121042559737,12.0590735738697,0.585391697096145,0.659230776868024,0.989944130014561,1,1,1,1,0.952600636395888,41.19970961,-91.49362406,2015,"IAH4",11
"TX951/LH195","TXH1_2016",11.05,744.63665782272,0,2,221,76.5,73,73,1.63366669813792,16.1399999346052,0.997024219685634,4.71986560334683,0.129393938815955,3.27727272687865,13.062324570375,0.703636358001015,1.01712562139433,49.0100009441376,112.979999542236,14.5313639044762,177.354999092492,0.330909089608626,36.0499999956651,378.067267352884,3.17999996922233,30.534545768391,13.9726291974386,10.7287414414542,17.8894095128623,17.8007609349484,20.5568532076749,19.7779241435784,17.9048036307734,20.8338603973389,20.1432609317589,22.3250001589457,23.9500002179827,24.4830925562751,26.4049851333462,28.5388636011066,28.6354545482919,30.1287031897283,34.3540452523665,35.5883872279207,6.03466663161914,13.3357141358512,9.67537964446524,13.1275877936174,15.7853026679068,16.3376445415591,20.1390285305243,23.0818636243994,24.0011842107726,8.47337903343467,11.2978355051063,10.5045992024655,12.4611166479839,14.4368127893531,14.7220414816358,17.1236823819741,20.5322511435483,20.8759903806844,0.915869047670137,1,0.972225206868779,1,1,1,1,1,30.54708625,-96.43393475,2016,"TXH1",9
"PHB47/PHN82","OHH1_2017",16.7,754.93413969408,0,2,229,110,65,64,4.40193544664691,12.2957145145961,4.29988011636302,6.25204526150179,18.3629999076327,4.89239555808631,3.19531729304598,3.431958171936,3.79468875169434,136.459998846054,86.0700016021729,53.6394991636276,223.820499566197,40.8649998873472,50.2680010676384,124.096999973059,30.9940001368523,115.432001267374,19.0647902027253,19.0342750549316,21.0022649127082,20.1503275418602,19.6955542882284,18.8958009767532,18.6983791102966,16.0400154962856,13.8551068441073,20.4790323934247,25.431428364345,25.2400270438728,27.2580381755079,28.0954167842865,28.7327046767148,26.3045644702003,24.6939537054533,24.2572073293261,8.01193550132936,13.4499996730259,12.5988240944101,15.9167310176739,16.7535833597183,18.3982409451225,14.9768818892318,13.115358865932,11.8128440258155,8.40722803270821,12.106521996237,11.6372129301586,13.8931373004777,14.6377478966591,15.6322437267281,13.0725287527822,11.6601203930959,11.1333327080566,0.85352534955273,1,1,1,1,0.996926047829299,1,0.964956739838543,39.855785,-83.66477375,2017,"OHH1",7
"CG108/CGR03","IAH1_2017",15.05,724.68528669696,0.5,9,209.5,102.5,65,64,3.40562492981553,4.9653845842068,4.75627611908435,1.83360658706262,3.81409099607757,2.22148488699788,3.67080832802223,1.81325483980117,2.34747311753145,108.979997754097,64.5499995946884,71.2827261577953,63.7872725833546,4.17772737416354,22.8386367667805,118.906818606637,13.7622724988244,72.0368181575428,16.1986516714096,17.4117801372822,18.8419865113308,22.0772261853777,19.5709462599321,20.6423577019663,19.6533487855188,19.1238258402757,16.8780910515948,17.1134373545647,15.3784616176899,22.9595167923024,28.098072667094,26.507423805468,30.2796059126806,29.7994892260695,26.9283494144291,26.376740509697,5.4131250269711,4.92307697809659,11.465490162608,14.1696252786347,11.6175757754933,16.6577523703527,16.6650409071547,13.3875722172112,12.4151066155028,6.53077833948335,5.76856381165309,10.4537021498713,13.7196511279626,11.9478337828281,15.6426259768559,15.399646170179,12.7123989246095,12.1737806011652,0.629988832066634,0.555054952155103,0.946458761983939,1,1,1,1,0.998130952344312,41.19924609,-91.49402296,2017,"IAH1",7
"CG108/CGR03","ILH1_2015",12.35,715.67499005952,0,0,217.5,115,61,60,4.34343749051914,1.29615384340286,7.654899738758,5.34311294988612,3.67499995231628,2.46729163328807,4.64726805078788,0.712819956420433,1.9519079085119,138.989999696612,16.8499999642372,99.8675005473197,177.342500980943,7.34999990463257,22.2056246995926,144.025624632835,5.03937511332333,60.0618743356317,19.4076893031597,20.2182017839872,17.5801237771363,22.592317287411,17.3577569425106,20.1224286291334,18.7955131537028,20.3716592643233,16.8099873810686,15.693750217557,16.2761536378127,23.8148397458069,28.7742831748073,30.2824996709824,31.917013724645,28.6589959642683,28.4854071997461,27.0987701069283,2.91687501082197,4.60230773228865,13.9338979229276,16.2604470887104,20.4774998426437,20.4138195912043,17.7954354684494,15.771967322202,14.6267217462101,5.33980004312561,5.92163564241169,11.5310566581626,14.7484368961231,17.379999756813,18.1717816417615,15.315695861998,14.446488469174,13.3642133617155,0.599162963767802,0.63684064575604,1,1,1,1,1,0.998281250042575,40.05982425,-88.23397575,2015,"ILH1",8
"PHW52/PHM49","OHH1_2017",17.7,731.12121286656,0,2,229,110,65,64,4.40193544664691,12.2957145145961,4.29988011636302,6.25204526150179,18.3629999076327,4.89239555808631,3.19531729304598,3.431958171936,3.79468875169434,136.459998846054,86.0700016021729,53.6394991636276,223.820499566197,40.8649998873472,50.2680010676384,124.096999973059,30.9940001368523,115.432001267374,19.0647902027253,19.0342750549316,21.0022649127082,20.1503275418602,19.6955542882284,18.8958009767532,18.6983791102966,16.0400154962856,13.8551068441073,20.4790323934247,25.431428364345,25.2400270438728,27.2580381755079,28.0954167842865,28.7327046767148,26.3045644702003,24.6939537054533,24.2572073293261,8.01193550132936,13.4499996730259,12.5988240944101,15.9167310176739,16.7535833597183,18.3982409451225,14.9768818892318,13.115358865932,11.8128440258155,8.40722803270821,12.106521996237,11.6372129301586,13.8931373004777,14.6377478966591,15.6322437267281,13.0725287527822,11.6601203930959,11.1333327080566,0.85352534955273,1,1,1,1,0.996926047829299,1,0.964956739838543,39.855785,-83.66477375,2017,"OHH1",20
"F42/OH43","MNH1_2019",26.9583333333333,696.58174242304,5.83333333333333,3.66666666666667,247.5,108.666666666667,65.1666666666667,62.5,5.30124999210238,3.47599983215332,3.60299378627318,6.92957115427657,0.665000021457672,5.49479165176551,5.26307022404481,5.62118794891682,3.21881721081833,169.639999747276,17.3799991607666,52.0374994277954,225.572501003742,0.665000021457672,65.9374998211861,237.316251464188,64.0400005728006,97.0975001901388,20.0842315778136,23.2336845397949,18.8906272807902,19.1063209647488,20.6643508672714,19.8986852665742,15.0132103211517,12.5741625363823,8.93122793448869,18.8415625393391,30.0759998321533,22.6451724673558,27.8446755981407,25.9343744516373,26.9881248474121,23.6397081757986,22.6739672911093,11.5065174453361,7.59031248651445,16.4659999847412,13.0671384378346,17.8515840394576,15.2050002813339,15.8895832598209,13.3964084402092,11.7388528195551,1.69308199473627,7.6900194806172,15.3684929006174,10.6019980821293,14.9363235224757,12.8914050476525,13.69019131122,11.2618925569911,10.7198729254511,4.44753291503672,0.811763394823564,1,1,1,1,0.985092269101156,0.878346273590444,0.404429721362895,44.0664117,-93.52500471,2019,"MNH1",14
"W10005_0107/PHB47","NEH3_2015",17.7,731.12121286656,0,2,229,110,62,62,3.23125005699694,0.918000030517578,0.565093977294324,1.28669219481814,3.19749999046326,1.39113635366613,0.258061220527439,1.47466718299048,0.155891338361218,103.400001823902,4.59000015258789,6.15000009536743,39.0474997758865,4.72000002861023,15.3024998903275,11.1799998283386,14.5287498533726,4.64812502264977,21.7912757396698,25.6944263458252,22.867254847038,21.8227166540337,15.2631763219833,20.5907900008288,20.0641284227863,16.2796896759308,13.5386177646183,24.2875001728535,32.6459999084473,30.5877144724061,32.6773132882273,28.9159377217293,29.872386563908,30.8070712705365,25.3903164518473,21.3201827481664,9.27874993439764,13.0079998016357,13.882863304929,15.7826582019676,17.055312037468,14.6271022883329,13.1831330674245,8.87540479026961,3.33401708582752,10.4625782483436,15.2833069114413,14.4546585187703,16.2200567809637,15.0938879027355,14.4964540010227,14.5302013640258,10.9003956474841,7.85174739566555,0.909587052451181,1,1,1,1,0.965712824155829,0.862507779461642,0.809539309558486,41.15824525,-101.9872958,2015,"NEH3",7
"B73/MO17","IAH1_2020",14.7166666666667,731.12121286656,23,6.83333333333333,229,110,65,64,1.68806450597702,6.19600019454956,3.07937370009497,6.53305792599394,1.27142855099269,2.67326977555714,1.85421064008438,0.708456623919156,3.75561601346081,52.3299996852875,61.9600019454956,37.2349991798401,213.622142757688,2.19857137543815,25.9085708005088,60.1178565110479,6.01214278170041,115.372858315706,19.46953176683,15.0466018676758,20.6424708637148,20.3159834913117,21.992077418736,21.0955225202772,19.7297913964658,19.804555562767,15.1169259092225,15.8729031931969,18.7070004463196,25.7217689451961,28.5067430861476,31.9299994877407,30.8792140748766,28.6114739112471,29.3732770515948,24.6307950130622,3.3483870948755,9.75300015211105,14.6592933360598,17.3863334611218,19.8571428571429,19.2884919363355,17.2726116483618,15.4681903785589,11.8318310619754,5.55848579964145,8.12545645677116,12.6575733793141,15.0980196558132,17.8935711724418,17.0907883427003,15.1212185598445,14.7539709043416,11.4769448256727,0.621440085247674,0.927035726393972,1,1,1,0.99851414246496,0.992713008729779,0.918334154475424,41.19774214,-91.48767072,2020,"IAH1",8
"CG119/CG108","MNH1_2019",21.8125,701.67685064064,10.875,9.125,210.125,93.75,60.125,59.625,5.30124999210238,3.47599983215332,3.60299378627318,6.92957115427657,0.665000021457672,5.49479165176551,5.26307022404481,5.62118794891682,3.21881721081833,169.639999747276,17.3799991607666,52.0374994277954,225.572501003742,0.665000021457672,65.9374998211861,237.316251464188,64.0400005728006,97.0975001901388,20.0842315778136,23.2336845397949,18.8906272807902,19.1063209647488,20.6643508672714,19.8986852665742,15.0132103211517,12.5741625363823,8.93122793448869,18.8415625393391,30.0759998321533,22.6451724673558,27.8446755981407,25.9343744516373,26.9881248474121,23.6397081757986,22.6739672911093,11.5065174453361,7.59031248651445,16.4659999847412,13.0671384378346,17.8515840394576,15.2050002813339,15.8895832598209,13.3964084402092,11.7388528195551,1.69308199473627,7.6900194806172,15.3684929006174,10.6019980821293,14.9363235224757,12.8914050476525,13.69019131122,11.2618925569911,10.7198729254511,4.44753291503672,0.811763394823564,1,1,1,1,0.985092269101156,0.878346273590444,0.404429721362895,44.0664117,-93.52500471,2019,"MNH1",8
"B37/H95","NYH1_2017",17.7,731.12121286656,0,2,229,110,65,64,4.75870958066756,4.13999998569489,2.95302494204596,5.71550623200518,4.32087287827144,2.70173206300027,2.61632844338824,1.02263058497457,3.61426843911905,147.519997000694,37.259999871254,45.1261899925414,219.922381491888,11.2685710702624,35.6957141047432,128.424762705962,13.3047620654106,110.890000857058,18.9744435125782,17.8100527657403,22.0763726985416,19.3839747471171,18.5614137876601,19.2253497353029,16.7138256789592,13.4350664320207,9.03754833240572,17.0696775221056,20.2333335876465,22.7745171017373,25.664886994249,26.7039681691972,25.3269152449164,23.2600727170173,23.9684052634079,17.611198191458,5.96419353350516,10.1900000042386,10.9371763249011,15.2036229448209,16.362936383202,14.6065672757674,11.3179340366411,11.5668532308226,6.66954478092379,6.64112734378757,8.72725367499605,10.1527049274721,12.7947461464451,13.7193522643836,12.3756778221065,10.4503517934596,10.9124923049431,7.23915136927561,0.685760370631646,1,1,1,1,0.982493677824514,0.953634339212795,0.701363064221172,42.72880835,-76.6515625,2017,"NYH1",15
"PB80/PHZ51","IAH3_2017",18.55,783.89580745728,0,2,229,110,65,64,4.15375001356006,4.4766666730245,3.4047203572685,2.20734772714641,0.783636364069852,2.62827690366871,1.89268759309194,2.32887627154288,1.79425708641638,132.920000433922,67.1500000953674,54.0395462729714,78.3386354229667,1.5672727281397,28.0268186547539,71.8554548783736,19.050454611128,54.6954545270313,16.1449318900704,17.7512798945109,18.8930383212172,22.0798596418591,20.5492319916234,20.9938448555213,19.8185231453598,17.2291948925967,15.6432695544943,15.8431249856949,15.5066665013631,21.4265257838852,27.7149819965626,28.4552275339762,29.9007438281351,27.6545797965623,25.6472085203787,25.1376095450402,4.41906251013279,4.14133334358533,9.7822950630621,13.5652693310904,16.0590146888386,16.6123347960228,14.8096001989659,12.7460062737417,11.2819135157885,5.81888047108444,5.62230390959762,9.38713007160935,13.2881535043606,14.425618602213,15.384310503314,13.6587126105144,11.8979604849715,11.2922363413291,0.568604913274092,0.570380948412986,0.879734313174242,1,1,1,1,0.979205627165315,41.9758706,-92.24318881,2017,"IAH3",7
"PHN11_PHG47_0251/PHB47","GAH2_2016",10.45,731.12121286656,0,2,249.5,213.5,49.5,49.5,1.48612904548645,0,7.31639282646724,2.07978285641698,1.71842106392509,1.26467104491435,2.43256313956764,4.61773679005472,3.23545616822656,46.0700004100799,0,60.5099992752075,55.9721047376332,3.43684212785018,10.1173683593148,67.3173680117256,23.1589471101761,100.284737706184,20.2118938661391,22.8758346557617,19.1011230160256,21.3403657539832,17.8587609090303,19.8381845135438,18.504799453929,15.9975397963273,17.296879826121,27.806774262459,30.5040000915527,32.0601081155143,34.2138268998867,34.9384203459087,34.8628289574071,34.6245511355174,33.3337369617663,32.8000339166958,13.8351613013975,16.5560001373291,19.3590630480755,20.3201968396974,22.9621053996839,21.7643420821742,22.0498494210966,22.2967018729762,20.1464993783425,13.3256687060676,15.6030228291554,17.7253179345392,18.7837254612071,20.3663812460935,19.8919083811276,19.9091667022268,19.7008010464687,18.4234032944344,1,1,1,1,1,1,1,1,33.717295,-83.3110275,2016,"GAH2",5
"PHN11_PHW65_0323/LH195","MOH2_2015",15.05,731.12121286656,0,0,197.5,100,76,75,3.91483872167526,3.53454542160034,2.89167602876837,5.44662396781396,2.50588237538057,1.11372550016914,5.06858646461217,0.980448185896673,4.0111195383597,121.360000371933,38.8799996376038,35.2317639782148,173.692939155242,5.01176475076114,10.0235295015223,148.922352524365,6.48705886392032,124.344705689151,19.0870114757169,18.1253494782881,17.1671785847115,21.5962912871016,16.8894541123334,20.3451615751179,18.3289543491586,19.9060889353605,16.9549438623142,18.7561290033402,18.2472727515481,23.8732290384998,29.0283650683656,30.5917647866642,31.9324831869088,30.2728559915889,28.7322074708484,28.3406261827733,6.1525806919221,8.05909102613276,15.301299728071,17.8011435243455,21.9470590703628,21.3926142773597,20.1702312736422,17.4051933128293,17.2094118925381,7.28819699270824,7.58478922996184,12.0589106387454,15.5177509064803,18.2694119285135,18.6625487321343,17.2518738973888,15.2135918237946,14.9707890115806,0.755541469850298,0.814935085835395,1,1,1,1,1,1,38.89807917,-92.2079,2015,"MOH2",14
"B73/PHN82","GAH1_2018",15.155,729.061716492288,0,7.5,207.5,107.5,61.5,60.5,4.23124991450459,1.93499994277954,5.57546423139444,3.80102721408996,1.06785716329302,3.25619050056215,3.93224686575623,3.81685705866132,2.68502302543359,135.399997264147,11.6099996566772,76.7957134246826,135.018569469452,1.51642860685076,29.3057145050594,107.19214289529,19.0842852933066,83.2357137884412,16.891305744648,18.8303790092468,19.9789378987127,20.3262259893163,17.1663663727897,17.4750944924733,19.9805820305679,18.7765754699707,18.3549691213441,25.6268748044968,28.5650002161662,25.4642801168346,27.9641718628224,30.5753573008946,30.5485713292682,31.9994496950806,33.0712854930333,33.6833643056281,12.7006249800324,14.4699996312459,11.3598847335803,14.2730199772345,20.4792857851301,20.4244442742968,20.683989012522,21.8254284177508,22.3090554821876,11.9929111910296,13.9163936520453,11.3353404179938,13.6365222515622,17.5273215430123,17.4865078017825,18.3396781460675,19.3698555277453,19.8838856953605,0.988973218681557,1,1,1,1,1,1,1,31.50582525,-83.55515025,2018,"GAH1",17
"PHW52/PHN82","MOH1_2017",16.625,731.12121286656,0,1.75,227,97,64,62,8.9377417372119,9.40166687965393,2.5122307210309,3.31803000298191,5.03571436897157,1.79449076217318,1.99698652419733,1.22007939712801,1.67255760975148,277.069993853569,56.4100012779236,33.266191187359,103.90142990152,11.9309525943938,15.8776192438035,65.301428034192,7.33476209640503,51.2547620932261,18.7248205369519,18.0883291562398,22.6242269395262,21.0080017307694,18.7751449554686,19.9343814805702,19.7053313769018,19.3664612148354,17.3432911467809,21.9203225412676,25.3299999237061,25.4749503644893,29.3008720310805,30.4665072910369,32.2541201606629,29.9202677395283,28.2214596385048,28.0482789753525,10.0600000504524,15.2766664822896,12.998270884804,17.3976861805709,19.7822220514691,21.2135912224098,18.704048814453,16.3385714299284,14.9717184025754,9.61284732078703,12.7690302394973,11.9492820630245,15.4976191875118,17.12130987162,18.6727738376249,16.2046370134919,14.4820857755482,13.9285000836298,0.915472352559665,1,1,1,1,1,1,0.999239795872954,38.89264,-92.2057525,2017,"MOH1",10
"B97/PHB47","MOH1_2015",15,731.12121286656,0,0,207.5,77.5,74,72,3.91483872167526,3.00272724845193,2.70388340007172,5.64622626815722,2.26875001192093,1.18333334392971,4.73674408601423,1.74040179593222,3.6664919433214,121.360000371933,33.0299997329712,34.4199993312359,178.871247828007,5.86875003576279,10.6500000953674,140.261874556541,11.8831250667572,113.661250242963,18.8184669402338,18.8870315551758,16.929197347905,21.705914807588,15.7215426564217,19.9453006850349,18.4742217908113,20.1287302806264,17.0265389219407,18.2845160884242,18.0018183101307,23.7780545636798,28.9302828526302,29.8559374809265,31.7611801889208,30.4214076278912,28.5805001264527,28.4314314703788,5.85709682707825,7.50000006502325,15.2148777665246,17.6487962035776,21.6728123426437,21.4597915940815,20.2818253816477,17.0989999456065,17.2866936922073,7.06854431480445,7.30219313947649,11.971425794578,15.3979636076336,17.7643749117851,18.6104858915011,17.38069400277,14.991826945877,15.0531743909791,0.723283405334169,0.814935085835395,1,1,1,1,1,1,38.8965375,-92.20800417,2015,"MOH1",7
"B73/PHN82","NEH1_2015",14.4,795.48047456256,0,2,230,115,65,54.5,2.95906250551343,0.753999996185303,4.74563283345314,2.18704069073799,0.179999995976687,3.60144891745383,1.54800079262728,0.0578125016763806,1.58921436409676,94.6900001764298,3.76999998092651,46.8499994277954,63.5081251226366,0.239999994635582,39.1218755729496,55.4949998706579,0.586250016465783,47.8581244703382,19.0719456225634,25.8469993591309,20.0059366173214,19.9624584223382,20.9646370410919,17.862962844426,18.3117533318471,17.3040564497312,12.3794141031722,23.749062538147,30.5139999389648,29.1300998729287,30.7414867126068,30.7375001907349,28.4385862173456,29.1303174585083,26.8837498406569,20.1234253179002,13.1921873912215,15.4699998855591,18.0403649873505,19.1809282210085,19.1128125190735,17.3324828895656,15.9213148381598,11.1533021022876,6.52520026862121,11.6448137461047,15.2595573319928,15.683366010067,16.9689110631387,16.9384551391655,15.0734546124166,14.9518339258185,12.0107008879437,8.15887847021127,0.924598212486931,1,1,1,1,0.969696650265103,0.982957587710449,0.758540942647513,41.290979,-96.41664325,2015,"NEH1",18
"B73/PHM49","ARH1_2018",21,573.183584664576,0,2,195.5,99,64,58,6.80749994516373,4.70999993596758,2.62777637512911,4.73591215777578,3.61916664668492,6.96017852632536,4.33043756926438,0.796285740818296,3.37467743449497,217.839998245239,32.9699995517731,35.4892859118325,145.294284343719,5.83142852783203,62.5142853089741,109.797857735838,4.00357156140464,104.615000469344,17.9970670938492,21.7022604261126,20.0594998235876,19.526801115197,21.5939762251718,17.9926481322637,18.0574776027005,19.3321502186003,18.3042435536187,21.0706250667572,24.3185710906982,24.0216893355052,29.4527985731761,31.7309522401719,30.7069242303334,32.5717108049104,33.2952144259498,31.8374196285476,10.2671874910593,12.0357142857143,12.7020508751037,18.6741208320572,19.9915478343055,20.6467757206115,22.9033521317947,23.2358570643834,21.2883410212082,9.22327753419032,11.0103677478877,11.2783232173313,16.1126744540351,17.8620654597657,17.6775747954964,19.7277038225499,20.1946927088828,18.5436880911809,0.945725440979004,1,1,1,1,1,1,1,34.729679,-90.7603455,2018,"ARH1",10
"CG108/CGR03","ILH1_2016",16.3,776.17269605376,0,2,256.5,139,75,72.5,2.97690523692196,4.38840902691538,2.26653606655233,5.61207630954248,2.38484847184383,3.5965513070917,3.31235071929027,4.35749997459836,4.79379031928375,93.7199998497963,46.3549993336201,33.4606812819839,180.417726646093,4.62886360558597,41.7338635867292,104.141365719112,28.3243180147626,148.202045347203,18.8248824135911,16.772414523905,21.3206123477011,20.186536070862,20.742345383673,18.0798104173881,18.8666988996862,17.8581825314146,16.0768072129811,18.0508114395122,19.2020452456041,23.0422996986406,29.4229266243166,27.9030872836257,26.9731781198959,29.6021857332558,29.1593882944677,28.1759287739546,4.96004029539143,8.5312726020813,10.4507586023432,17.100495052534,15.9971779440389,16.8488147764823,19.4105485847029,18.8438310752183,17.0974068698762,6.7812351246955,7.96926780707668,10.1711916616246,15.4161417086623,14.2957979847463,14.1538489170388,16.5199597663553,16.0495125310087,14.8445893652738,0.666766271376172,0.897956158588459,0.946860721270467,1,1,1,1,0.999883116813965,40.0607245,-88.2338815,2016,"ILH1",9
"PHB47/PHZ51","NYH2_2016",19.8666666666667,731.12121286656,0,1.66666666666667,168.333333333333,77,73.6666666666667,71,2.03451613264699,1.03000000119209,1.88805842038864,0.867300395588696,1.14095236573901,2.3264502044364,3.37645110879505,4.28774657460297,3.20857245139568,63.0700001120567,12.3600000143051,22.4085715952374,34.4438095036007,2.62285709381103,25.5909522488004,116.656190026374,31.7580950827826,97.8257142560823,19.2124098193261,23.3558462460836,23.4055682219574,22.1788358644049,23.9445644560314,21.2536164940178,17.188970918256,16.172458164546,13.3590641317158,14.0493548300958,18.6874999205271,27.5085128267558,26.2363372785012,28.7807143075126,29.3169266424138,28.4163855529889,26.4450086476851,23.1529754740241,1.68677417501327,4.43999998768171,12.9269903570741,12.8553450425452,13.8947619256519,15.6558873601806,16.8638179961093,13.5881803360115,10.5576226536427,4.5112983091881,6.60715549716729,12.8876567633635,12.3333042748845,13.7996271971815,14.74166699264,14.8229567266396,12.6605081320414,10.2684241420574,0.447315666670074,0.804761906110105,0.9994000377118,0.994542932132847,1,0.999880087618925,0.994843293976969,0.949842164673799,42.726117,-76.655339,2016,"NYH2",2
"LH212HT/LH195","NYH2_2015",17.85,731.12121286656,0,0.5,239.5,126,83.5,84,3.81419348716736,2.82285712872233,1.80687464064718,1.42731021803444,14.2888235414729,6.32315504578824,2.55376965419514,1.26365193106185,1.70374004988072,118.239998102188,39.5199998021126,23.5252946965835,50.9970583828057,17.8623529541142,65.181764351971,90.4317651794237,10.7135291695595,51.741176838384,19.2182718400032,21.5841055597578,20.449727981801,21.8367516954081,17.3406774857465,18.3494561837956,18.4942560396539,17.5562584893265,13.8421542156052,11.2690322399139,15.8607141801289,24.7088825241473,27.1276459421623,29.5805877984739,28.55383421546,27.7592287936526,25.1159408132569,20.7331866067697,0.676451598924975,3.06571428690638,12.6831775651528,14.1969225367383,19.4886272280824,17.6625777576059,16.1289941291772,12.0334676261278,8.79723978773028,3.45886115192018,5.52265389277054,11.6556514545085,13.2498793989069,16.5657765871038,15.1876617555856,14.1658090063591,11.5384579918693,8.73121619200604,0.261509218300405,0.568112238329284,0.971160734546202,0.994106254153331,1,0.999864887211071,0.980226590626446,0.898542130517671,42.7324825,-76.65277775,2015,"NYH2",12
"LH74/PHN82","WIH1_2019",21.15,673.84146995712,0,0,235,111.67,73,72.5,3.10419357784333,4.99090914292769,3.98920662549874,5.06363266413622,7.17410234304575,5.65778887364623,3.97949085463652,4.11797166752897,7.04355999802981,96.2300009131432,54.9000005722046,56.4653849074474,184.967692155104,7.65615360553448,56.9199983019095,170.604614062951,43.341538381118,211.846154779196,19.3280051139093,20.4798962853172,21.1458576062267,19.9408146892547,20.4834896967961,19.0017179792578,17.7048067848719,14.7075956148864,11.1326062354694,14.4303226009492,19.6027271964333,23.7118626418456,26.5439932262088,29.1737174987793,29.5182899630709,25.9977532118412,22.1012555477932,19.2220794107448,3.04419357449778,6.37545462088151,11.9064976497962,15.0265328184469,17.4678201919947,18.4264638023777,14.7831372601031,11.2484903147107,9.42963116005236,4.97487523770926,7.49736964439653,10.7580109567202,13.2666390890037,15.4222728670387,16.0334344717331,12.801516016577,10.1287512075045,8.73034007736801,0.520449311090505,0.882272728851863,0.994529142515775,0.999440504080004,1,0.998245341608072,0.929327890439505,0.792629622344668,43.060857,-89.494068,2019,"WIH1",10
"PHG39/PHN82","NCH1_2017",17.7,731.12121286656,0,2,229,110,65,64,5.92935477918194,4.0971428326198,0.297958701828474,3.8605887218635,6.67380964188349,5.43709003925323,2.5136726855367,1.67758050992105,4.1404608350745,183.80999815464,28.6799998283386,4.0233332543146,115.819522829283,10.9095240093413,51.8457151651382,65.1576194422586,9.6885714899926,128.354285887309,16.8479611796717,19.660787991115,22.200774141109,19.2039608935909,15.7724910842048,20.5483989412822,18.7994722996277,19.2660637939868,16.4083516821151,26.0700000639885,23.5785715920585,28.1701127560743,29.7261436573129,31.0140472896515,30.4881481291756,32.5472167507523,31.9569590380403,30.4313824649231,13.6406452425065,11.251428263528,15.697578023226,18.8753639802544,22.5767457295978,19.8479362164856,22.2803962481536,21.2748593008167,20.8135023424702,12.5644242151493,10.4878498696085,14.2666594933888,16.3604491100229,18.7994083488786,17.2114406625619,19.3855749588707,18.573365725773,17.6526987585521,0.998329492208595,1,1,1,1,1,1,1,35.29663725,-77.5668065,2017,"NCH1",15
"PHG39/PHN82","TXH1_2016",10.45,733.6955833344,0,2,208,61,73.5,73,1.63366669813792,16.1399999346052,0.997024219685634,4.71986560334683,0.129393938815955,3.27727272687865,13.062324570375,0.703636358001015,1.01712562139433,49.0100009441376,112.979999542236,14.5313639044762,177.354999092492,0.330909089608626,36.0499999956651,378.067267352884,3.17999996922233,30.534545768391,13.9726291974386,10.7287414414542,17.8894095128623,17.8007609349484,20.5568532076749,19.7779241435784,17.9048036307734,20.8338603973389,20.1432609317589,22.3250001589457,23.9500002179827,24.4830925562751,26.4049851333462,28.5388636011066,28.6354545482919,30.1287031897283,34.3540452523665,35.5883872279207,6.03466663161914,13.3357141358512,9.67537964446524,13.1275877936174,15.7853026679068,16.3376445415591,20.1390285305243,23.0818636243994,24.0011842107726,8.47337903343467,11.2978355051063,10.5045992024655,12.4611166479839,14.4368127893531,14.7220414816358,17.1236823819741,20.5322511435483,20.8759903806844,0.915869047670137,1,0.972225206868779,1,1,1,1,1,30.54708625,-96.43393475,2016,"TXH1",16
"W10005_0107/PHB47","DEH1_2016",17.2,737.55713903616,0,8,235.5,112.5,77,76,2.70187503471971,7.43181821432981,3.8913443672194,3.01543568987816,5.35810598460111,2.45305554595861,7.02803129397506,2.62431810561455,3.19686020007931,86.4600011110306,81.7500003576279,66.3949995338917,101.616362200542,13.3345452438701,24.0222726382992,188.323178079995,15.0527268241752,98.5804540785876,18.330474331975,10.1000462011857,19.4097170760173,21.0293855949914,18.2505545182662,17.6465201137042,18.9446848277627,17.7865102970239,16.4444979187331,18.0900000035763,16.6009089730003,19.9020842077776,27.6764673780698,27.7968177506418,28.9030859032063,31.9137982464639,31.2181211240364,30.5716960682314,5.52968750568107,9.93090907010165,10.1128978635646,16.858989299231,18.0210605245648,19.7880051766983,21.9088104518459,21.6295759258848,20.1612733062994,6.82557737843557,7.64560586528393,8.60663778636783,14.4360322816611,14.984016447316,16.3761010057792,18.8554137385462,18.377489564845,17.3477874995971,0.726328134087713,0.729318175997053,0.99092985905268,1,1,1,1,1,38.6482025,-75.44606,2016,"DEH1",8
"F42/MO17","NYH1_2018",20.5,731.12121286656,5,6,256,114.5,66.5,65,4.39451605658377,1.63714293071202,0.546464292223061,3.46126588411801,6.06226183686938,4.33806171800409,2.06754098122778,1.17745675837538,2.35952765513126,136.229997754097,11.4600005149841,7.34000012278557,113.544999405742,14.9578569275992,45.2728574531419,83.6371432329927,15.502142767821,71.2850001624652,21.1490579728157,19.519095829555,22.5001219716587,20.4901431167549,17.3790955884116,18.6235723626046,17.5443773478498,14.4230900554,11.1133368383172,16.4383870170962,24.3471430369786,24.4808438545453,28.4079325010235,28.4709526243664,28.8555878403899,26.2557771614117,21.2173011281591,17.5372396540769,4.18161290259131,13.1842857769557,11.788045655175,16.0297059635046,18.1516667661213,17.5342846802303,14.3751012744368,9.64963466711058,6.53251005449173,6.04617210207382,11.820705170323,11.1899352886346,14.5077669174471,15.3522370327055,15.2644147770615,12.8637381038892,9.17978873289114,7.08420156946025,0.564688940665552,0.946581643454882,0.988804239637421,0.998335459706735,1,0.984010820924294,0.898581806826226,0.740508559242307,42.72940418,-76.65161667,2018,"NYH1",12
"PHB47/PHN82","IAH2_2017",15.425,770.05856619264,0.5,8.25,208.75,95.75,65,64,2.99193547618005,4.00374990701675,5.59415436127969,1.82415974193672,2.96590905297886,1.13861617337574,3.54439579705404,5.52586092903759,3.22496434239523,92.7499997615814,32.029999256134,86.8399996757507,64.743636071682,5.88090901483189,11.0354546579448,133.685001557524,39.366364874623,98.0227279554714,18.9181115088924,22.0308394432068,18.3906703843513,21.9130098121916,21.5970702604814,21.0005855088282,18.7624625632021,16.5013675579605,14.5633697451035,16.7025806211656,25.2537500858307,21.1644402920874,28.7879280313535,31.3429540287365,31.038908986371,27.7923067917653,26.5413899369054,25.0180860311055,3.83612903808394,9.06000000238419,9.83648406203406,14.7235259390494,17.1804546009411,18.0048533863491,15.618900018401,13.9478747019692,12.2571085666223,5.88435640664124,10.5205817772981,9.32555658634035,14.1961143177765,16.2939337097197,16.5715003347332,14.0580127584531,12.7380351430824,11.5799250069021,0.659274194561254,1,0.882113053044242,1,1,1,1,0.976890028652541,42.06582876,-94.72050129,2017,"IAH2",8
"CG119/CG108","IAH1_2019",17.85,694.43643369984,0,0,162.5,75,65,64,8.15718757361174,0.753333350022634,7.31557737378795,1.14438907355141,0.212857144219535,0.731688292769643,3.10367980083365,5.185721734979,4.91897999248289,261.030002355576,4.5200001001358,87.3064272063119,32.2664281300136,0.212857144219535,8.04857122046607,121.503570373569,46.3999997164522,147.939998852355,18.0190464556217,22.72114833196,18.5386832301204,20.8461719391544,19.2009373846508,21.9142898522414,16.4832458017069,14.2334940540468,11.0087876791229,22.3099999427795,27.5299997329712,24.5261778894118,31.4481277966288,28.6304760887509,29.4787013190133,27.1100269740106,25.007314114315,20.465771880493,10.9306250140071,14.9633332888285,14.9168448304933,20.0276676596814,18.3645236378624,16.3407141202456,15.6768667145032,13.067469943752,9.59281948388693,10.1177915198658,13.5813792925954,12.0903962382799,17.7390317751967,15.5681627046477,15.0835359367902,13.708186378737,12.1429510521349,9.38787554144245,0.87926339437919,1,1,1,1,0.994329881257634,0.928985237406225,0.79775290707702,41.1992562,-91.4941418,2019,"IAH1",9
"B37/H95","NEH4_2017",15.4,775.5291034368,10,4.5,184.5,67,65,64,4.59032254834329,9.02400010824204,0.479867887087711,3.81196387431756,0.538484847906864,1.68492423765587,2.26785004737447,4.65714278971994,3.86350145999521,142.299998998642,90.2400010824204,5.1100001335144,117.465453971516,1.61545454372059,15.1345454129306,79.631816983223,32.5999995280396,117.425454340198,19.4391373357465,17.2153170108795,24.1724838998111,20.9591997537085,19.5087172190348,19.2150816303311,18.9073912886805,17.6974393903435,15.3998570417962,20.6222579863764,19.5259998321533,28.5942012750084,30.0674228663154,31.2254544460412,32.427121184089,28.6164972680056,28.4793340540552,26.8324867737025,7.51935482409693,9.5090000629425,13.5708453749115,16.7542414705589,19.4418183529016,20.4097727645527,17.1637547198432,15.7475164269472,13.7100762172769,8.50655754019973,8.45038905221992,13.6268597566258,15.5881735310777,17.3431474848323,18.3684917818816,14.9784288099449,14.344579744287,12.8768287854953,0.797626728973081,0.881249991485051,1,1,1,1,1,0.994264068992333,41.162,-96.409,2017,"NEH4",16
"B14A/OH43","OHH1_2016",21.2,646.16698742784,0,70.5,270.5,130.5,65,64,4.32806446475368,1.77600002288818,3.91514520817277,2.58074065911205,3.89075762575323,4.1704949600528,5.07906928910772,3.9577419347548,3.61459481407063,134.169998407364,8.88000011444092,44.703636136922,85.9177285974676,9.33045467463407,39.9481819326227,160.185453747484,27.6977266587994,110.118636226112,18.3437643974058,22.2428304672241,20.7314695601022,20.3598251803728,19.1523341554584,18.8282464220066,16.7204849062197,17.9873095465335,14.717978926255,19.6358064528435,29.6320003509521,26.5695358893096,28.5926358759461,29.5910605517301,30.6928383605649,29.2168918167121,28.2718868666116,26.3058832172308,8.12096774674231,16.8959997177124,14.973912901117,16.7052856168403,18.3031819083474,19.7444342603587,18.9160148979259,15.4450083848343,13.402624611054,8.11765705231608,15.3272200928741,13.170280569172,14.8167815407942,15.9685705423992,17.2330323566172,16.1171316077875,14.2150247381021,12.5845870964483,0.859331788177589,1,1,1,1,1,0.999172077691259,0.989049277132183,39.860924,-83.6755995,2016,"OHH1",11
"F42/OH43","NYH2_2017",17.7,731.12121286656,0,2,229,110,65,64,4.98580635363056,2.59333333704207,3.45371500532324,5.89688957038573,0.94807019150048,3.20841810925976,2.37965572681416,2.69433302149013,3.3979729822606,154.559996962547,23.3400000333786,55.2357888974641,222.98894784325,1.76315789473684,41.8126309106224,117.779474443511,23.6378949959027,104.191053542652,18.9189640937313,18.2290218141344,21.6231091311596,19.2816943373654,21.2024165956598,18.916781590673,16.9740698632348,13.8804367561403,9.43949481778822,16.549032380504,19.8011112213135,22.3488199715029,25.6546189886677,27.1610527540508,25.3148987975818,23.2880304669988,24.2514658183566,18.2446084072576,5.23967740420372,10.2422222031487,10.5593938701109,15.2177031552253,15.8735966682434,14.8450433481215,11.5614248973978,11.1539849421825,7.35242725274508,6.26789810278045,8.57074783107705,9.79388514165009,12.8009794426063,13.6890467322532,12.4613839915646,10.5515557799113,10.876639235376,7.68889693415974,0.638917053418775,1,1,1,1,0.981507474576186,0.966916282342149,0.722284214210263,42.73248125,-76.65275025,2017,"NYH2",15
"B73/PHN82","ILH1_2015",11.6,741.41869473792,0,0,242.5,130,70,68.5,4.34343749051914,1.29615384340286,7.654899738758,5.34311294988612,3.67499995231628,2.46729163328807,4.64726805078788,0.712819956420433,1.9519079085119,138.989999696612,16.8499999642372,99.8675005473197,177.342500980943,7.34999990463257,22.2056246995926,144.025624632835,5.03937511332333,60.0618743356317,19.4076893031597,20.2182017839872,17.5801237771363,22.592317287411,17.3577569425106,20.1224286291334,18.7955131537028,20.3716592643233,16.8099873810686,15.693750217557,16.2761536378127,23.8148397458069,28.7742831748073,30.2824996709824,31.917013724645,28.6589959642683,28.4854071997461,27.0987701069283,2.91687501082197,4.60230773228865,13.9338979229276,16.2604470887104,20.4774998426437,20.4138195912043,17.7954354684494,15.771967322202,14.6267217462101,5.33980004312561,5.92163564241169,11.5310566581626,14.7484368961231,17.379999756813,18.1717816417615,15.315695861998,14.446488469174,13.3642133617155,0.599162963767802,0.63684064575604,1,1,1,1,1,0.998281250042575,40.05982425,-88.23397575,2015,"ILH1",19
"PHW52/PHN82","GAH1_2019",16.755,726.101190454272,0,0,190,92.5,62.5,61.5,4.2248276430985,1.98000000582801,1.90823678359521,2.10647248574171,0,0.0907142843518938,5.69186592379183,1.47342855930328,3.0456205472785,122.520001649857,17.8200000524521,22.3799997738429,72.0499995776585,0,0.725714274815151,156.552854708263,7.36714279651642,92.869284595762,16.4500470983571,17.4863393571642,17.4025938464352,20.9384505981452,22.5114740644182,21.8443094832557,17.6671443571744,19.7649144172668,19.7113921770486,21.2065516504748,22.5866669548882,26.8157474524398,29.5228407044518,35.0427381424677,35.7019644635064,32.622701984341,33.6281431470598,33.3689372225291,7.21482760176576,8.5955556233724,14.0449841602638,14.4754341124517,19.2165478297642,20.5846430063248,20.896611150629,21.7801428658622,21.253149004759,8.37062868121402,9.27422007508131,12.9164221771526,14.4004499916871,18.6772654256278,19.2831320721806,18.6339539837863,19.6355556785611,19.1804902073846,0.902167480218734,0.984365084814647,1,1,1,1,1,1,31.50582525,-83.55515025,2019,"GAH1",11
"PHN11_PHW65_0323/LH195","NCH1_2015",17.9,731.12121286656,0,0,216,113,65,64,3.01406249962747,9.69285692487444,3.04330832410036,7.00027835031834,0,3.41134798604678,2.88671641131125,10.3153333224502,6.56176467005171,96.4499999880791,67.8499984741211,47.4647058125804,233.853526101393,0,30.1217642391429,80.4405882078059,53.9476469544803,203.414704771603,18.5664188563824,18.5514960970197,20.3873328310438,17.1836904295842,24.3925100214341,21.0362960372875,20.3018930406527,17.2717840606091,15.5850313791061,22.3831250071526,24.9499999455043,23.1803462918337,27.4024498932643,31.8211766411276,31.7674348182928,33.3084592700098,33.2296859142827,31.1603984543223,8.59218750149012,12.5099998201643,10.485350050131,18.4028683148743,19.9205883250517,21.4626141077553,22.3400113714156,22.6128236359241,21.9246869403904,9.28512769721026,11.4677352876307,10.1580144688938,14.9923900224101,17.8708824830897,18.6065247653655,19.7182694534911,19.8442286940319,18.5353187927943,0.955334819055029,1,0.995809597891475,1,1,1,1,1,35.29657708,-77.5664625,2015,"NCH1",15
"B73/MO17","IAH4_2017",21.95,690.57487799808,8.25,2,228.25,112.75,70,67.75,3.05419361206793,4.63857133047921,5.65428284440315,2.35614602206887,0.14500000260093,0.823262633699359,3.0299399841441,2.50648539721385,3.02203274721158,94.6800019741058,32.4699993133545,92.5500001907349,79.8100001811981,0.29000000520186,7.93136371265758,110.043181820349,17.6581818705255,91.7922727492723,19.6043462753296,22.3785518918719,18.8162880805234,21.4694011437152,22.4233230460774,21.2695237410189,19.151369503563,15.9420575880557,15.341385783443,17.8393548227126,25.2142854418073,21.7675578492375,28.8834045222006,30.8898489258506,30.9933841088806,28.3060990673118,26.2662246385522,25.9343880588008,4.95258065529408,10.1399999346052,10.2470841328658,15.0215020746586,17.4712879585497,18.0760807755018,15.8066246452854,13.8702660153955,12.5135465144736,6.57524394811711,10.823012742074,9.64996062135486,14.3656457039619,16.2281010402398,16.5739815495123,14.3659785216558,12.5754656563723,12.0621406847053,0.727396317478698,1,0.91008219867215,1,1,1,1,0.9871688305106,41.99455432,-93.69030947,2017,"IAH4",9
"PHG39/PHN82","MNH1_2015",17.4,733.05199071744,0,2,231.5,108,74.5,73,2.67645166525918,6.10285712991442,1.58721610445111,4.7077263256623,2.09382353109472,4.68577535931227,5.9350156688025,2.22326150676053,2.19878814463244,82.9700016230345,42.7199999094009,19.590000131551,155.007059007883,3.96529412269592,52.2323524741565,227.094708481256,20.9011769756017,67.401177584358,19.816934616335,15.8754692077637,21.6281845751118,20.6523619261065,17.2143456515144,21.1212332316686,17.7408483022691,14.5374503953005,12.0629753461599,17.4338709308255,22.6300002506801,27.2892179925706,28.4642367103754,28.3652941759895,28.0789971632116,26.1408952283773,24.7325950747879,17.9009570518097,4.56741930688581,13.7342856270926,14.30007362468,16.8971689663296,18.654117640327,16.1974599531415,14.7564351113732,13.5728072906729,6.63464769243789,6.28381609962703,10.8743797711898,13.2690560805916,14.8702380832727,15.6411451436446,14.3539204313244,12.9900637188381,12.4683668720892,7.55733067966644,0.72298386648366,1,1,1,1,0.97770300313998,0.878626049359361,0.7212296457923,44.07038575,-93.53519625,2015,"MNH1",17
"PB80/PHZ51","IAH1_2015",17.4666666666667,741.41869473792,0.666666666666667,9.66666666666667,264.666666666667,136,65,64,1.56645163797563,2.21307695370454,8.40241855686024,1.32346369240836,0.084411761339973,2.29735939798791,2.93999255048908,2.37101190956701,2.73279376330065,48.5600007772446,28.770000398159,122.139999866486,43.5299997925758,0.168823522679946,22.8235286263859,100.118234865806,16.6700000342201,83.8129400085,20.4321490257017,18.8581149761493,14.6331772809511,22.3127675938035,19.1422725845786,22.2080652261871,19.8386258824345,18.3376315823456,15.0581957022198,16.087741913334,16.6453845684345,21.8469785316973,28.7334183023463,30.2685291065889,31.3074705248565,29.0510553070878,29.396362715275,24.6694635680625,1.83903228419442,4.86538466123434,13.1289285435553,16.8676896249547,20.0594113854801,18.0570519634322,16.3929613969702,15.4374991619954,11.1722985517151,5.44712973145307,6.09818857737345,10.4824096365253,14.9963247305916,17.1663926633043,16.728841860151,14.9692492703924,14.7713722092671,11.3064436073178,0.593087559179639,0.682994502258825,0.988452544600181,1,1,0.997626800819033,1,0.896934673983109,41.9980952,-93.69336973,2015,"IAH1",8
"PHW52/PHM49","TXH2_2019",11.12,790.65352993536,0,0,193.5,65,72.5,71.5,1.71448274965173,0.072857141494751,3.656594302147,9.09543456371003,0.409285715648106,1.20767857134342,5.35585078307965,1.24614285230637,1.57441934339828,49.7199997399002,0.509999990463257,52.0078563094139,328.212138780526,0.592857139451163,9.66142857074738,146.447857277734,6.531428532941,47.5149996536119,15.4280570457722,20.5213113512312,18.768988344457,18.5703255916766,21.4234965869359,18.852815253394,20.148813605732,21.0307275136312,19.8408923398148,18.4500000723477,25.7642857687814,24.4325494379212,27.2758673216928,31.0900000163487,32.3786609854017,32.7243520483546,34.0447144826253,34.9820077594341,6.8262069143098,10.3500000408718,10.6796315414328,14.7876673923985,18.6585717882429,21.8507142748152,21.0244273483534,21.7961428233555,22.6049738996772,7.4578164675981,11.1589152046898,10.8511947929525,13.4663040330347,16.9119367665064,19.1141210544432,18.8476531392514,19.7780710195599,20.0141955883191,0.749667494461454,1,0.945308164445992,1,1,1,1,0.999698925164804,30.546318,-96.4329965,2019,"TXH2",21
"PB80/PHZ51","NCH1_2015",16.5,731.12121286656,0,0,242.666666666667,127.666666666667,65,64,3.01406249962747,9.69285692487444,3.04330832410036,7.00027835031834,0,3.41134798604678,2.88671641131125,10.3153333224502,6.56176467005171,96.4499999880791,67.8499984741211,47.4647058125804,233.853526101393,0,30.1217642391429,80.4405882078059,53.9476469544803,203.414704771603,18.5664188563824,18.5514960970197,20.3873328310438,17.1836904295842,24.3925100214341,21.0362960372875,20.3018930406527,17.2717840606091,15.5850313791061,22.3831250071526,24.9499999455043,23.1803462918337,27.4024498932643,31.8211766411276,31.7674348182928,33.3084592700098,33.2296859142827,31.1603984543223,8.59218750149012,12.5099998201643,10.485350050131,18.4028683148743,19.9205883250517,21.4626141077553,22.3400113714156,22.6128236359241,21.9246869403904,9.28512769721026,11.4677352876307,10.1580144688938,14.9923900224101,17.8708824830897,18.6065247653655,19.7182694534911,19.8442286940319,18.5353187927943,0.955334819055029,1,0.995809597891475,1,1,1,1,1,35.29657708,-77.5664625,2015,"NCH1",9
"B14A/MO17","MIH1_2018",24.45,706.66469342208,0,1.5,184,85.5,73,67.5,5.01225806436231,1.85857137611934,2.30331191463433,3.25951691756812,0,1.60415119941418,2.92619831356102,4.21553021195656,2.83007403868438,155.379999995232,13.0099996328354,29.7907139573778,101.442142486572,0,18.1621430601392,122.341429148402,36.1057143041066,85.3414282117571,19.7861952781677,22.4124417986189,25.0884598450622,20.2612458458858,21.4032746950785,19.637790091245,17.5968755658502,14.6465572693566,11.3353334319491,19.0825806125518,24.4042857033866,26.505944844571,29.8591727623839,29.2076190766834,28.9402475938851,27.0018144543115,23.872538371452,17.7408049407478,7.63354836452392,11.5700000354222,11.5577044046365,16.9041061443352,16.7723805904388,17.0588350970071,14.0643132941307,11.7732902665618,6.16018373429463,7.98558094772299,11.0854581776882,11.9601199609315,15.5131733342938,15.0676347638495,15.1176834662804,13.1591194742283,11.0037102398898,6.94989994028217,0.750656678482959,0.993928568703788,1,1,1,0.982067154646315,0.951173413871536,0.716707840592432,42.689234,-84.49755575,2018,"MIH1",9
"B73/MO17","TXH1_2016",10.2,701.5159524864,0,2,229,97,70.5,70.5,1.63366669813792,16.1399999346052,0.997024219685634,4.71986560334683,0.129393938815955,3.27727272687865,13.062324570375,0.703636358001015,1.01712562139433,49.0100009441376,112.979999542236,14.5313639044762,177.354999092492,0.330909089608626,36.0499999956651,378.067267352884,3.17999996922233,30.534545768391,13.9726291974386,10.7287414414542,17.8894095128623,17.8007609349484,20.5568532076749,19.7779241435784,17.9048036307734,20.8338603973389,20.1432609317589,22.3250001589457,23.9500002179827,24.4830925562751,26.4049851333462,28.5388636011066,28.6354545482919,30.1287031897283,34.3540452523665,35.5883872279207,6.03466663161914,13.3357141358512,9.67537964446524,13.1275877936174,15.7853026679068,16.3376445415591,20.1390285305243,23.0818636243994,24.0011842107726,8.47337903343467,11.2978355051063,10.5045992024655,12.4611166479839,14.4368127893531,14.7220414816358,17.1236823819741,20.5322511435483,20.8759903806844,0.915869047670137,1,0.972225206868779,1,1,1,1,1,30.54708625,-96.43393475,2016,"TXH1",10
"WF9/H95","IAH4_2017",17.7,731.12121286656,0,2,229,110,65,64,3.05419361206793,4.63857133047921,5.65428284440315,2.35614602206887,0.14500000260093,0.823262633699359,3.0299399841441,2.50648539721385,3.02203274721158,94.6800019741058,32.4699993133545,92.5500001907349,79.8100001811981,0.29000000520186,7.93136371265758,110.043181820349,17.6581818705255,91.7922727492723,19.6043462753296,22.3785518918719,18.8162880805234,21.4694011437152,22.4233230460774,21.2695237410189,19.151369503563,15.9420575880557,15.341385783443,17.8393548227126,25.2142854418073,21.7675578492375,28.8834045222006,30.8898489258506,30.9933841088806,28.3060990673118,26.2662246385522,25.9343880588008,4.95258065529408,10.1399999346052,10.2470841328658,15.0215020746586,17.4712879585497,18.0760807755018,15.8066246452854,13.8702660153955,12.5135465144736,6.57524394811711,10.823012742074,9.64996062135486,14.3656457039619,16.2281010402398,16.5739815495123,14.3659785216558,12.5754656563723,12.0621406847053,0.727396317478698,1,0.91008219867215,1,1,1,1,0.9871688305106,41.99455432,-93.69030947,2017,"IAH4",6
"PB80/PHZ51","NCH1_2016",14.5,731.12121286656,0,11,241.5,140,65,64,2.90156245231628,3.1257141658238,7.13790793537677,4.68303443912438,4.31772709976543,0.863030289158677,5.22628340706996,5.10418182503093,4.50766866787438,92.8499984741211,21.8799991607666,91.8631831515919,160.77363422513,8.49772692810405,8.49545440890572,139.931818181818,26.1277273243124,139.737728704106,16.3685781806707,22.2713846479143,15.4949862283056,18.7284907802807,21.8793197978627,21.8664798996665,18.529991999807,18.05675721891,17.3265616131668,20.861250013113,25.5857140677316,25.6894626938102,27.1054564010764,30.2031816569242,31.055969704522,32.4242385211894,33.5976670091802,33.2603517739304,7.69218749413267,8.21285721233913,14.2700391136405,16.0730002825544,18.0268178419633,18.8016968052797,21.2796372022056,22.6219093149359,22.7218181954101,8.38342182115148,10.4398532157701,12.4646866942302,13.955992978898,16.1716004230384,16.9972748117641,18.8316059181804,19.9805669981395,19.8669778055321,0.913761163346602,1,1,1,1,1,1,1,35.30015175,-77.57127825,2016,"NCH1",10
"B73/PHM49","MOH1_2016",15.9,731.12121286656,0,2,252.5,115,58.5,57,2.46548387696666,8.05800023078918,0.26425937654912,6.28252126803095,1.94553034955805,9.25680558966717,4.35890712054063,3.35466445060003,5.45313052702641,76.4300001859665,40.2900011539459,2.87999999523163,172.837275786833,4.26272736896168,83.2036366733638,125.209091579372,21.1336360627955,168.224091789262,20.2309362965245,16.9350936889648,22.4982955657569,20.2095998884574,18.6817798614502,19.2140896434736,18.009092196306,17.1771441321352,15.8753494680802,21.8319354826404,27.5660003662109,27.8864476525043,31.2121523499736,30.2579544240778,31.2505744972614,30.5742306529435,29.8007791217787,28.2533923636667,10.0738709972751,16.7440000534058,16.2647446268316,19.8621598402259,19.9837122252493,20.4911741319329,20.7615379101816,19.9143179443491,17.5631836798883,9.49779854702591,14.2434334868972,14.2129642512569,17.4733694599123,17.1223259823391,17.869915103463,17.6510486247485,16.9099855149229,15.0956111701838,0.937315665082448,1,1,1,1,1,1,0.999442640656517,38.8955475,-92.2072025,2016,"MOH1",11
"B97/PHB47","DEH1_2016",17.8,715.67499005952,0.5,1.5,236,115,77,75.5,2.70187503471971,7.43181821432981,3.8913443672194,3.01543568987816,5.35810598460111,2.45305554595861,7.02803129397506,2.62431810561455,3.19686020007931,86.4600011110306,81.7500003576279,66.3949995338917,101.616362200542,13.3345452438701,24.0222726382992,188.323178079995,15.0527268241752,98.5804540785876,18.330474331975,10.1000462011857,19.4097170760173,21.0293855949914,18.2505545182662,17.6465201137042,18.9446848277627,17.7865102970239,16.4444979187331,18.0900000035763,16.6009089730003,19.9020842077776,27.6764673780698,27.7968177506418,28.9030859032063,31.9137982464639,31.2181211240364,30.5716960682314,5.52968750568107,9.93090907010165,10.1128978635646,16.858989299231,18.0210605245648,19.7880051766983,21.9088104518459,21.6295759258848,20.1612733062994,6.82557737843557,7.64560586528393,8.60663778636783,14.4360322816611,14.984016447316,16.3761010057792,18.8554137385462,18.377489564845,17.3477874995971,0.726328134087713,0.729318175997053,0.99092985905268,1,1,1,1,1,38.6482025,-75.44606,2016,"DEH1",8
"TX714/PHZ51","KSH1_2015",16.3,743.99306520576,0,2,229,110,85,82,0.688124985434115,3.51874988526106,2.53723953629,4.63432691532959,6.34078425052119,4.01351628490523,5.7530108742313,3.9555966203954,1.81791271000705,22.0199995338917,28.1499990820885,47.4017647645053,147.170588188312,9.16588230694042,38.1823524166556,161.646473025574,23.7470587141374,56.3552940102185,19.4891082793474,20.3406240940094,19.219587906801,21.3066410822441,18.0035172630759,18.8081848331526,18.6006693160364,17.8671807769968,18.7825362153026,17.6940625309944,22.9675002098083,19.8522148456821,29.3189279151369,29.1170587726668,31.416705766067,31.167606554856,30.5050588602445,29.9620492345242,3.2971874922514,8.93874996900558,8.79256136460572,16.998742995872,18.0970592872769,19.8498956119313,20.1377743985527,20.0328234533636,17.0683681091728,6.18473854158211,9.47623015774604,8.38152018909972,15.3881661623318,15.6169766258551,17.6554751493738,17.6555626478954,17.3245865439199,15.7567018294421,0.677812499559617,1,0.850138809291572,1,1,1,1,0.983045539709894,39.21641775,-96.60482225,2015,"KSH1",4
"F42/OH43","NYH2_2020",14.8,701.5159524864,0,9.5,241.5,110.5,64.5,63.5,4.4222579925291,0,1.39173123579944,3.18235724693344,6.17088877360026,3.50790104135118,2.28349072361197,1.42691866419926,2.17217563357404,137.089997768402,0,18.6826673050721,113.270666055878,12.6093331019084,36.9826669931412,88.4693336625894,18.1466666658719,65.6160001913706,20.9426754428494,21.7824497138129,21.5566608507285,20.6432143634654,19.2778644667731,18.9298452936519,17.7688209270759,13.7796892350961,11.7049053949951,14.5544730601772,27.9497778235541,23.6293392760458,27.8654129678972,27.8868889702691,28.7867253702337,26.5330294770505,21.5667549297366,18.2050767358379,2.61195698992539,15.6643110571967,11.3557305522714,15.510257551595,16.3110002305773,17.4820829176662,14.5382635461397,10.8637773380053,6.87917712598825,4.97941532358752,14.0269723819236,10.7080110498196,14.0939234463352,14.2287908501232,15.2006731147438,13.0497103701591,9.74952242691145,7.38768080178657,0.470065284751573,1,0.969822941036728,0.995242037142797,1,0.988859641207354,0.904446401273676,0.765938607634747,42.73230075,-76.65036275,2020,"NYH2",16
"TX777/LH195","NYH3_2020",18.65,722.11091622912,0,3.5,254,135.5,80.5,80,4.4222579925291,0,1.37386568296554,3.20351506445815,6.16145822405815,3.57865722875929,2.24761977590812,1.33999586306569,2.27076882341055,137.089997768402,0,18.6900006383657,113.673124372959,12.197499781847,37.861250333488,87.7481253221631,17.0418749991804,68.5456251874566,20.9456095618586,21.7823342720668,21.5526742482692,20.638256507124,19.1814768413703,18.8769039277326,17.7563308502435,13.9394394653537,11.5316013952257,14.5922580053729,27.9772917191188,23.6094541075767,27.8984202440962,28.1795833905538,28.768293680928,26.516173468598,21.4748904446212,18.1299052705588,2.6447177418778,15.6826666156451,11.35088710046,15.5391201375773,16.4328127304713,17.5001345563116,14.5301081821732,10.5292143371087,6.89141605607189,5.00043499535027,14.0475345921311,10.7003564597798,14.1169770595808,14.4279289196063,15.1988637606132,13.0350936703975,9.60472782060815,7.3561018093545,0.471947005181681,1,0.969562211391627,0.995539409821372,1,0.989555913631894,0.903066166148159,0.764418635028781,42.73227475,-76.6513705,2020,"NYH3",7
"B14A/H95","MOH1_2_2018",17.8333333333333,731.12121286656,0,2,237.333333333333,126.333333333333,56.3333333333333,55,4.41903226221761,0.120000000510897,6.56660791995818,4.99591372633306,0,0.865952385796441,4.86790862322567,7.31814540619296,3.6292411527306,136.990000128746,0.840000003576279,71.6014266695295,150.62857072694,0,7.79357147216797,145.615713886518,39.8592857306025,112.015713835268,18.3939577687171,18.4656530107771,20.1607480990468,20.7059322149744,19.8732600893293,21.9774913485088,18.0698285783682,17.4646894327232,16.3191407620449,19.5254839005009,22.7671429770333,27.1655427269033,29.6093682189896,31.6271427018302,32.3242057770018,29.5162818466631,29.853759335174,27.0484316483804,7.99741943036356,14.1471428189959,16.4373297396251,18.8117261232584,21.7996424947466,20.7100794050429,19.443161886798,19.2115569948339,15.9181414362839,7.99298649242084,11.1555315984476,14.0053567257346,16.2635961901413,18.7133925982884,18.5171425910223,16.5469966366495,16.6004405943066,13.8667043099972,0.872361757925578,1,1,1,1,1,1,0.995607143802708,38.89555425,-92.20964575,2018,"MOH1",14
"W10004_0216/PHZ51","IAH1_2015",17.3,736.9135464192,6.5,7.5,310,168,65,64,1.56645163797563,2.21307695370454,8.40241855686024,1.32346369240836,0.084411761339973,2.29735939798791,2.93999255048908,2.37101190956701,2.73279376330065,48.5600007772446,28.770000398159,122.139999866486,43.5299997925758,0.168823522679946,22.8235286263859,100.118234865806,16.6700000342201,83.8129400085,20.4321490257017,18.8581149761493,14.6331772809511,22.3127675938035,19.1422725845786,22.2080652261871,19.8386258824345,18.3376315823456,15.0581957022198,16.087741913334,16.6453845684345,21.8469785316973,28.7334183023463,30.2685291065889,31.3074705248565,29.0510553070878,29.396362715275,24.6694635680625,1.83903228419442,4.86538466123434,13.1289285435553,16.8676896249547,20.0594113854801,18.0570519634322,16.3929613969702,15.4374991619954,11.1722985517151,5.44712973145307,6.09818857737345,10.4824096365253,14.9963247305916,17.1663926633043,16.728841860151,14.9692492703924,14.7713722092671,11.3064436073178,0.593087559179639,0.682994502258825,0.988452544600181,1,1,0.997626800819033,1,0.896934673983109,41.9980952,-93.69336973,2015,"IAH1",8
"B73/PHN82","MIH1_2017",25.3,669.97991425536,0,4,99,53.5,68.5,69.5,2.65129033404012,1.64250004291534,0.365195355155368,3.68588979784018,0.0229824551364832,0.46297232149101,1.74576806741443,1.92419894727902,6.21584880662018,82.1900003552437,13.1400003433228,4.41789476338186,131.667893061512,0.0689473654094495,5.87157878122832,77.4078943196096,25.1578945925361,187.919470972136,20.7548004581082,19.5261926651001,24.4742989093836,19.8905510316777,21.9433432796545,22.1206047711906,17.4790874196007,14.7643136405382,9.64132186376111,18.9967743350613,22.1187500953674,26.4465225468316,27.4969315652497,27.7329823008755,27.824925694871,25.3738691139958,24.1007104170058,20.6398986734167,5.96129034796069,11.9187499284744,11.3631864125553,16.0503932975266,16.0887717866061,14.9625505184838,12.276571042592,9.93890341042346,8.93630907537408,7.30321713873745,10.0125802625948,11.8678501821976,14.0611352118072,14.116078975745,13.7509617648401,11.6765951301922,10.5934889835682,9.14877577769738,0.770126732675711,1,1,1,1,0.999072621356021,0.94927833355258,0.816440377467249,42.68116575,-84.49434125,2017,"MIH1",20
"2369/LH123HT","TXH1_2019",11.225,870.664964075827,0,0,216,58.5,70.5,70,1.71448274965173,0.072857141494751,3.656594302147,9.09543456371003,0.409285715648106,1.20767857134342,5.35585078307965,1.24614285230637,1.57441934339828,49.7199997399002,0.509999990463257,52.0078563094139,328.212138780526,0.592857139451163,9.66142857074738,146.447857277734,6.531428532941,47.5149996536119,15.4280570457722,20.5213113512312,18.768988344457,18.5703255916766,21.4234965869359,18.852815253394,20.148813605732,21.0307275136312,19.8408923398148,18.4500000723477,25.7642857687814,24.4325494379212,27.2758673216928,31.0900000163487,32.3786609854017,32.7243520483546,34.0447144826253,34.9820077594341,6.8262069143098,10.3500000408718,10.6796315414328,14.7876673923985,18.6585717882429,21.8507142748152,21.0244273483534,21.7961428233555,22.6049738996772,7.4578164675981,11.1589152046898,10.8511947929525,13.4663040330347,16.9119367665064,19.1141210544432,18.8476531392514,19.7780710195599,20.0141955883191,0.749667494461454,1,0.945308164445992,1,1,1,1,0.999698925164804,30.546318,-96.4329965,2019,"TXH1",10
"PHN11_OH43_0001/PHB47","WIH1_2015",27.4,751.71617660928,0,0,262,137,65,64,4.73000005912036,9.05999978383382,2.43061068168386,6.19005986556151,3.24281251430511,1.73931090915814,2.56322206766969,2.5826045268506,2.06486223506671,151.360001891851,54.3599987030029,32.300625488162,198.088750079274,6.48562502861023,21.1143751442432,113.252501126379,35.4293755665421,62.4800001233816,19.3236754387617,22.1910498936971,23.8972514964953,19.0410510068734,21.6280432442824,20.7255365879108,16.0925579709474,13.722787601418,9.59556191513936,19.9571875482798,28.1500002543132,26.0532609907049,28.8593200589564,29.0738543669383,26.5105607723578,24.8273939882814,20.1808902607393,14.5154980836536,8.51718754309695,15.3049998283386,11.8280294384883,17.4878351835719,16.4801037510236,14.4961537795189,12.3150913731169,8.58194562556843,2.68044018258631,8.55835087322049,13.98301753897,11.81015597229,15.2618382755968,14.9558189846116,12.9875354191,11.6812346906955,8.628108427747,5.08755073101082,0.777276777234095,1,1,1,1,0.929186389078322,0.833919484023419,0.505939954463764,43.05511725,-89.528525,2015,"WIH1",6
"PHW52/PHM49","NCH1_2020",19.025,700.87235986944,4.75,0.25,210.3125,84.0625,65,64,3.81125003128545,6.58374977111816,1.87015070111794,7.59338454735375,0.884285699753534,2.63668646698906,3.33071338060501,6.12114287103925,7.32343316943415,121.960001001135,52.6699981689453,29.2835704556533,255.940713865416,2.6528570992606,23.4857139246804,94.0314286180905,30.3285714898791,227.026428252459,17.7931001186371,18.2030313014984,21.9031161387958,16.624104256889,22.7344187781924,20.9765385862381,20.5430953276098,18.1598880904061,15.6514139856611,21.6678124964237,23.2199997901917,23.3487043310554,27.0496421427954,28.21738079616,30.9563497626592,33.0704321677563,33.2972858973912,31.2465668471727,8.08281250484288,11.5312500596046,9.51933213031121,18.0966886080901,18.1914290927705,20.5856052201892,22.1124512970464,22.8580000468663,21.9105529499493,8.88590596036503,10.345445976376,9.896418392683,14.6940439801602,15.2496249982652,17.7688184726376,19.5031272394627,19.9903569790644,18.562087597318,0.935200902566846,1,0.995619772597503,1,1,1,1,1,35.30009892,-77.57131746,2020,"NCH1",22
"B37/H95","OHH1_2020",22.55,704.09032295424,0,0.5,229,110,59.5,57,4.17531252652407,1.24000000953674,2.00345390284468,2.60983029866827,3.23846153112558,4.45886834167934,3.00036561176739,1.62123751863745,2.44580479004937,133.61000084877,6.20000004768372,24.4130769326137,78.6046159542524,5.61230769524207,46.1353850364685,105.099228918552,18.4038462547156,73.9823074799318,19.0699402838945,20.3434976577759,22.2606296382627,20.3012567157111,18.9498025820805,17.7236463467836,17.4778105651895,14.6981523061276,13.3187672602627,20.7559375166893,29.3100002288818,26.9862925042267,30.2695111898902,31.9223073812631,29.6345828447586,27.3548547015208,24.4549626237029,20.9133971554963,9.30187501414912,17.6140003204346,14.1865254708109,18.2208269882724,19.4742308396559,18.7425546755046,15.6630529320659,13.0705697417276,8.16455502736238,9.09812715428091,15.5392395086553,13.053962338305,16.293566554699,17.6982691104595,16.2136008397491,13.8472545696004,11.755231160095,8.71363226327798,0.810993301958661,1,1,1,1,0.998602591314452,0.941606618318591,0.857376018975295,39.85643475,-83.67288725,2020,"OHH1",17
"B37/H95","ILH1_2019",16.5,808.99591951872,0,0,257.5,128,63.5,62.5,3.92290326087706,5.48166660467784,1.00366755026978,4.24469195298614,0.864761891819182,1.28937734611451,1.22741108088123,2.86464707421608,2.11607064787419,121.610001087189,32.889999628067,10.0178568235465,147.038572290114,1.34571427958352,11.7742857251848,45.424286284617,20.7057140384402,64.4999996210848,18.8014538057389,19.6532208124797,22.6739207193184,19.8427488119022,20.6112506503151,20.0231267023568,19.2803285422626,15.593443452501,14.9705618824278,19.7877418764176,27.4949998855591,27.6677106167,28.391751748966,31.9042863845825,30.8675330402875,28.5386960574539,27.7513351862122,26.642996194359,8.82258073745235,16.1166664759318,15.7380163212624,17.4414067467824,20.6435711043222,19.8174946769835,16.7183759585253,16.7475935139624,14.3837349186112,8.3928973982344,14.0110710173232,13.9335870022067,15.0880410930982,18.2842317301039,17.4039330210807,14.7898098558346,14.4511626176183,13.1086534994412,0.871382484238269,1,1,1,1,1,1,0.979387754708731,40.0587105,-88.2298385,2019,"ILH1",18
"CG119/CG108","MOH1_1_2020",14.1,731.12121286656,1.33333333333333,0.666666666666667,191.333333333333,86.3333333333333,53.3333333333333,52,2.76562495436519,8.11999974250793,10.4965665432202,1.90988591541756,5.80285712650844,7.41529583070873,3.69147555579874,2.29330189178664,3.40093086493501,88.4999985396862,40.5999987125397,96.79785660335,57.0957142966134,7.73714283534459,67.398571559361,118.8485709639,17.5292856608118,104.715713961848,18.7546628713608,21.2521137237549,22.4992353525235,20.3165893948899,20.846220720382,17.6863092529825,18.1247609809281,17.4629379813572,14.6415832693126,22.1865625679493,30.7699993133545,28.8654612498961,30.7246999845884,30.6222615696135,31.262532432358,28.6735263227042,29.5448009486396,24.3522503449254,12.2309375330806,19.2180004119873,17.3563651522358,20.0318803133021,19.4051194418044,21.453094976461,18.106764951949,17.5897200308714,12.913667504011,10.4179893534471,16.9939998626709,15.2134650030725,17.3995363981545,17.013690505709,18.3658920907666,15.5120526403147,15.801643365393,11.5681836400825,0.936383935755917,1,1,1,1,1,0.995985622640443,0.962870503946671,38.8978375,-92.2070925,2020,"MOH1",10
"F42/H95","COH1_2017",17.7,731.12121286656,0,2,229,110,65,64,3.39312494290061,0,0.00170868351345971,0.360843908083864,0.891428553868854,3.56038209699924,1.42287894970366,1.56567067457265,1.77087045139264,108.57999817282,0,0.029047619728815,12.2947617719571,1.60047616277422,43.7852383255959,56.4828571748166,21.0252381148083,53.2028570139692,22.2680299282074,25.656948362078,25.993106298919,24.2875628049184,21.2698285844591,19.3765266793928,19.6563178718538,15.9259101156787,11.9913693493718,20.3862498551607,26.2785715375628,29.0099024905478,30.9575008483351,32.8439676496718,29.2459773876014,27.8707551629923,24.4981203104176,17.6400496374322,4.67625003145076,9.95571436200823,11.4416630470283,13.3349225420512,15.6419047401065,14.2894836037956,11.5599296846894,8.65086998417367,2.50572452632776,7.38781388850004,11.2215251258146,12.9782738928515,14.5313666366823,16.2303242626942,14.1158650824494,12.5801561869845,10.4056817622244,6.00700011612576,0.85979910066817,1,1,1,1,0.978368119236658,0.88222033244958,0.65364973214317,40.64850025,-104.9997825,2017,"COH1",12
"PHW52/PHN82","MIH1_2017",24.6,670.62350687232,0,2,99,45.5,66,66,2.65129033404012,1.64250004291534,0.365195355155368,3.68588979784018,0.0229824551364832,0.46297232149101,1.74576806741443,1.92419894727902,6.21584880662018,82.1900003552437,13.1400003433228,4.41789476338186,131.667893061512,0.0689473654094495,5.87157878122832,77.4078943196096,25.1578945925361,187.919470972136,20.7548004581082,19.5261926651001,24.4742989093836,19.8905510316777,21.9433432796545,22.1206047711906,17.4790874196007,14.7643136405382,9.64132186376111,18.9967743350613,22.1187500953674,26.4465225468316,27.4969315652497,27.7329823008755,27.824925694871,25.3738691139958,24.1007104170058,20.6398986734167,5.96129034796069,11.9187499284744,11.3631864125553,16.0503932975266,16.0887717866061,14.9625505184838,12.276571042592,9.93890341042346,8.93630907537408,7.30321713873745,10.0125802625948,11.8678501821976,14.0611352118072,14.116078975745,13.7509617648401,11.6765951301922,10.5934889835682,9.14877577769738,0.770126732675711,1,1,1,1,0.999072621356021,0.94927833355258,0.816440377467249,42.68116575,-84.49434125,2017,"MIH1",12
"B73/MO17","DEH1_2019",21.225,722.11091622912,0,0.5,211.5,91,59.5,57.25,4.88548383405132,0.129999995231628,2.22754366008185,2.83887974343054,7.0926190557934,13.0900794286577,2.37605914671847,7.24609516660372,5.29133873076483,151.449998855591,1.16999995708466,29.4199992418289,87.7514276163919,13.3278571537563,117.810714857919,70.1764280796051,38.8228567923818,163.760714939662,18.0942263295574,22.5275441275703,19.0983295645176,21.1054939145839,16.8799242519197,18.3868353404696,17.4379090753706,14.476434816633,15.1882209444193,17.4912903078141,20.5577778286404,23.0837453456724,28.6110288519394,30.7033335821969,31.5357142251635,31.9663629076681,30.1067382585435,28.4413756884737,7.04516128955349,9.18444446722666,14.3005087701308,18.3414932581405,20.743333589463,21.7011906154572,22.6829330156982,22.0334762732188,19.5725390395811,6.99216838650998,8.73551017725078,11.4143050106146,15.6056687045059,17.7112297913015,18.5929650565741,19.2590150034337,18.0735423865727,16.1304203541944,0.769815655759952,0.948412698885751,0.988507503793619,1,1,1,1,1,38.670675,-75.433225,2019,"DEH1",11
"PHN11_OH43_0001/PHB47","MOH1_2016",16.3,731.12121286656,3,1.5,252.5,117.5,56.5,55.5,2.46548387696666,8.05800023078918,0.26425937654912,6.28252126803095,1.94553034955805,9.25680558966717,4.35890712054063,3.35466445060003,5.45313052702641,76.4300001859665,40.2900011539459,2.87999999523163,172.837275786833,4.26272736896168,83.2036366733638,125.209091579372,21.1336360627955,168.224091789262,20.2309362965245,16.9350936889648,22.4982955657569,20.2095998884574,18.6817798614502,19.2140896434736,18.009092196306,17.1771441321352,15.8753494680802,21.8319354826404,27.5660003662109,27.8864476525043,31.2121523499736,30.2579544240778,31.2505744972614,30.5742306529435,29.8007791217787,28.2533923636667,10.0738709972751,16.7440000534058,16.2647446268316,19.8621598402259,19.9837122252493,20.4911741319329,20.7615379101816,19.9143179443491,17.5631836798883,9.49779854702591,14.2434334868972,14.2129642512569,17.4733694599123,17.1223259823391,17.869915103463,17.6510486247485,16.9099855149229,15.0956111701838,0.937315665082448,1,1,1,1,1,1,0.999442640656517,38.8955475,-92.2072025,2016,"MOH1",7
"B37/OH43","MOH1_2019",18.1333333333333,731.12121286656,0.166666666666667,0.333333333333333,206.5,96.3333333333333,63.3333333333333,62.6666666666667,4.90741942774865,9.6042856488909,1.1968724982766,5.11041013178547,2.80166657765706,0.134444442060259,2.37970824656129,7.11342869425813,4.89530104317011,152.130002260208,67.2299995422363,11.8062502294779,164.838749021292,8.40499973297119,1.20999997854233,75.0687506459653,40.4812505505979,151.40749900043,17.0658433668075,18.9367299761091,19.672939013893,19.7601385983828,19.1591383218765,21.9354776011573,19.8853633999455,16.02367872908,15.2536705892253,21.0212902868948,24.3900002070836,28.1749684950318,28.3432416480006,30.6675000985463,31.1026387214661,30.5051384887057,30.1296425728571,28.7243360575809,9.9606451219128,13.4285712923322,17.3952990800443,18.0562052324172,21.3616663217545,20.47986096806,19.3222372109203,20.2391192617871,18.2678090690285,9.14854411028884,11.6848407365863,14.864179743422,15.3206934370902,18.0145832101504,17.7875907402394,16.9097054113916,17.1797368716761,15.574827071042,0.941624426072644,1,1,1,1,1,1,1,38.8956125,-92.20883,2019,"MOH1",15
"W10005_0107/PHB47","ILH1_2016",15.2,838.60117989888,0,2,263.5,99,71,69.5,2.97690523692196,4.38840902691538,2.26653606655233,5.61207630954248,2.38484847184383,3.5965513070917,3.31235071929027,4.35749997459836,4.79379031928375,93.7199998497963,46.3549993336201,33.4606812819839,180.417726646093,4.62886360558597,41.7338635867292,104.141365719112,28.3243180147626,148.202045347203,18.8248824135911,16.772414523905,21.3206123477011,20.186536070862,20.742345383673,18.0798104173881,18.8666988996862,17.8581825314146,16.0768072129811,18.0508114395122,19.2020452456041,23.0422996986406,29.4229266243166,27.9030872836257,26.9731781198959,29.6021857332558,29.1593882944677,28.1759287739546,4.96004029539143,8.5312726020813,10.4507586023432,17.100495052534,15.9971779440389,16.8488147764823,19.4105485847029,18.8438310752183,17.0974068698762,6.7812351246955,7.96926780707668,10.1711916616246,15.4161417086623,14.2957979847463,14.1538489170388,16.5199597663553,16.0495125310087,14.8445893652738,0.666766271376172,0.897956158588459,0.946860721270467,1,1,1,1,0.999883116813965,40.0607245,-88.2338815,2016,"ILH1",9
"F42/MO17","ARH1_2016",15.85,796.12406717952,0,1.5,200,132.5,72.5,68.5,12.6265622600913,6.05222214592828,7.85959392181908,4.41103236837171,3.76999992132187,0.095833331948579,1.83491350889616,2.95036352764476,2.93171556272115,404.049992322922,54.4699993133545,101.143181920052,160.496816039085,7.53999984264374,0.824999988079071,46.8663639642976,14.7518176382238,90.8831824443557,16.4075767695904,14.4028924306234,17.4133262481418,19.3139989097208,17.4816541382761,22.1591818079804,19.7781726024698,18.2520895112645,17.225964043497,20.37124979496,20.0866667429606,25.2525350665633,26.3044541539922,29.5068177887888,32.2701959152414,33.2207471683232,33.1760686831041,32.7599998597176,8.5396875902079,10.0499999258253,14.8465505392494,15.675688928556,20.1031818389893,20.9033523737782,23.0132003928172,23.4658411589536,23.3566423203589,8.37657913218764,8.62389009177744,12.4075180997134,13.3856810078906,16.804999813889,18.5700508727667,20.093843133889,20.2460302688536,19.8980815100491,0.93219865730498,0.999841266208225,1,1,1,1,1,1,34.72952,-90.7603555,2016,"ARH1",13
"TX951/LH195","MNH1_2015",25.6,732.40839810048,1,1.5,256,151,72,70.5,2.67645166525918,6.10285712991442,1.58721610445111,4.7077263256623,2.09382353109472,4.68577535931227,5.9350156688025,2.22326150676053,2.19878814463244,82.9700016230345,42.7199999094009,19.590000131551,155.007059007883,3.96529412269592,52.2323524741565,227.094708481256,20.9011769756017,67.401177584358,19.816934616335,15.8754692077637,21.6281845751118,20.6523619261065,17.2143456515144,21.1212332316686,17.7408483022691,14.5374503953005,12.0629753461599,17.4338709308255,22.6300002506801,27.2892179925706,28.4642367103754,28.3652941759895,28.0789971632116,26.1408952283773,24.7325950747879,17.9009570518097,4.56741930688581,13.7342856270926,14.30007362468,16.8971689663296,18.654117640327,16.1974599531415,14.7564351113732,13.5728072906729,6.63464769243789,6.28381609962703,10.8743797711898,13.2690560805916,14.8702380832727,15.6411451436446,14.3539204313244,12.9900637188381,12.4683668720892,7.55733067966644,0.72298386648366,1,1,1,1,0.97770300313998,0.878626049359361,0.7212296457923,44.07038575,-93.53519625,2015,"MNH1",10
"TX779/LH195","SCH1_2018",18.575,731.12121286656,0,2,165,97,65.5,64.5,5.50937507301569,3.37250000238419,5.77532792752829,7.72812766098977,4.71095229046685,3.13060314183971,3.12348515829066,2.01328565960839,5.79306446956599,176.300002336502,26.9800000190735,97.6099995204381,245.673573059695,5.41571421282632,31.8442854029792,83.9342848232814,10.5378568683352,179.584998556546,18.6477236524224,19.2869287729263,21.173054595667,18.1631813069703,18.8474233264015,19.2548603041347,19.9945130026415,19.3178334372384,16.3013944175386,22.5390624701977,22.5337498188019,23.0902047939223,27.6187004518251,28.0654765991938,28.9085680901058,32.584791315526,33.4833329836528,31.116866401813,9.30156246945262,9.31125009059906,8.76240008069966,17.5066534747267,16.7615474973406,18.3829589417142,21.2079791456952,21.6712853658767,20.8076727291406,9.59119125294698,9.40007484305004,9.57450522783795,14.7679377529716,14.5196225818089,15.7238139666896,18.8616965293534,19.451053178185,17.9628857433375,0.951841517750706,1,0.982626498534951,0.991514694994028,1,1,1,1,34.6223015,-82.7364835,2018,"SCH1",6
"B14A/H95","MOH2_2015",13.95,731.12121286656,0,10,217.5,97.5,75.5,74.5,3.91483872167526,3.53454542160034,2.89167602876837,5.44662396781396,2.50588237538057,1.11372550016914,5.06858646461217,0.980448185896673,4.0111195383597,121.360000371933,38.8799996376038,35.2317639782148,173.692939155242,5.01176475076114,10.0235295015223,148.922352524365,6.48705886392032,124.344705689151,19.0870114757169,18.1253494782881,17.1671785847115,21.5962912871016,16.8894541123334,20.3451615751179,18.3289543491586,19.9060889353605,16.9549438623142,18.7561290033402,18.2472727515481,23.8732290384998,29.0283650683656,30.5917647866642,31.9324831869088,30.2728559915889,28.7322074708484,28.3406261827733,6.1525806919221,8.05909102613276,15.301299728071,17.8011435243455,21.9470590703628,21.3926142773597,20.1702312736422,17.4051933128293,17.2094118925381,7.28819699270824,7.58478922996184,12.0589106387454,15.5177509064803,18.2694119285135,18.6625487321343,17.2518738973888,15.2135918237946,14.9707890115806,0.755541469850298,0.814935085835395,1,1,1,1,1,1,38.89807917,-92.2079,2015,"MOH2",15
"PHB47/PHZ51","MOH1_2015",13.9333333333333,731.12121286656,0,6,211.666666666667,85,74.3333333333333,74,3.91483872167526,3.00272724845193,2.70388340007172,5.64622626815722,2.26875001192093,1.18333334392971,4.73674408601423,1.74040179593222,3.6664919433214,121.360000371933,33.0299997329712,34.4199993312359,178.871247828007,5.86875003576279,10.6500000953674,140.261874556541,11.8831250667572,113.661250242963,18.8184669402338,18.8870315551758,16.929197347905,21.705914807588,15.7215426564217,19.9453006850349,18.4742217908113,20.1287302806264,17.0265389219407,18.2845160884242,18.0018183101307,23.7780545636798,28.9302828526302,29.8559374809265,31.7611801889208,30.4214076278912,28.5805001264527,28.4314314703788,5.85709682707825,7.50000006502325,15.2148777665246,17.6487962035776,21.6728123426437,21.4597915940815,20.2818253816477,17.0989999456065,17.2866936922073,7.06854431480445,7.30219313947649,11.971425794578,15.3979636076336,17.7643749117851,18.6104858915011,17.38069400277,14.991826945877,15.0531743909791,0.723283405334169,0.814935085835395,1,1,1,1,1,1,38.8965375,-92.20800417,2015,"MOH1",3
"B14A/MO17","DEH1_2017",19.1,634.58232032256,0.5,23,248,136.5,65,65.5,2.91718745790422,6.20142868586949,3.00780289028715,3.51798387630548,1.21142852117145,1.63275129076034,5.21425936785246,11.3193468755605,4.88273070798553,93.349998652935,43.4100008010864,45.3457148869832,126.779048942384,1.26857137680054,15.4833330313365,157.85333279201,69.2480949220203,151.3147630578,17.0564796179533,17.7322864532471,20.7109648054357,19.5738604252989,19.1555669421241,20.8859280858721,18.2123717552112,18.1575605574108,16.5860739368814,20.2662499845028,24.6614287240165,21.7224504345482,26.8229896455589,30.3507143656413,30.3114816221611,30.695552993145,28.4309092143225,27.2970235560896,9.32593758031726,14.1957142693656,10.687522006195,16.7585521273381,19.9063490004767,19.8815078785811,21.2169032219805,18.721444546014,17.9144449122429,8.6904799528833,12.0840231421066,9.78793426930988,14.1243186804428,17.1548256791078,17.1405073545012,17.9479055635566,15.6354630937149,14.7461382337137,0.907287955683257,1,0.959736116003801,1,1,1,1,1,38.67025825,-75.4333645,2017,"DEH1",10
"PHN11_PHG47_0251/PHB47","GAH1_2016",13.85,697.65439678464,4.5,2,195,80,57.5,57.5,6.46625005081296,4.39500004053116,0.56642149156447,2.54962756812163,3.17469698010069,5.85994313642232,4.09696701425995,2.3309999964454,2.47626100694679,206.920001626015,35.1600003242493,6.21000005982139,86.0200002979148,9.52409094030207,52.4272723306309,105.673179734837,11.654999982227,76.7640912153504,15.956961274147,18.253856420517,20.331000534978,20.7402420911881,20.0106486840682,19.5430273528051,19.3819876920889,19.2695335214788,18.2145192224609,23.6268749833107,22.9824998378754,28.5613493699125,29.4983659035312,33.3707563804858,32.6271904538376,33.2502690735618,34.5149995457042,33.9492812618133,11.2974999733269,10.4700000882149,15.6474472778231,16.2846205025457,20.7828786156394,20.6126955145537,21.5692710707406,22.5180909243497,22.4046772791843,10.5397142233966,9.96244043830302,14.3648116302111,15.1131347489154,19.0295292381209,18.5685926456766,19.2666819522424,20.3439096349474,19.9941584099477,0.993928568703788,1,1,1,1,1,1,1,31.5079175,-83.55854775,2016,"GAH1",6
"PHB47/PHZ51","ARH2_2016",15.35,731.12121286656,0,2,234.5,115,63,62.5,5.78093742206693,12.265000184377,3.71212020820834,7.02228860006285,1.10500001907349,0.295568184419112,1.93128791351543,1.45469692692612,6.28083569178483,184.989997506142,73.5900011062622,50.6740907539021,233.205909837376,2.21000003814697,2.36454547535289,51.2972726388411,7.65681795640425,194.70590644533,17.7645711898804,17.2271962165833,20.1405853736324,19.8064448117891,18.8826211727027,19.79738723148,18.6944065441324,19.8885487758752,15.607143551723,21.0278125703335,25.6983334223429,24.8822470662624,27.5574788870291,33.1628784988866,33.3801704536785,32.4072806330723,33.7124844464389,31.3768475300406,8.51718754693866,14.1383333206177,13.2669300286413,16.7583488235741,22.7915153503418,23.2152275497263,22.5635331248055,22.9502423373136,22.3752492012516,8.62630812400512,12.3761800663264,11.7581879605187,14.4664485465038,19.8918990278765,20.2426308826887,19.4302420192383,20.2373530270853,18.8112695233672,0.958649555088154,1,1,1,1,1,1,1,35.838614,-90.66530155,2016,"ARH2",4
"LH195/LH82","NEH3_2015",18.05,726.61606454784,0,4.5,229,110,63.5,61,3.23125005699694,0.918000030517578,0.565093977294324,1.28669219481814,3.19749999046326,1.39113635366613,0.258061220527439,1.47466718299048,0.155891338361218,103.400001823902,4.59000015258789,6.15000009536743,39.0474997758865,4.72000002861023,15.3024998903275,11.1799998283386,14.5287498533726,4.64812502264977,21.7912757396698,25.6944263458252,22.867254847038,21.8227166540337,15.2631763219833,20.5907900008288,20.0641284227863,16.2796896759308,13.5386177646183,24.2875001728535,32.6459999084473,30.5877144724061,32.6773132882273,28.9159377217293,29.872386563908,30.8070712705365,25.3903164518473,21.3201827481664,9.27874993439764,13.0079998016357,13.882863304929,15.7826582019676,17.055312037468,14.6271022883329,13.1831330674245,8.87540479026961,3.33401708582752,10.4625782483436,15.2833069114413,14.4546585187703,16.2200567809637,15.0938879027355,14.4964540010227,14.5302013640258,10.9003956474841,7.85174739566555,0.909587052451181,1,1,1,1,0.965712824155829,0.862507779461642,0.809539309558486,41.15824525,-101.9872958,2015,"NEH3",3
"PHN11_PHG47_0251/PHB47","DEH1_2015",17.35,705.37750818816,0,0,237.5,116,61,60,2.877187483944,6.84800000190735,1.65812227065002,2.89981113868033,0.533124998211861,6.39805544084973,4.54206526084818,4.66633341695581,5.69481861783612,92.069999486208,68.4800000190735,26.8631244525313,94.403749205172,0.778750002384186,57.5824989676476,115.858124211431,26.7362504601479,176.53937715292,18.0978914797306,17.2013893604279,20.1115188355204,21.0089776981854,21.5349248051643,19.2473051614232,17.7019111319721,15.0562807784194,15.1484673523134,16.8265626430511,19.2440000534058,20.7237695406926,27.6889034218542,31.5665628314018,31.8635417355431,32.09465687106,30.4336400264785,29.0939515059994,6.26593750482425,9.85899999141693,10.7453803031313,17.6787637613727,20.387500166893,21.3565970261892,22.772206074744,22.282508844421,20.5664716151453,6.52196032901766,8.41291476735724,9.22995774812798,14.8599372331721,17.9770314991474,18.5817073937474,19.3617069706047,18.3580744354498,16.8673674529789,0.750435272946821,0.870857151065554,0.962682183853112,1,1,1,1,1,38.62935675,-75.4656925,2015,"DEH1",7
"B14A/MO17","NYH1_2019",26.85,639.73106125824,0,0.5,273.83333335,154.5,69.5,67.5,3.74249998852611,3.13750004023314,5.75382418421519,3.19318469405372,5.05499997505775,4.67964498742798,3.14173431505368,2.11561926224602,4.09564599909039,119.759999632835,25.1000003218651,83.0561534670683,110.787691554198,10.5969229478102,60.8353848365637,169.678460007677,49.6684614184957,126.198460106666,19.3120462298393,22.906525015831,19.4055643197987,20.0954846191366,19.5441625057123,18.4327194563736,14.7868750412398,11.8266811133142,8.21836269058601,18.6993749439716,22.8587503433228,22.9010546045212,27.5168322059324,28.2501282325158,26.2428401066707,22.0298851708133,19.800822747137,11.0057352093984,7.84562503546476,10.0637499690056,12.2881303876188,16.102631765372,16.0733334345695,14.3993490828565,10.6740678622988,8.35750533580157,1.63569085205791,7.63952840037155,9.77521380841136,10.4905594472129,14.0585405915596,14.3930059612616,12.7382854892206,9.76289549498727,8.6764710214225,3.98046667720391,0.838560268548982,0.991875007748604,1,1,1,0.934962265626692,0.800347461722585,0.399612351739001,42.7288875,-76.65152084,2019,"NYH1",11
"F42/H95","WIH2_2020",24.6375,692.50565584896,8.25,0.75,258.875,130.375,70.125,67.875,1.1422580634394,7.375000166893,3.77260581252768,4.52814362453003,15.9141182057998,3.015240613152,2.84839565074973,6.55966530763758,3.07398353471626,35.4099999666214,73.7500016689301,42.9699998795986,163.85058797107,31.017648192013,33.167646744672,117.769998585477,59.8417637593606,94.4582346818026,20.7395305633545,16.0435289859772,21.2335467472143,21.5809324497532,19.013702953563,17.8857325232603,19.3201351466252,13.5754002692457,12.272545038289,13.5699999486246,18.9109997749329,26.0938682995642,28.2322474952916,29.4664707183838,27.7542245528277,27.0932210297011,24.8050967536966,19.0018905391654,0.762580661163215,9.39699988365173,13.9989215824361,14.995891181738,17.745293897741,17.4980746284526,14.228931024336,13.2921105861382,7.45939913371709,4.17689721425512,8.10798713911043,12.6867740438147,14.0244437879696,15.6641148886257,14.7079063257275,13.2058895334275,12.2696061473378,7.83396025684224,0.443168195200578,0.881928566523961,1,1,1,0.990384734248417,0.880973436890861,0.780679990755404,43.294786,-89.383968,2020,"WIH2",13
"PHB47/PHN82","MIH1_2016",19.55,698.2979894016,0,2,204.5,105.5,62.5,61.5,3.21387092721078,0.372000002861023,1.27766823751149,2.07214459371672,0.20476189870683,2.3826363414913,6.27786691564838,3.12959525082612,4.11573424348527,99.6299987435341,1.86000001430511,16.7785713445573,74.4033328010922,0.614285696120489,24.3414283479963,217.368091578285,23.8857143783853,123.581428226261,20.0448123255084,22.6962894439697,22.5746065354076,21.1906692752228,19.6251171808394,19.4147049585978,17.4353601100157,14.1652357247952,12.412394394877,17.7432258052211,29.2099998474121,25.5794776543011,28.1508514012466,27.2354765089731,30.3278356370472,28.2729452857857,26.6388532040611,22.5021940360482,5.29967743350613,16.3360000610352,11.9036117370239,14.7044761053872,15.7457937664456,17.5267100049304,16.2551167156484,15.5865084050104,10.8682508092492,6.61582777611151,14.8990897437943,11.6236597478117,13.829435271034,13.7090853107975,16.0158399076304,14.4864957883775,13.4826500001342,10.0912945511251,0.734400921702934,1,1,1,1,0.999987732756559,0.993265589821636,0.936590208093553,42.41206675,-84.2952625,2016,"MIH1",9
"LH195/LH82","NEH4_2017",14.5,794.19328932864,5.5,2.5,124.5,44.5,65,64,4.59032254834329,9.02400010824204,0.479867887087711,3.81196387431756,0.538484847906864,1.68492423765587,2.26785004737447,4.65714278971994,3.86350145999521,142.299998998642,90.2400010824204,5.1100001335144,117.465453971516,1.61545454372059,15.1345454129306,79.631816983223,32.5999995280396,117.425454340198,19.4391373357465,17.2153170108795,24.1724838998111,20.9591997537085,19.5087172190348,19.2150816303311,18.9073912886805,17.6974393903435,15.3998570417962,20.6222579863764,19.5259998321533,28.5942012750084,30.0674228663154,31.2254544460412,32.427121184089,28.6164972680056,28.4793340540552,26.8324867737025,7.51935482409693,9.5090000629425,13.5708453749115,16.7542414705589,19.4418183529016,20.4097727645527,17.1637547198432,15.7475164269472,13.7100762172769,8.50655754019973,8.45038905221992,13.6268597566258,15.5881735310777,17.3431474848323,18.3684917818816,14.9784288099449,14.344579744287,12.8768287854953,0.797626728973081,0.881249991485051,1,1,1,1,1,0.994264068992333,41.162,-96.409,2017,"NEH4",4
"B37/OH43","IAH1_2017",17.7,731.12121286656,0,2,229,110,65,64,3.40562492981553,4.9653845842068,4.75627611908435,1.83360658706262,3.81409099607757,2.22148488699788,3.67080832802223,1.81325483980117,2.34747311753145,108.979997754097,64.5499995946884,71.2827261577953,63.7872725833546,4.17772737416354,22.8386367667805,118.906818606637,13.7622724988244,72.0368181575428,16.1986516714096,17.4117801372822,18.8419865113308,22.0772261853777,19.5709462599321,20.6423577019663,19.6533487855188,19.1238258402757,16.8780910515948,17.1134373545647,15.3784616176899,22.9595167923024,28.098072667094,26.507423805468,30.2796059126806,29.7994892260695,26.9283494144291,26.376740509697,5.4131250269711,4.92307697809659,11.465490162608,14.1696252786347,11.6175757754933,16.6577523703527,16.6650409071547,13.3875722172112,12.4151066155028,6.53077833948335,5.76856381165309,10.4537021498713,13.7196511279626,11.9478337828281,15.6426259768559,15.399646170179,12.7123989246095,12.1737806011652,0.629988832066634,0.555054952155103,0.946458761983939,1,1,1,1,0.998130952344312,41.19924609,-91.49402296,2017,"IAH1",16
"B14A/H95","NEH1_2015",15,784.53940007424,0,2,230,105,65,58.5,2.95906250551343,0.753999996185303,4.74563283345314,2.18704069073799,0.179999995976687,3.60144891745383,1.54800079262728,0.0578125016763806,1.58921436409676,94.6900001764298,3.76999998092651,46.8499994277954,63.5081251226366,0.239999994635582,39.1218755729496,55.4949998706579,0.586250016465783,47.8581244703382,19.0719456225634,25.8469993591309,20.0059366173214,19.9624584223382,20.9646370410919,17.862962844426,18.3117533318471,17.3040564497312,12.3794141031722,23.749062538147,30.5139999389648,29.1300998729287,30.7414867126068,30.7375001907349,28.4385862173456,29.1303174585083,26.8837498406569,20.1234253179002,13.1921873912215,15.4699998855591,18.0403649873505,19.1809282210085,19.1128125190735,17.3324828895656,15.9213148381598,11.1533021022876,6.52520026862121,11.6448137461047,15.2595573319928,15.683366010067,16.9689110631387,16.9384551391655,15.0734546124166,14.9518339258185,12.0107008879437,8.15887847021127,0.924598212486931,1,1,1,1,0.969696650265103,0.982957587710449,0.758540942647513,41.290979,-96.41664325,2015,"NEH1",16
"B14A/OH43","TXH3_2019",9.83,775.432564544256,0,0,195.5,68.5,69,69,1.71448274965173,0.072857141494751,3.656594302147,9.09543456371003,0.409285715648106,1.20767857134342,5.35585078307965,1.24614285230637,1.57441934339828,49.7199997399002,0.509999990463257,52.0078563094139,328.212138780526,0.592857139451163,9.66142857074738,146.447857277734,6.531428532941,47.5149996536119,15.4280570457722,20.5213113512312,18.768988344457,18.5703255916766,21.4234965869359,18.852815253394,20.148813605732,21.0307275136312,19.8408923398148,18.4500000723477,25.7642857687814,24.4325494379212,27.2758673216928,31.0900000163487,32.3786609854017,32.7243520483546,34.0447144826253,34.9820077594341,6.8262069143098,10.3500000408718,10.6796315414328,14.7876673923985,18.6585717882429,21.8507142748152,21.0244273483534,21.7961428233555,22.6049738996772,7.4578164675981,11.1589152046898,10.8511947929525,13.4663040330347,16.9119367665064,19.1141210544432,18.8476531392514,19.7780710195599,20.0141955883191,0.749667494461454,1,0.945308164445992,1,1,1,1,0.999698925164804,30.546318,-96.4329965,2019,"TXH3",12
"B97/PHB47","TXH1_2015",10.25,754.29054707712,0,2,204.5,68.5,64,63.5,2.43533335079749,0.886666695276896,4.52938673555072,2.99221044445753,0,5.40749995274977,3.23624041097661,4.52841665893793,2.20566666349769,73.0600005239248,5.32000017166138,54.1699997186661,113.789999812841,0,59.4824994802475,89.1124981939793,24.5449999645352,66.1699999049306,13.3812851905823,15.8030840555827,13.7374967764585,19.4828948425706,22.4659889936447,19.9646397883242,19.5484858334502,19.5703149755796,18.0313507497311,19.6199999491374,26.2683331171672,25.848902795857,26.4780255046089,30.3717709779739,28.7953975634141,31.9014051962311,33.4807082811991,34.3551666140556,6.12233337461948,12.7449999650319,15.3915533218787,13.6943906096253,15.8338542282581,15.9580683003772,20.411723735246,21.4527084350586,23.9322083592415,7.516768443821,12.2822135372146,13.060308889571,12.755099602335,15.355928811491,14.6742697351608,18.1104056886089,19.3060311124189,20.3777584063178,0.822428569446007,1,0.992325396748542,0.994092814847258,1,1,1,0.999431249499321,30.54708625,-96.43393475,2015,"TXH1",9
"B73/PHM49","MNH1_2015",17.75,734.98276856832,3,5.5,245,138.5,76,73.5,2.67645166525918,6.10285712991442,1.58721610445111,4.7077263256623,2.09382353109472,4.68577535931227,5.9350156688025,2.22326150676053,2.19878814463244,82.9700016230345,42.7199999094009,19.590000131551,155.007059007883,3.96529412269592,52.2323524741565,227.094708481256,20.9011769756017,67.401177584358,19.816934616335,15.8754692077637,21.6281845751118,20.6523619261065,17.2143456515144,21.1212332316686,17.7408483022691,14.5374503953005,12.0629753461599,17.4338709308255,22.6300002506801,27.2892179925706,28.4642367103754,28.3652941759895,28.0789971632116,26.1408952283773,24.7325950747879,17.9009570518097,4.56741930688581,13.7342856270926,14.30007362468,16.8971689663296,18.654117640327,16.1974599531415,14.7564351113732,13.5728072906729,6.63464769243789,6.28381609962703,10.8743797711898,13.2690560805916,14.8702380832727,15.6411451436446,14.3539204313244,12.9900637188381,12.4683668720892,7.55733067966644,0.72298386648366,1,1,1,1,0.97770300313998,0.878626049359361,0.7212296457923,44.07038575,-93.53519625,2015,"MNH1",12
"PHG39/TX205","KSH1_2015",16.25,771.02395511808,0,2,229,110,85,82,0.688124985434115,3.51874988526106,2.53723953629,4.63432691532959,6.34078425052119,4.01351628490523,5.7530108742313,3.9555966203954,1.81791271000705,22.0199995338917,28.1499990820885,47.4017647645053,147.170588188312,9.16588230694042,38.1823524166556,161.646473025574,23.7470587141374,56.3552940102185,19.4891082793474,20.3406240940094,19.219587906801,21.3066410822441,18.0035172630759,18.8081848331526,18.6006693160364,17.8671807769968,18.7825362153026,17.6940625309944,22.9675002098083,19.8522148456821,29.3189279151369,29.1170587726668,31.416705766067,31.167606554856,30.5050588602445,29.9620492345242,3.2971874922514,8.93874996900558,8.79256136460572,16.998742995872,18.0970592872769,19.8498956119313,20.1377743985527,20.0328234533636,17.0683681091728,6.18473854158211,9.47623015774604,8.38152018909972,15.3881661623318,15.6169766258551,17.6554751493738,17.6555626478954,17.3245865439199,15.7567018294421,0.677812499559617,1,0.850138809291572,1,1,1,1,0.983045539709894,39.21641775,-96.60482225,2015,"KSH1",6
"B37/OH43","TXH2_2019",11.2,782.261082210201,0,0,190.5,61,68.5,67.5,1.71448274965173,0.072857141494751,3.656594302147,9.09543456371003,0.409285715648106,1.20767857134342,5.35585078307965,1.24614285230637,1.57441934339828,49.7199997399002,0.509999990463257,52.0078563094139,328.212138780526,0.592857139451163,9.66142857074738,146.447857277734,6.531428532941,47.5149996536119,15.4280570457722,20.5213113512312,18.768988344457,18.5703255916766,21.4234965869359,18.852815253394,20.148813605732,21.0307275136312,19.8408923398148,18.4500000723477,25.7642857687814,24.4325494379212,27.2758673216928,31.0900000163487,32.3786609854017,32.7243520483546,34.0447144826253,34.9820077594341,6.8262069143098,10.3500000408718,10.6796315414328,14.7876673923985,18.6585717882429,21.8507142748152,21.0244273483534,21.7961428233555,22.6049738996772,7.4578164675981,11.1589152046898,10.8511947929525,13.4663040330347,16.9119367665064,19.1141210544432,18.8476531392514,19.7780710195599,20.0141955883191,0.749667494461454,1,0.945308164445992,1,1,1,1,0.999698925164804,30.546318,-96.4329965,2019,"TXH2",17
"B73/PHN82","INH1_2020",23.1225,725.039262636288,0.125,2,213.6125,103.4625,67.875,65.25,2.63064515013849,6.09222216076321,2.38090554163418,2.63802878915032,0.629411795560051,2.97723527796128,3.34980336859539,1.09505251642703,1.57514418927949,81.5499996542931,54.8299994468689,26.3500001711004,86.9017637687571,0.755294154672062,29.7723527796128,114.917647417854,7.60117643019732,48.4147051677984,19.1204067507098,14.4686205122206,21.683403471156,21.7538997697412,20.2483905343448,19.6695943495807,18.7818895809529,18.0082829882238,15.450766363346,15.2067741424807,20.6899998982747,27.1104927022189,29.4265010732643,32.0752935970531,30.3638822218951,28.1583408143781,28.6678223609317,25.4133379392123,2.93419356355744,11.5155556201935,15.1781191785852,16.469441937157,19.3758825414321,18.2375294629265,16.6673405457507,16.5683672047159,12.5233751913666,5.19370579464667,9.33766425162009,13.5421990121603,15.1602616547628,17.7314612721144,16.3694037021206,14.6116717912345,14.8394952945466,11.9009549885014,0.576025337581673,0.994801586582547,1,1,1,1,1,0.975702380729156,40.4787965,-86.9895995,2020,"INH1",21
"WF9/H95","ILH1_2016",16.05,721.46732361216,0,2,246.5,104.5,73,71,2.97690523692196,4.38840902691538,2.26653606655233,5.61207630954248,2.38484847184383,3.5965513070917,3.31235071929027,4.35749997459836,4.79379031928375,93.7199998497963,46.3549993336201,33.4606812819839,180.417726646093,4.62886360558597,41.7338635867292,104.141365719112,28.3243180147626,148.202045347203,18.8248824135911,16.772414523905,21.3206123477011,20.186536070862,20.742345383673,18.0798104173881,18.8666988996862,17.8581825314146,16.0768072129811,18.0508114395122,19.2020452456041,23.0422996986406,29.4229266243166,27.9030872836257,26.9731781198959,29.6021857332558,29.1593882944677,28.1759287739546,4.96004029539143,8.5312726020813,10.4507586023432,17.100495052534,15.9971779440389,16.8488147764823,19.4105485847029,18.8438310752183,17.0974068698762,6.7812351246955,7.96926780707668,10.1711916616246,15.4161417086623,14.2957979847463,14.1538489170388,16.5199597663553,16.0495125310087,14.8445893652738,0.666766271376172,0.897956158588459,0.946860721270467,1,1,1,1,0.999883116813965,40.0607245,-88.2338815,2016,"ILH1",7
"B37/H95","IAH2_2017",17.7,731.12121286656,0,2,229,110,65,64,2.99193547618005,4.00374990701675,5.59415436127969,1.82415974193672,2.96590905297886,1.13861617337574,3.54439579705404,5.52586092903759,3.22496434239523,92.7499997615814,32.029999256134,86.8399996757507,64.743636071682,5.88090901483189,11.0354546579448,133.685001557524,39.366364874623,98.0227279554714,18.9181115088924,22.0308394432068,18.3906703843513,21.9130098121916,21.5970702604814,21.0005855088282,18.7624625632021,16.5013675579605,14.5633697451035,16.7025806211656,25.2537500858307,21.1644402920874,28.7879280313535,31.3429540287365,31.038908986371,27.7923067917653,26.5413899369054,25.0180860311055,3.83612903808394,9.06000000238419,9.83648406203406,14.7235259390494,17.1804546009411,18.0048533863491,15.618900018401,13.9478747019692,12.2571085666223,5.88435640664124,10.5205817772981,9.32555658634035,14.1961143177765,16.2939337097197,16.5715003347332,14.0580127584531,12.7380351430824,11.5799250069021,0.659274194561254,1,0.882113053044242,1,1,1,1,0.976890028652541,42.06582876,-94.72050129,2017,"IAH2",19
"W10004_0216/PHZ51","MNH1_2015",15.95,746.5674356736,26,9,275.5,158.5,76.5,75,2.67645166525918,6.10285712991442,1.58721610445111,4.7077263256623,2.09382353109472,4.68577535931227,5.9350156688025,2.22326150676053,2.19878814463244,82.9700016230345,42.7199999094009,19.590000131551,155.007059007883,3.96529412269592,52.2323524741565,227.094708481256,20.9011769756017,67.401177584358,19.816934616335,15.8754692077637,21.6281845751118,20.6523619261065,17.2143456515144,21.1212332316686,17.7408483022691,14.5374503953005,12.0629753461599,17.4338709308255,22.6300002506801,27.2892179925706,28.4642367103754,28.3652941759895,28.0789971632116,26.1408952283773,24.7325950747879,17.9009570518097,4.56741930688581,13.7342856270926,14.30007362468,16.8971689663296,18.654117640327,16.1974599531415,14.7564351113732,13.5728072906729,6.63464769243789,6.28381609962703,10.8743797711898,13.2690560805916,14.8702380832727,15.6411451436446,14.3539204313244,12.9900637188381,12.4683668720892,7.55733067966644,0.72298386648366,1,1,1,1,0.97770300313998,0.878626049359361,0.7212296457923,44.07038575,-93.53519625,2015,"MNH1",9
"LH195/PHZ51","ONH2_2017",19.75,810.60490106112,0,16.25,233,105.5,59.75,58.75,3.5667742529223,5.81600005626678,0.640467161488946,2.60285034576314,0.27619046824319,0.553043346265297,1.77415042468807,1.8322193505358,2.40528059047854,110.570001840591,58.1600005626678,8.99904758589608,96.0257148231779,0.55238093648638,6.91857143810817,78.7085716128349,24.0661906514849,72.9814284727687,18.8542372026751,16.7486707210541,24.2129103871374,19.3709418074881,21.1971578446646,20.8470523735834,17.6115175917995,14.25368499546,9.92782470727663,15.7532256957023,18.6889998435974,23.4026282865202,26.349749969441,26.5938094911121,26.8606501324273,24.5722531696102,22.9174861617247,20.0059681545616,5.76483872628981,10.960000038147,12.0335911848343,16.1800782706558,16.6330158142816,15.9192033646599,13.1457407086605,11.2717777505092,10.1065058561854,6.14192830243868,8.3866030604193,10.6839465453898,13.5252167119854,13.7753985037319,13.6499871813553,11.5882146496872,10.4155272324174,9.10741430426533,0.598502302774086,0.966571422985622,1,1,1,0.999084662263501,0.956230826192702,0.830002500100802,42.45293025,-81.8827315,2017,"ONH2",7
"B14A/MO17","IAH1_2019",27.25,640.3746538752,0,1.5,211,106,65,64,8.15718757361174,0.753333350022634,7.31557737378795,1.14438907355141,0.212857144219535,0.731688292769643,3.10367980083365,5.185721734979,4.91897999248289,261.030002355576,4.5200001001358,87.3064272063119,32.2664281300136,0.212857144219535,8.04857122046607,121.503570373569,46.3999997164522,147.939998852355,18.0190464556217,22.72114833196,18.5386832301204,20.8461719391544,19.2009373846508,21.9142898522414,16.4832458017069,14.2334940540468,11.0087876791229,22.3099999427795,27.5299997329712,24.5261778894118,31.4481277966288,28.6304760887509,29.4787013190133,27.1100269740106,25.007314114315,20.465771880493,10.9306250140071,14.9633332888285,14.9168448304933,20.0276676596814,18.3645236378624,16.3407141202456,15.6768667145032,13.067469943752,9.59281948388693,10.1177915198658,13.5813792925954,12.0903962382799,17.7390317751967,15.5681627046477,15.0835359367902,13.708186378737,12.1429510521349,9.38787554144245,0.87926339437919,1,1,1,1,0.994329881257634,0.928985237406225,0.79775290707702,41.1992562,-91.4941418,2019,"IAH1",12
"LH195/PHZ51","TXH1_2016",10.125,702.48134141184,0,2,220.25,79.5,72.25,72.5,1.63366669813792,16.1399999346052,0.997024219685634,4.71986560334683,0.129393938815955,3.27727272687865,13.062324570375,0.703636358001015,1.01712562139433,49.0100009441376,112.979999542236,14.5313639044762,177.354999092492,0.330909089608626,36.0499999956651,378.067267352884,3.17999996922233,30.534545768391,13.9726291974386,10.7287414414542,17.8894095128623,17.8007609349484,20.5568532076749,19.7779241435784,17.9048036307734,20.8338603973389,20.1432609317589,22.3250001589457,23.9500002179827,24.4830925562751,26.4049851333462,28.5388636011066,28.6354545482919,30.1287031897283,34.3540452523665,35.5883872279207,6.03466663161914,13.3357141358512,9.67537964446524,13.1275877936174,15.7853026679068,16.3376445415591,20.1390285305243,23.0818636243994,24.0011842107726,8.47337903343467,11.2978355051063,10.5045992024655,12.4611166479839,14.4368127893531,14.7220414816358,17.1236823819741,20.5322511435483,20.8759903806844,0.915869047670137,1,0.972225206868779,1,1,1,1,1,30.54708625,-96.43393475,2016,"TXH1",8
"F42/OH43","DEH1_2017",17.7,731.12121286656,0,2,229,110,65,64,2.91718745790422,6.20142868586949,3.00780289028715,3.51798387630548,1.21142852117145,1.63275129076034,5.21425936785246,11.3193468755605,4.88273070798553,93.349998652935,43.4100008010864,45.3457148869832,126.779048942384,1.26857137680054,15.4833330313365,157.85333279201,69.2480949220203,151.3147630578,17.0564796179533,17.7322864532471,20.7109648054357,19.5738604252989,19.1555669421241,20.8859280858721,18.2123717552112,18.1575605574108,16.5860739368814,20.2662499845028,24.6614287240165,21.7224504345482,26.8229896455589,30.3507143656413,30.3114816221611,30.695552993145,28.4309092143225,27.2970235560896,9.32593758031726,14.1957142693656,10.687522006195,16.7585521273381,19.9063490004767,19.8815078785811,21.2169032219805,18.721444546014,17.9144449122429,8.6904799528833,12.0840231421066,9.78793426930988,14.1243186804428,17.1548256791078,17.1405073545012,17.9479055635566,15.6354630937149,14.7461382337137,0.907287955683257,1,0.959736116003801,1,1,1,1,1,38.67025825,-75.4333645,2017,"DEH1",17
"B73/PHZ51","GAH1_2017",13.2,754.29054707712,0,2,200,90,59,58,1.92968747392297,5.73000001907349,0.343252103133586,3.44928658477499,2.10761896769206,4.58677246557972,5.88411512674098,3.46279361891368,5.79033786946544,61.749999165535,45.8400001525879,4.18523797534761,115.462857757296,3.16142845153809,44.2476188795907,164.396192306564,18.0028569698334,179.500473953429,16.8024901300669,20.1373232603073,20.1734204678472,19.2707622430691,21.2048014383467,16.6798162969963,18.1585808485972,19.3751740168011,17.7370458682012,23.5584374964237,24.7612497806549,28.7388454609341,29.029321913538,29.7903175656758,30.1182594269041,30.8846873649595,33.0415872604128,32.3946695928383,8.65499997884035,9.07374995946884,13.8160128648753,15.9456908272656,16.8514287131173,20.0705928338268,21.0580026966177,22.2436510176886,22.0341169412967,9.93516597929203,10.3201673994425,13.6844889022653,14.8136399848139,15.5596332003494,17.1078969773464,17.9595982908683,19.6134998817186,19.1980031961101,0.883437499936138,1,1,1,1,1,1,1,31.50794425,-83.55854475,2017,"GAH1",6
"B73/PHN82","ONH1_2017",21.7,697.01080416768,0,2,237,127.5,73.5,73,4.42290318973603,4.90499987602234,1.54517322055995,3.42043524389027,1.69537500639757,2.59470000425975,1.85553477411666,1.54565171024702,2.38311134809945,137.109998881817,49.0499987602234,23.5260000944138,140.803499376774,5.37800000905991,36.4615000605583,95.2335010707378,29.8530000910163,72.442500063777,18.6566223482932,17.085453414917,23.1081316370623,20.1258676762395,18.1123231848081,19.448199154763,16.3365299663776,11.6220921499278,7.95773399619337,13.9432257683046,18.2070002555847,22.3568953625361,24.8004575461006,25.1718332052231,25.2296929018838,22.7939628290416,22.1395736741961,13.2953202319795,3.57838706624123,9.70699996948242,10.1038785092604,14.1218529553715,14.8234999100367,13.6326119545528,10.3904861973293,9.84747559454018,3.16628943898447,4.95821241247301,8.02589456270986,9.65909793089355,11.970962334223,12.3574061250221,11.983111058727,9.95345599460199,10.065401602519,5.27337575174164,0.439723497986244,0.877642858028412,1,1,1,0.972410901067044,0.840292505181159,0.515578472813697,43.49546,-80.42596875,2017,"ONH1",22
"PHB47/PHN82","TXH3_2020",11.2,714.3878048256,0,2,219.71,86.36,65,64,3.45875000953674,5.34571429661342,0.996479651065087,4.09089315236596,11.3717651367188,0.0555555571138469,3.33441812268722,0.880352915034575,2.22611003899258,110.680000305176,37.4200000762939,12.0805880813038,124.975883862552,22.7435302734375,0.45000001262216,88.3282351318528,3.71411754103268,69.0094112087698,15.8034200966358,18.3400974273682,21.3054113252054,19.4076227493762,20.1658006742889,20.6212549708248,19.0289956494815,16.9470315596637,18.7516036187449,25.77062484622,24.0028569357736,27.6357750244424,29.9540296499709,30.1918626486086,32.3806370161717,33.3632814274538,35.0383530111874,35.6320682503919,14.19906270504,12.2442855153765,13.9206276091926,17.6015685916535,18.339215222527,21.1414216421788,21.8859169591652,25.7136472589829,24.3476091308883,12.6037243600486,11.2042502750959,13.2986533327034,15.9636428686288,16.2736183942562,18.6961842054097,19.4144726026518,21.4701964617595,20.8190107741322,0.989866069384984,1,1,1,1,0.999954159902907,0.999321566563027,0.99882700580498,30.53869475,-96.4274175,2020,"TXH3",10
"PHW52/PHM49","GAH1_2016",16.65,776.81628867072,0,2,180,80,62,59.5,6.46625005081296,4.39500004053116,0.56642149156447,2.54962756812163,3.17469698010069,5.85994313642232,4.09696701425995,2.3309999964454,2.47626100694679,206.920001626015,35.1600003242493,6.21000005982139,86.0200002979148,9.52409094030207,52.4272723306309,105.673179734837,11.654999982227,76.7640912153504,15.956961274147,18.253856420517,20.331000534978,20.7402420911881,20.0106486840682,19.5430273528051,19.3819876920889,19.2695335214788,18.2145192224609,23.6268749833107,22.9824998378754,28.5613493699125,29.4983659035312,33.3707563804858,32.6271904538376,33.2502690735618,34.5149995457042,33.9492812618133,11.2974999733269,10.4700000882149,15.6474472778231,16.2846205025457,20.7828786156394,20.6126955145537,21.5692710707406,22.5180909243497,22.4046772791843,10.5397142233966,9.96244043830302,14.3648116302111,15.1131347489154,19.0295292381209,18.5685926456766,19.2666819522424,20.3439096349474,19.9941584099477,0.993928568703788,1,1,1,1,1,1,1,31.5079175,-83.55854775,2016,"GAH1",23
"B73/PHN82","NYH3_2018",22.055,669.400680900096,0,2,196,102,73,71,4.15290321265497,0.855714253016881,1.3332815508056,1.97305411194418,19.583846221678,4.14286014006271,1.8276992618975,3.76173812028143,1.90156246016497,128.739999592304,5.98999977111816,17.4923071333995,69.9676929031714,40.0915385802778,44.7653846179063,69.4146166489675,34.6500001893594,57.3015388158652,20.6438379902993,23.734383719308,20.9151799390397,21.3482761629861,15.5748009681702,18.2818119822682,18.5980678458876,13.9987834016191,13.2148593540227,12.8280644647537,24.7271431514195,24.7414279945742,27.596512872011,28.6830766384418,28.5062936742823,27.0643436698177,24.343457209962,20.0662390765262,1.45225804755765,10.4899997711182,13.1008829316836,14.8254759279027,19.1384615898132,17.4527063056306,15.1350768185087,13.0732734933789,8.10410418950169,4.11302762674546,10.7452289392157,11.8273048947818,13.7306812602079,15.9383483481257,15.0507564805546,13.5024004688805,11.6476751318915,8.35218751479716,0.351670501693603,1,0.973040659254487,0.995029228353767,1,0.992439429045457,0.946636380852979,0.843044515744696,42.7261605,-76.6556765,2018,"NYH3",23
"TX714/TX779","MNH1_2020",20.85,686.71332229632,0,0,280,162.5,85,80,0.94300509867826,6.54607305060729,4.14035912753596,4.70748763912835,0.452236840599462,2.54351275702983,5.92890111667188,4.27061504377344,2.50108778318406,29.2331580590261,64.9010543540904,50.6168419938338,155.384736988105,0.714736844363965,28.6173683906856,219.299474794614,34.3447376494541,76.9310546087983,20.8351621174448,15.7339994616729,19.7482846720118,20.9752267105361,19.7857435502504,20.2008613357514,18.410630506817,15.8353278990905,12.8477663152691,15.7084550036336,18.5315520479183,25.8284042289769,28.495260522451,29.9249994378341,28.2199240924829,26.5218522585541,25.9398792816591,19.7406792160144,2.26123937792406,9.18620770652177,13.9924403556009,16.6828678833046,19.344474052128,16.9052831803402,15.0937764647406,14.3091431196277,8.59321732280189,5.3706805778496,7.95338430636633,12.4659637890829,14.7786587119029,16.6623657697956,14.7511618456846,13.2528818768791,13.0175246736152,8.66613029209796,0.62261399417653,0.838417993402521,1,1,1,0.988450437108742,0.930664219656181,0.78075899295554,44.06907839,-93.53263028,2020,"MNH1",4
"TX777/LH195","NEH1_2015",14.7,791.6189188608,0,2,270,120,65,59.5,2.95906250551343,0.753999996185303,4.74563283345314,2.18704069073799,0.179999995976687,3.60144891745383,1.54800079262728,0.0578125016763806,1.58921436409676,94.6900001764298,3.76999998092651,46.8499994277954,63.5081251226366,0.239999994635582,39.1218755729496,55.4949998706579,0.586250016465783,47.8581244703382,19.0719456225634,25.8469993591309,20.0059366173214,19.9624584223382,20.9646370410919,17.862962844426,18.3117533318471,17.3040564497312,12.3794141031722,23.749062538147,30.5139999389648,29.1300998729287,30.7414867126068,30.7375001907349,28.4385862173456,29.1303174585083,26.8837498406569,20.1234253179002,13.1921873912215,15.4699998855591,18.0403649873505,19.1809282210085,19.1128125190735,17.3324828895656,15.9213148381598,11.1533021022876,6.52520026862121,11.6448137461047,15.2595573319928,15.683366010067,16.9689110631387,16.9384551391655,15.0734546124166,14.9518339258185,12.0107008879437,8.15887847021127,0.924598212486931,1,1,1,1,0.969696650265103,0.982957587710449,0.758540942647513,41.290979,-96.41664325,2015,"NEH1",8
"CG119/CG108","IAH4_2019",28.8,672.23248841472,3,1.5,214.25,112.25,58.25,57,7.44874995015562,0,6.50881467374409,5.6525726022224,2.43380947907766,0.731547632000663,2.45579525280376,7.8564195348447,5.75872584569015,238.35999840498,0,89.1292863403048,169.456427982875,4.77928561823709,8.60571444034576,106.530001376356,62.8171439085688,173.125001170806,18.6145755797625,24.2565227508545,18.8006245278177,19.6421767480858,17.0176224595024,21.2996734509736,16.8287504139617,12.8206227264182,10.7364833926825,20.7271875441074,29.9840000152588,24.5722633179083,29.5810221641303,28.1176189240955,27.58625518708,26.2190243055472,25.7016276577496,18.6657910490915,8.65531238541007,16.3919996261597,13.3059014231034,18.5255579285147,18.4233330772037,15.4118288977322,14.7825220538956,14.5780164733543,7.35440330158364,8.71918233646163,15.2871338060331,11.5589664369529,16.123770337754,15.4195503973433,13.7927777947048,12.918929601543,12.7818467143669,8.05148075435536,0.866629464152668,1,1,1,1,0.99673511209038,0.969646608596351,0.721601517483779,42.03193798,-93.79333213,2019,"IAH4",11
"F42/H95","KSH1_2016",14.3,778.7470665216,0,2,180,65,93,93,0.381562503054738,5.59374988079071,9.0311369591709,3.98190999396102,0,0.897724768782806,5.01142138710802,3.32242425282796,5.67007326271352,12.2100000977516,44.7499990463257,140.950907804749,148.509091756561,0,8.37409110773693,139.43863695589,19.9345455169678,175.772271144119,18.4331542551517,14.0458284318447,18.3461373797249,20.8844651238299,22.7032874280756,20.5944180136979,18.3498667163808,18.1537938724865,17.325101912546,19.1512499600649,21.7012498378754,22.3390124406673,27.1937706264094,36.3127268877896,35.1754003625928,32.0107843193833,33.8563335245306,30.7689589111686,2.13062504353002,11.4649999141693,9.56823857872411,14.2621367966756,21.5872724706476,22.0435392319554,20.7806130140041,22.7113486636769,19.4913931130664,6.31585730010902,9.66729101728267,9.62689037894436,13.3541884288908,19.5659910681005,19.143975364632,18.068246454854,19.1205473197881,17.0374461461811,0.741573662447211,1,0.9212797776386,0.98604226771574,0.991287871402522,0.998977630941292,0.993550001780192,1,39.14480675,-96.62898225,2016,"KSH1",14
"B73/PHM49","WIH2_2015",44.05,778.10347390464,0,0,251,145,65,64,3.12677418801092,2.65500004092852,4.10360587788369,5.33606725073504,1.86882352828979,3.14284756646862,3.06635871261474,6.46327216547577,3.42627895726651,96.9299998283386,15.9300002455711,53.5811765053693,186.069413493661,5.43588234396542,36.0370585217195,132.474706411362,52.801177333383,103.499412364819,19.6364621193178,20.5731145540873,21.5892617017256,21.0711117653476,18.3630023844102,19.2051703551661,18.5458357222424,13.68038167737,11.3747629179222,15.6409677997712,24.9766667683919,26.1182311514896,28.0952907748788,27.5158822676715,27.9129860396904,26.446906195709,23.9533144307555,17.6364554289999,3.35580646607184,13.6266668637594,13.8892249418098,15.1778817355709,17.2276475008796,16.9294609080024,13.7343451854096,12.6373390166389,6.34391337544442,5.37086055393058,11.9313890592981,12.6525642606911,14.0429022055175,14.4358603312718,14.5758898439564,12.7664601406529,11.4948295633928,7.02316371690367,0.588214291611575,1,1,1,1,0.979783321564246,0.914260834660243,0.715230077160589,43.3264485,-89.33359975,2015,"WIH2",13
"CG44/CGR01","MIH1_2019",18.55,753.0033618432,0.5,7,194,92.75,63,61,3.72032261471594,6.18999987840652,7.08189690006846,2.96191688400863,8.70871785970835,0.913986012652204,1.81721631743115,4.46805386621966,4.01325090748622,115.330001056194,49.5199990272522,106.890000159924,93.8269234987406,16.8199998415433,10.8061538292811,84.3607687308238,63.3192304020318,120.886153043033,19.3198693644616,19.659396648407,18.5197910648149,21.0044455619677,17.0154062173305,20.0474262743285,16.9686392658752,12.0289328686849,10.8756886384412,17.6070966566763,21.672500371933,22.6907490026934,28.9340565953721,30.5653851582454,27.9492195425056,26.0065468645292,21.5026069405808,17.4653024474005,6.21032255887985,10.3187500834465,12.2184779380965,16.8660470129547,18.7433329973465,15.8530651856136,14.0059099463102,11.3257615513,7.16116346403536,6.87677389559506,9.31438263555815,10.3976173052964,15.104532747528,16.8626129686687,14.1939107322347,12.5855318269076,10.0060636582943,7.51165680343827,0.696382483441709,1,0.995173883167682,1,1,0.988904737193903,0.895422602144151,0.709438731296917,42.70789125,-84.4706665,2019,"MIH1",11
"CG44/CGR01","DEH1_2020",16.275,693.4710447744,0.75,2.5,211.25,104.25,56.75,56.5,3.88483868875811,2.91874992847443,0.484801505503061,3.71268255549857,3.96392849513463,10.5487894544762,3.68050884933542,4.08975176026626,5.319973187453,120.429999351501,23.3499994277954,5.74999997019768,113.1935703797,6.56571415492467,94.9292836615017,102.593572867768,23.166428906577,164.612859283175,19.3438995884311,17.33862388134,21.2312624647651,20.3726220481303,20.8446989627112,18.1338016267807,16.8296419143509,15.5006431469301,15.1408180300907,17.434838879493,21.1624999046326,25.0214381114927,29.0102466521478,32.2544050670805,31.3041766938709,31.9504815386958,29.3682823985612,28.2151496441866,6.79290319402372,12.8525000810623,15.4018443361914,18.8679049092236,21.2860713232131,21.9305357119394,22.8433926389509,21.0652513572148,19.3078685858649,6.86665098039301,10.0448246591535,12.6407234275317,16.020283469814,18.7216176458005,18.6039745498917,19.328040061196,17.2231380052054,15.9100314441845,0.793629040417995,0.982098209006446,1,1,1,1,1,1,38.628981,-75.46566025,2020,"DEH1",12
"B73/PHN82","MNH1_2015",18.9,730.4776202496,4.5,5.5,232.5,131,75,74.5,2.67645166525918,6.10285712991442,1.58721610445111,4.7077263256623,2.09382353109472,4.68577535931227,5.9350156688025,2.22326150676053,2.19878814463244,82.9700016230345,42.7199999094009,19.590000131551,155.007059007883,3.96529412269592,52.2323524741565,227.094708481256,20.9011769756017,67.401177584358,19.816934616335,15.8754692077637,21.6281845751118,20.6523619261065,17.2143456515144,21.1212332316686,17.7408483022691,14.5374503953005,12.0629753461599,17.4338709308255,22.6300002506801,27.2892179925706,28.4642367103754,28.3652941759895,28.0789971632116,26.1408952283773,24.7325950747879,17.9009570518097,4.56741930688581,13.7342856270926,14.30007362468,16.8971689663296,18.654117640327,16.1974599531415,14.7564351113732,13.5728072906729,6.63464769243789,6.28381609962703,10.8743797711898,13.2690560805916,14.8702380832727,15.6411451436446,14.3539204313244,12.9900637188381,12.4683668720892,7.55733067966644,0.72298386648366,1,1,1,1,0.97770300313998,0.878626049359361,0.7212296457923,44.07038575,-93.53519625,2015,"MNH1",24
"LH195/PHZ51","ILH1_2015",11.825,752.35976922624,0,15.75,263.75,121.25,73.25,70.5,4.34343749051914,1.29615384340286,7.654899738758,5.34311294988612,3.67499995231628,2.46729163328807,4.64726805078788,0.712819956420433,1.9519079085119,138.989999696612,16.8499999642372,99.8675005473197,177.342500980943,7.34999990463257,22.2056246995926,144.025624632835,5.03937511332333,60.0618743356317,19.4076893031597,20.2182017839872,17.5801237771363,22.592317287411,17.3577569425106,20.1224286291334,18.7955131537028,20.3716592643233,16.8099873810686,15.693750217557,16.2761536378127,23.8148397458069,28.7742831748073,30.2824996709824,31.917013724645,28.6589959642683,28.4854071997461,27.0987701069283,2.91687501082197,4.60230773228865,13.9338979229276,16.2604470887104,20.4774998426437,20.4138195912043,17.7954354684494,15.771967322202,14.6267217462101,5.33980004312561,5.92163564241169,11.5310566581626,14.7484368961231,17.379999756813,18.1717816417615,15.315695861998,14.446488469174,13.3642133617155,0.599162963767802,0.63684064575604,1,1,1,1,1,0.998281250042575,40.05982425,-88.23397575,2015,"ILH1",9
"WF9/H95","DEH1_2015",19.85,677.05943304192,0,4.5,261.5,114.5,67,63,2.877187483944,6.84800000190735,1.65812227065002,2.89981113868033,0.533124998211861,6.39805544084973,4.54206526084818,4.66633341695581,5.69481861783612,92.069999486208,68.4800000190735,26.8631244525313,94.403749205172,0.778750002384186,57.5824989676476,115.858124211431,26.7362504601479,176.53937715292,18.0978914797306,17.2013893604279,20.1115188355204,21.0089776981854,21.5349248051643,19.2473051614232,17.7019111319721,15.0562807784194,15.1484673523134,16.8265626430511,19.2440000534058,20.7237695406926,27.6889034218542,31.5665628314018,31.8635417355431,32.09465687106,30.4336400264785,29.0939515059994,6.26593750482425,9.85899999141693,10.7453803031313,17.6787637613727,20.387500166893,21.3565970261892,22.772206074744,22.282508844421,20.5664716151453,6.52196032901766,8.41291476735724,9.22995774812798,14.8599372331721,17.9770314991474,18.5817073937474,19.3617069706047,18.3580744354498,16.8673674529789,0.750435272946821,0.870857151065554,0.962682183853112,1,1,1,1,1,38.62935675,-75.4656925,2015,"DEH1",8
"B37/MO17","NYH1_2017",21.2,731.12121286656,0.5,34.5,243.5,124,78,76,4.75870958066756,4.13999998569489,2.95302494204596,5.71550623200518,4.32087287827144,2.70173206300027,2.61632844338824,1.02263058497457,3.61426843911905,147.519997000694,37.259999871254,45.1261899925414,219.922381491888,11.2685710702624,35.6957141047432,128.424762705962,13.3047620654106,110.890000857058,18.9744435125782,17.8100527657403,22.0763726985416,19.3839747471171,18.5614137876601,19.2253497353029,16.7138256789592,13.4350664320207,9.03754833240572,17.0696775221056,20.2333335876465,22.7745171017373,25.664886994249,26.7039681691972,25.3269152449164,23.2600727170173,23.9684052634079,17.611198191458,5.96419353350516,10.1900000042386,10.9371763249011,15.2036229448209,16.362936383202,14.6065672757674,11.3179340366411,11.5668532308226,6.66954478092379,6.64112734378757,8.72725367499605,10.1527049274721,12.7947461464451,13.7193522643836,12.3756778221065,10.4503517934596,10.9124923049431,7.23915136927561,0.685760370631646,1,1,1,1,0.982493677824514,0.953634339212795,0.701363064221172,42.72880835,-76.6515625,2017,"NYH1",11
"W10005_0107/PHB47","MOH1_2017",16.3,731.12121286656,3.5,7,220,98,60.5,59.5,8.9377417372119,9.40166687965393,2.5122307210309,3.31803000298191,5.03571436897157,1.79449076217318,1.99698652419733,1.22007939712801,1.67255760975148,277.069993853569,56.4100012779236,33.266191187359,103.90142990152,11.9309525943938,15.8776192438035,65.301428034192,7.33476209640503,51.2547620932261,18.7248205369519,18.0883291562398,22.6242269395262,21.0080017307694,18.7751449554686,19.9343814805702,19.7053313769018,19.3664612148354,17.3432911467809,21.9203225412676,25.3299999237061,25.4749503644893,29.3008720310805,30.4665072910369,32.2541201606629,29.9202677395283,28.2214596385048,28.0482789753525,10.0600000504524,15.2766664822896,12.998270884804,17.3976861805709,19.7822220514691,21.2135912224098,18.704048814453,16.3385714299284,14.9717184025754,9.61284732078703,12.7690302394973,11.9492820630245,15.4976191875118,17.12130987162,18.6727738376249,16.2046370134919,14.4820857755482,13.9285000836298,0.915472352559665,1,1,1,1,1,1,0.999239795872954,38.89264,-92.2057525,2017,"MOH1",10
"F42/OH43","NYH1_2017",19.55,731.12121286656,9,16.5,248.5,108,73.5,72.5,4.75870958066756,4.13999998569489,2.95302494204596,5.71550623200518,4.32087287827144,2.70173206300027,2.61632844338824,1.02263058497457,3.61426843911905,147.519997000694,37.259999871254,45.1261899925414,219.922381491888,11.2685710702624,35.6957141047432,128.424762705962,13.3047620654106,110.890000857058,18.9744435125782,17.8100527657403,22.0763726985416,19.3839747471171,18.5614137876601,19.2253497353029,16.7138256789592,13.4350664320207,9.03754833240572,17.0696775221056,20.2333335876465,22.7745171017373,25.664886994249,26.7039681691972,25.3269152449164,23.2600727170173,23.9684052634079,17.611198191458,5.96419353350516,10.1900000042386,10.9371763249011,15.2036229448209,16.362936383202,14.6065672757674,11.3179340366411,11.5668532308226,6.66954478092379,6.64112734378757,8.72725367499605,10.1527049274721,12.7947461464451,13.7193522643836,12.3756778221065,10.4503517934596,10.9124923049431,7.23915136927561,0.685760370631646,1,1,1,1,0.982493677824514,0.953634339212795,0.701363064221172,42.72880835,-76.6515625,2017,"NYH1",18
"F42/H95","NCH1_2018",17.65,731.12121286656,0.25,2,207,101.5,54.75,53.25,4.15774186772685,0,6.8526510433579,4.10157556488421,0.281428575515747,2.75396832528095,7.26591658308554,9.60671440533229,8.96361755184864,128.889997899532,0,78.7671440328871,125.545714974403,0.410714285714286,22.4842862997736,196.673573234252,49.1857148877212,277.872144107308,19.158143443446,24.8645596504211,15.1389765320633,19.3855829317864,23.1845893859863,19.6068392973098,18.3866491902909,15.5573578698295,15.5216169620989,22.4270968591013,23.6650002002716,25.0550478657399,28.9916256900428,32.2199997220721,32.775892872659,33.4127120673101,32.5722850436256,30.5373039641139,9.27290327318253,8.26250010728836,16.6308233901196,19.2143084718567,20.4371425083705,21.481061649701,22.4105254876566,22.8214047023228,21.5226957830965,9.38361003774443,9.71072245384455,13.0706373808512,16.1524192978687,18.3285711152213,19.12847726118,19.8345089714409,19.6705204899203,18.0563248308793,0.990449307151654,1,1,1,1,1,1,1,35.6667825,-78.492372,2018,"NCH1",15
"B14A/MO17","NYH3_2015",18.6,731.12121286656,0,5,261,146,76,75,4.26838707539343,0,1.23480362862861,3.31548590496468,3.74470586428309,3.70874331928192,2.03473858875296,2.09190753286542,2.16016066343177,132.319999337196,0,17.669999435544,111.464706651428,9.84352939345819,38.4235294566435,75.3511776310556,21.4923532237025,65.3723531067371,20.9588571671517,21.7616018295288,22.010031667843,20.4765439063008,19.3750716377707,18.8480084862939,18.0995458235427,14.2586651794525,12.1716549346147,15.2151612850928,28.4139999389648,23.9726607996166,27.9485215330969,28.2241176156437,29.0064544300345,26.8861269088758,22.6542903882269,19.0203909387172,3.20645156502724,16.0079999923706,11.6223586733296,15.6103262901363,16.7502940963296,17.7263369351147,14.8880444255661,11.6083206558939,7.35658823269703,5.34962666660979,14.3873497094372,10.9577344850549,14.1718313559719,14.6193748893675,15.4121399843839,13.3167035418842,10.3456969793581,7.70771127893227,0.504331792142534,1,0.972673749990107,0.996219796126396,1,0.995345527139322,0.95775528025916,0.812032548066487,42.7233625,-76.6555945,2015,"NYH3",13
"LH198/PHZ51","WIH1_2017",18.975,736.59175011072,0,2,262,121.25,76,76,3.89483860231215,1.69400000274181,3.49156577965838,6.2519143171591,26.2978026361176,12.3515148027377,1.78262104808487,1.03121945111417,2.01941396652895,120.739996671677,16.9400000274181,60.7700004577637,238.208635676991,55.4840900247747,148.218177632852,77.271818082441,11.1354542618448,60.745454186743,17.960097635946,21.5698625564575,18.7158230082745,20.7331612703905,19.6944010185473,19.5872614094705,19.1692292014325,15.6915139185436,12.2199858597646,16.0345162114789,20.211999797821,20.2299808812544,26.7106026620157,27.0055303284616,27.1642803278836,24.808088372499,24.0364187930535,21.8450449974554,3.37838715026456,6.26000000238419,9.26856570777133,14.6662764981358,15.355757669969,16.2110985698122,13.1758958125295,11.5252111876034,9.50942962348574,5.50743496208047,7.7204112419547,8.66460263667967,13.1489127920754,13.4606804243422,13.904384596596,11.6785635653614,10.9014606457238,9.60826542273389,0.606900931675039,0.87353569992951,0.867893568108202,1,1,0.99822024159571,0.971647402783493,0.89569217047159,43.05668125,-89.5308135,2017,"WIH1",8
"B14A/OH43","SCH1_2019",15.69,731.12121286656,0,2,210.82,88.9,55.5,57,3.52258064477674,3.02666664123535,1.83207166627958,3.15534991018595,1.49702380668549,2.43988097139767,1.83821312723543,1.7150475976013,2.16246542897642,109.199999988079,18.1599998474121,19.9499998688698,97.8735719323158,2.84642858164651,21.9271430288042,50.916428404195,9.48142844438553,67.036428298269,18.2238053967876,19.247888247172,19.8381614833763,19.938859204939,17.7934952236357,20.8877508432146,19.9301129518968,20.1952560402098,17.6553152003047,24.0812904296383,27.556666692098,26.8636026409599,30.303022531239,30.1509526570638,31.8182345420595,32.8750149825147,31.8445712543669,32.3335714516002,10.7222581025093,15.8883333206177,14.7897779125592,18.3349862715708,20.4966665676662,19.4895437936934,21.1836656381328,19.1694286028544,20.1650460304752,10.6271599305538,13.8823950294698,13.2745578864924,16.3672741997006,17.323809612365,17.6458035283698,19.009890666677,17.48787313509,18.1591706145628,0.967315667785258,1,1,1,1,1,1,1,34.62248225,-82.73756775,2019,"SCH1",13
"LH198/PHZ51","GAH1_2016",14.5,761.37006586368,0,3,205,85,60,59,6.46625005081296,4.39500004053116,0.56642149156447,2.54962756812163,3.17469698010069,5.85994313642232,4.09696701425995,2.3309999964454,2.47626100694679,206.920001626015,35.1600003242493,6.21000005982139,86.0200002979148,9.52409094030207,52.4272723306309,105.673179734837,11.654999982227,76.7640912153504,15.956961274147,18.253856420517,20.331000534978,20.7402420911881,20.0106486840682,19.5430273528051,19.3819876920889,19.2695335214788,18.2145192224609,23.6268749833107,22.9824998378754,28.5613493699125,29.4983659035312,33.3707563804858,32.6271904538376,33.2502690735618,34.5149995457042,33.9492812618133,11.2974999733269,10.4700000882149,15.6474472778231,16.2846205025457,20.7828786156394,20.6126955145537,21.5692710707406,22.5180909243497,22.4046772791843,10.5397142233966,9.96244043830302,14.3648116302111,15.1131347489154,19.0295292381209,18.5685926456766,19.2666819522424,20.3439096349474,19.9941584099477,0.993928568703788,1,1,1,1,1,1,1,31.5079175,-83.55854775,2016,"GAH1",9
"PHW52/PHM49","MIH1_2018",25.65,671.91069210624,0.5,2,191.5,87,68.5,66,5.01225806436231,1.85857137611934,2.30331191463433,3.25951691756812,0,1.60415119941418,2.92619831356102,4.21553021195656,2.83007403868438,155.379999995232,13.0099996328354,29.7907139573778,101.442142486572,0,18.1621430601392,122.341429148402,36.1057143041066,85.3414282117571,19.7861952781677,22.4124417986189,25.0884598450622,20.2612458458858,21.4032746950785,19.637790091245,17.5968755658502,14.6465572693566,11.3353334319491,19.0825806125518,24.4042857033866,26.505944844571,29.8591727623839,29.2076190766834,28.9402475938851,27.0018144543115,23.872538371452,17.7408049407478,7.63354836452392,11.5700000354222,11.5577044046365,16.9041061443352,16.7723805904388,17.0588350970071,14.0643132941307,11.7732902665618,6.16018373429463,7.98558094772299,11.0854581776882,11.9601199609315,15.5131733342938,15.0676347638495,15.1176834662804,13.1591194742283,11.0037102398898,6.94989994028217,0.750656678482959,0.993928568703788,1,1,1,0.982067154646315,0.951173413871536,0.716707840592432,42.689234,-84.49755575,2018,"MIH1",24
"PHB47/PHZ51","OHH1_2016",15.675,741.09689842944,0,10.25,283,122,65,64,4.32806446475368,1.77600002288818,3.91514520817277,2.58074065911205,3.89075762575323,4.1704949600528,5.07906928910772,3.9577419347548,3.61459481407063,134.169998407364,8.88000011444092,44.703636136922,85.9177285974676,9.33045467463407,39.9481819326227,160.185453747484,27.6977266587994,110.118636226112,18.3437643974058,22.2428304672241,20.7314695601022,20.3598251803728,19.1523341554584,18.8282464220066,16.7204849062197,17.9873095465335,14.717978926255,19.6358064528435,29.6320003509521,26.5695358893096,28.5926358759461,29.5910605517301,30.6928383605649,29.2168918167121,28.2718868666116,26.3058832172308,8.12096774674231,16.8959997177124,14.973912901117,16.7052856168403,18.3031819083474,19.7444342603587,18.9160148979259,15.4450083848343,13.402624611054,8.11765705231608,15.3272200928741,13.170280569172,14.8167815407942,15.9685705423992,17.2330323566172,16.1171316077875,14.2150247381021,12.5845870964483,0.859331788177589,1,1,1,1,1,0.999172077691259,0.989049277132183,39.860924,-83.6755995,2016,"OHH1",5
"2369/LH123HT","TXH1-Late_2018",11.75,731.76480548352,0,2,264,103,61.5,61,3.5793750025332,7.22999986012777,0.880950212466032,3.39399650565147,5.74642871958869,3.61914694878968,3.45560049644284,0.428285707746233,2.2787097211807,114.540000081062,43.3799991607666,11.7107142976352,109.309285019125,11.4928574391774,35.4171440643924,87.1585709388767,2.14142853873117,70.6400013566017,15.1890550404787,16.9814987182617,20.4111461997292,19.9987621572639,15.8160833404178,20.1152116011059,19.5823012089101,16.3941785948617,18.6152318413906,25.4215626120567,25.4816667238871,24.9240564974382,29.8609676759365,30.5592857315427,31.1110338370005,33.471735544548,33.678570665632,35.6292394646851,13.7340625077486,14.7233331998189,12.1417448389526,16.9768337518894,21.1738096872966,19.9290791380973,21.6003019523645,24.8844285964966,24.5352535247803,12.2487610557836,12.9546326020938,11.4732109690061,15.6369768953886,17.8686949252443,17.4931939916305,19.3485664524142,20.6305847067263,20.9047458821383,0.995234378746578,0.961607143992469,1,1,1,0.999944235746723,0.999152383350191,0.99903341174675,30.546318,-96.4329965,2018,"TXH1-Late",11
"B37/H95","INH1_2019",26.05,885.840877983744,4,2.5,252.5,128.75,65,62,4.63812497258186,1.29166666666667,4.25488335645363,1.87300270719002,7.54214310646057,0.579848492816413,2.74560841827104,1.19420918378295,2.03783408368833,148.41999912262,7.75,53.1171433925629,53.8378578254155,14.6478576319558,6.66928580829075,98.2221447612558,12.4578571830477,61.5871423291309,19.8238796144724,19.1838219960531,19.3356551277525,20.5079361978704,16.6485685848054,22.3093103598723,17.461135568403,15.7933039524117,12.4354276578181,23.3468750417233,26.1500002543132,24.4413160843143,31.0645804159602,27.968213898795,28.4362554880448,27.6094113062845,25.5934081145695,22.9142281496534,11.290937460959,15.8816663424174,14.2715915146539,19.4056910916555,18.2715474991571,15.118939298572,15.6989562867023,13.3868571526114,10.3300522585216,10.6262671811697,13.2428988950862,11.8663839826665,17.2797126565803,15.2640629745711,14.0935941613426,13.930277368943,12.2365302547241,10.4676142624311,0.918526784383825,1,1,1,1,0.999060374100971,0.966691326792114,0.862528610255524,40.477063,-87.00020175,2019,"INH1",20
"PHG80/PHZ51","WIH2_2017",17.7,731.12121286656,0,2,229,110,65,64,5.04870961558434,4.63666661580404,1.14238357494139,5.76385788548466,8.00159072875977,6.16004860362449,1.60777643285742,1.16772651324412,2.25755526788773,156.509998083115,41.7299995422363,17.5799998044968,219.396364270963,12.1440906524658,74.0409079194069,72.28863683072,15.0440909293565,68.0204556950114,18.1690344041394,19.7204955418905,20.6472768327282,20.2328798799047,19.1316367929632,19.3749324300072,18.5140157590327,14.9334047713424,10.8947823268053,16.0312902696671,21.8655554453532,22.157460706825,26.5968914308851,27.900455012466,26.7679925429357,24.7306206922626,22.3853339347559,20.5127478068356,3.24419354046545,8.79111109839545,9.55349760092549,14.5433731880084,16.8103789199482,15.3783115840061,12.1927125768691,9.1932024860582,7.86886657741529,5.43821820192816,9.20913123615215,9.45120310694411,13.0570841123019,14.516823010886,13.3761072292611,11.3130637266799,9.68633375424708,8.85311395885718,0.624158990547954,0.847976183134412,0.950288767513294,1,1,0.998699911088751,0.954544861800485,0.834596302261351,43.3246415,-89.33688775,2017,"WIH2",6
"WF9/H95","ARH2_2016",13.75,731.12121286656,0,2,185.5,112,63.5,62,5.78093742206693,12.265000184377,3.71212020820834,7.02228860006285,1.10500001907349,0.295568184419112,1.93128791351543,1.45469692692612,6.28083569178483,184.989997506142,73.5900011062622,50.6740907539021,233.205909837376,2.21000003814697,2.36454547535289,51.2972726388411,7.65681795640425,194.70590644533,17.7645711898804,17.2271962165833,20.1405853736324,19.8064448117891,18.8826211727027,19.79738723148,18.6944065441324,19.8885487758752,15.607143551723,21.0278125703335,25.6983334223429,24.8822470662624,27.5574788870291,33.1628784988866,33.3801704536785,32.4072806330723,33.7124844464389,31.3768475300406,8.51718754693866,14.1383333206177,13.2669300286413,16.7583488235741,22.7915153503418,23.2152275497263,22.5635331248055,22.9502423373136,22.3752492012516,8.62630812400512,12.3761800663264,11.7581879605187,14.4664485465038,19.8918990278765,20.2426308826887,19.4302420192383,20.2373530270853,18.8112695233672,0.958649555088154,1,1,1,1,1,1,1,35.838614,-90.66530155,2016,"ARH2",9
"PHW52/PHM49","MNH1_2015",20.4,731.76480548352,1,0.5,235,121.5,77.5,76,2.67645166525918,6.10285712991442,1.58721610445111,4.7077263256623,2.09382353109472,4.68577535931227,5.9350156688025,2.22326150676053,2.19878814463244,82.9700016230345,42.7199999094009,19.590000131551,155.007059007883,3.96529412269592,52.2323524741565,227.094708481256,20.9011769756017,67.401177584358,19.816934616335,15.8754692077637,21.6281845751118,20.6523619261065,17.2143456515144,21.1212332316686,17.7408483022691,14.5374503953005,12.0629753461599,17.4338709308255,22.6300002506801,27.2892179925706,28.4642367103754,28.3652941759895,28.0789971632116,26.1408952283773,24.7325950747879,17.9009570518097,4.56741930688581,13.7342856270926,14.30007362468,16.8971689663296,18.654117640327,16.1974599531415,14.7564351113732,13.5728072906729,6.63464769243789,6.28381609962703,10.8743797711898,13.2690560805916,14.8702380832727,15.6411451436446,14.3539204313244,12.9900637188381,12.4683668720892,7.55733067966644,0.72298386648366,1,1,1,1,0.97770300313998,0.878626049359361,0.7212296457923,44.07038575,-93.53519625,2015,"MNH1",25
"B73/PHM49","GAH1_2016",15.15,742.06228735488,0,2,210,100,62,61,6.46625005081296,4.39500004053116,0.56642149156447,2.54962756812163,3.17469698010069,5.85994313642232,4.09696701425995,2.3309999964454,2.47626100694679,206.920001626015,35.1600003242493,6.21000005982139,86.0200002979148,9.52409094030207,52.4272723306309,105.673179734837,11.654999982227,76.7640912153504,15.956961274147,18.253856420517,20.331000534978,20.7402420911881,20.0106486840682,19.5430273528051,19.3819876920889,19.2695335214788,18.2145192224609,23.6268749833107,22.9824998378754,28.5613493699125,29.4983659035312,33.3707563804858,32.6271904538376,33.2502690735618,34.5149995457042,33.9492812618133,11.2974999733269,10.4700000882149,15.6474472778231,16.2846205025457,20.7828786156394,20.6126955145537,21.5692710707406,22.5180909243497,22.4046772791843,10.5397142233966,9.96244043830302,14.3648116302111,15.1131347489154,19.0295292381209,18.5685926456766,19.2666819522424,20.3439096349474,19.9941584099477,0.993928568703788,1,1,1,1,1,1,1,31.5079175,-83.55854775,2016,"GAH1",14
"LH82/PHB47","ONH2_2017",19.15,901.029663744,1.5,12.5,221.5,84,37,35.5,3.5667742529223,5.81600005626678,0.640467161488946,2.60285034576314,0.27619046824319,0.553043346265297,1.77415042468807,1.8322193505358,2.40528059047854,110.570001840591,58.1600005626678,8.99904758589608,96.0257148231779,0.55238093648638,6.91857143810817,78.7085716128349,24.0661906514849,72.9814284727687,18.8542372026751,16.7486707210541,24.2129103871374,19.3709418074881,21.1971578446646,20.8470523735834,17.6115175917995,14.25368499546,9.92782470727663,15.7532256957023,18.6889998435974,23.4026282865202,26.349749969441,26.5938094911121,26.8606501324273,24.5722531696102,22.9174861617247,20.0059681545616,5.76483872628981,10.960000038147,12.0335911848343,16.1800782706558,16.6330158142816,15.9192033646599,13.1457407086605,11.2717777505092,10.1065058561854,6.14192830243868,8.3866030604193,10.6839465453898,13.5252167119854,13.7753985037319,13.6499871813553,11.5882146496872,10.4155272324174,9.10741430426533,0.598502302774086,0.966571422985622,1,1,1,0.999084662263501,0.956230826192702,0.830002500100802,42.45293025,-81.8827315,2017,"ONH2",7
"CG60/LH162","KSH1_2016",15.9,764.58802894848,0,2,175,80,95,95,0.381562503054738,5.59374988079071,9.0311369591709,3.98190999396102,0,0.897724768782806,5.01142138710802,3.32242425282796,5.67007326271352,12.2100000977516,44.7499990463257,140.950907804749,148.509091756561,0,8.37409110773693,139.43863695589,19.9345455169678,175.772271144119,18.4331542551517,14.0458284318447,18.3461373797249,20.8844651238299,22.7032874280756,20.5944180136979,18.3498667163808,18.1537938724865,17.325101912546,19.1512499600649,21.7012498378754,22.3390124406673,27.1937706264094,36.3127268877896,35.1754003625928,32.0107843193833,33.8563335245306,30.7689589111686,2.13062504353002,11.4649999141693,9.56823857872411,14.2621367966756,21.5872724706476,22.0435392319554,20.7806130140041,22.7113486636769,19.4913931130664,6.31585730010902,9.66729101728267,9.62689037894436,13.3541884288908,19.5659910681005,19.143975364632,18.068246454854,19.1205473197881,17.0374461461811,0.741573662447211,1,0.9212797776386,0.98604226771574,0.991287871402522,0.998977630941292,0.993550001780192,1,39.14480675,-96.62898225,2016,"KSH1",3
"CG119/CG108","ARH2_2018",10.74,731.12121286656,1,2,140,69,60,58,4.52312493696809,5.87777773539225,3.20221045546513,3.22538419759111,0.461428574153355,5.07039669960264,1.70725153730848,1.54697617831684,1.91550691130524,144.739997982979,52.8999996185303,46.3228566646576,103.499284437725,0.461428574153355,45.6335702964238,42.6871420655932,7.34642852629934,59.3807142504624,17.754108697176,19.645527097914,19.5209714731691,20.0568442813419,23.807372706277,19.9782345332797,19.1297214036176,18.2548979571076,18.0559728640016,19.6187500059605,21.9200000762939,22.773456222744,28.907182961616,31.9800004959106,30.9839679929945,32.8413090722368,33.5659560339791,31.9039170577229,8.73406261950731,10.3477777904934,11.2877129581977,17.8543030688035,18.7064290046692,19.7554763460916,22.4826605422564,23.260513297879,21.2522349467475,8.30560135863556,9.42321555433479,10.2210790341996,15.520093271009,17.3523251398544,17.3798448246148,19.6186100549221,20.2782541977247,18.5368977813659,0.857433027720877,1,0.994106716733556,0.995975764430299,1,1,1,1,35.674241,-90.0749725,2018,"ARH2",12
"CG119/CG108","DEH1_2015",15.6,688.6441001472,0,1,203,106,54,54,2.877187483944,6.84800000190735,1.65812227065002,2.89981113868033,0.533124998211861,6.39805544084973,4.54206526084818,4.66633341695581,5.69481861783612,92.069999486208,68.4800000190735,26.8631244525313,94.403749205172,0.778750002384186,57.5824989676476,115.858124211431,26.7362504601479,176.53937715292,18.0978914797306,17.2013893604279,20.1115188355204,21.0089776981854,21.5349248051643,19.2473051614232,17.7019111319721,15.0562807784194,15.1484673523134,16.8265626430511,19.2440000534058,20.7237695406926,27.6889034218542,31.5665628314018,31.8635417355431,32.09465687106,30.4336400264785,29.0939515059994,6.26593750482425,9.85899999141693,10.7453803031313,17.6787637613727,20.387500166893,21.3565970261892,22.772206074744,22.282508844421,20.5664716151453,6.52196032901766,8.41291476735724,9.22995774812798,14.8599372331721,17.9770314991474,18.5817073937474,19.3617069706047,18.3580744354498,16.8673674529789,0.750435272946821,0.870857151065554,0.962682183853112,1,1,1,1,1,38.62935675,-75.4656925,2015,"DEH1",13
"LH74/PHN82","INH1_2019",21.34,922.91181272064,0,2,201.75,105.75,61,61,4.63812497258186,1.29166666666667,4.25488335645363,1.87300270719002,7.54214310646057,0.579848492816413,2.74560841827104,1.19420918378295,2.03783408368833,148.41999912262,7.75,53.1171433925629,53.8378578254155,14.6478576319558,6.66928580829075,98.2221447612558,12.4578571830477,61.5871423291309,19.8238796144724,19.1838219960531,19.3356551277525,20.5079361978704,16.6485685848054,22.3093103598723,17.461135568403,15.7933039524117,12.4354276578181,23.3468750417233,26.1500002543132,24.4413160843143,31.0645804159602,27.968213898795,28.4362554880448,27.6094113062845,25.5934081145695,22.9142281496534,11.290937460959,15.8816663424174,14.2715915146539,19.4056910916555,18.2715474991571,15.118939298572,15.6989562867023,13.3868571526114,10.3300522585216,10.6262671811697,13.2428988950862,11.8663839826665,17.2797126565803,15.2640629745711,14.0935941613426,13.930277368943,12.2365302547241,10.4676142624311,0.918526784383825,1,1,1,1,0.999060374100971,0.966691326792114,0.862528610255524,40.477063,-87.00020175,2019,"INH1",11
"TX777/LH195","TXH1-Early_2018",10.55,744.63665782272,0,2,258,110.5,73.5,75.5,2.44233329544465,0.878333330154419,4.91741256001052,2.91095925044977,1.11232141086033,5.98734766325737,3.09403364827696,2.44530950245403,2.57365667705529,73.2699988633394,5.26999998092651,55.2178573012352,113.372142612934,4.44928564344134,64.3635703495571,86.7278586477041,13.6771427350385,77.3578569974218,13.4988632996877,14.4915455182393,13.9248534838171,19.6618496048866,19.3908269973028,19.6418435904543,19.3841029346057,21.21373351415,18.0125832346727,19.6893333117167,26.9583333333333,25.6661437272963,26.5699684543749,30.2423808461144,29.1437299615549,31.9180543268285,33.2644761993771,34.5116055384576,6.35766667922338,15.039999961853,15.1375581486321,13.6905545931612,18.240714152654,16.4484343575537,20.6307032285911,20.5015473865327,23.9749401441184,7.6135705722337,13.4071560355566,12.8752807062941,12.7953613694417,16.3441020747261,15.0664778975255,18.2123343788981,18.7591973934278,20.4060627549583,0.821476193552925,1,0.991620594691275,0.994086429913331,1,1,1,0.999013392447937,30.546318,-96.4329965,2018,"TXH1-Early",9
"PHG80/PHZ51","IAH2_2017",15.25,724.68528669696,0,13,223.5,94,65,64,2.99193547618005,4.00374990701675,5.59415436127969,1.82415974193672,2.96590905297886,1.13861617337574,3.54439579705404,5.52586092903759,3.22496434239523,92.7499997615814,32.029999256134,86.8399996757507,64.743636071682,5.88090901483189,11.0354546579448,133.685001557524,39.366364874623,98.0227279554714,18.9181115088924,22.0308394432068,18.3906703843513,21.9130098121916,21.5970702604814,21.0005855088282,18.7624625632021,16.5013675579605,14.5633697451035,16.7025806211656,25.2537500858307,21.1644402920874,28.7879280313535,31.3429540287365,31.038908986371,27.7923067917653,26.5413899369054,25.0180860311055,3.83612903808394,9.06000000238419,9.83648406203406,14.7235259390494,17.1804546009411,18.0048533863491,15.618900018401,13.9478747019692,12.2571085666223,5.88435640664124,10.5205817772981,9.32555658634035,14.1961143177765,16.2939337097197,16.5715003347332,14.0580127584531,12.7380351430824,11.5799250069021,0.659274194561254,1,0.882113053044242,1,1,1,1,0.976890028652541,42.06582876,-94.72050129,2017,"IAH2",7
"B73/MO17","OHH1_2015",18.2,745.92384305664,0,0,265.5,129.5,66,63,4.82000001592021,2.05666665236155,1.8016670612875,2.43025542541639,2.07058826351867,2.75488234968746,3.66477206268986,1.62396928821263,1.87402210834658,149.420000493526,12.3399999141693,20.2723527515636,82.005883025115,2.23529414043707,26.291764680077,128.020000677446,12.1676469725721,57.1841167421902,17.7133923884361,20.8318819999695,20.8504862520016,20.9356642552082,20.2841929828419,19.5983911919438,17.6623654731294,17.237828458056,14.8348144727293,16.9506451083768,28.0366668701172,26.6417370455297,29.0138207907373,31.0797056871302,30.5952285666871,27.9976227319583,26.6909718314382,23.3465995867595,5.92838709981691,15.4216669400533,14.6630804319106,16.7480126687244,19.2376467199887,18.7432220596114,16.69895780864,13.9098062949743,10.2630872667863,6.58077337714871,14.0473032853577,13.1946799490515,15.0820388919063,17.1686464861742,16.6914321647213,14.5351322646266,12.9234739672045,10.2993285577833,0.672569122324238,1,1,1,1,1,0.994932126289964,0.947361454583103,39.855785,-83.66477375,2015,"OHH1",12
"B73/PHN82","NYH1_2019",23.95,695.0800263168,8,4.5,267.33333335,149.33333335,71,70,3.74249998852611,3.13750004023314,5.75382418421519,3.19318469405372,5.05499997505775,4.67964498742798,3.14173431505368,2.11561926224602,4.09564599909039,119.759999632835,25.1000003218651,83.0561534670683,110.787691554198,10.5969229478102,60.8353848365637,169.678460007677,49.6684614184957,126.198460106666,19.3120462298393,22.906525015831,19.4055643197987,20.0954846191366,19.5441625057123,18.4327194563736,14.7868750412398,11.8266811133142,8.21836269058601,18.6993749439716,22.8587503433228,22.9010546045212,27.5168322059324,28.2501282325158,26.2428401066707,22.0298851708133,19.800822747137,11.0057352093984,7.84562503546476,10.0637499690056,12.2881303876188,16.102631765372,16.0733334345695,14.3993490828565,10.6740678622988,8.35750533580157,1.63569085205791,7.63952840037155,9.77521380841136,10.4905594472129,14.0585405915596,14.3930059612616,12.7382854892206,9.76289549498727,8.6764710214225,3.98046667720391,0.838560268548982,0.991875007748604,1,1,1,0.934962265626692,0.800347461722585,0.399612351739001,42.7288875,-76.65152084,2019,"NYH1",25
"CG60/LH162","MIH1_2016",5.3,686.06972967936,0,2,157,94,54,53,3.21387092721078,0.372000002861023,1.27766823751149,2.07214459371672,0.20476189870683,2.3826363414913,6.27786691564838,3.12959525082612,4.11573424348527,99.6299987435341,1.86000001430511,16.7785713445573,74.4033328010922,0.614285696120489,24.3414283479963,217.368091578285,23.8857143783853,123.581428226261,20.0448123255084,22.6962894439697,22.5746065354076,21.1906692752228,19.6251171808394,19.4147049585978,17.4353601100157,14.1652357247952,12.412394394877,17.7432258052211,29.2099998474121,25.5794776543011,28.1508514012466,27.2354765089731,30.3278356370472,28.2729452857857,26.6388532040611,22.5021940360482,5.29967743350613,16.3360000610352,11.9036117370239,14.7044761053872,15.7457937664456,17.5267100049304,16.2551167156484,15.5865084050104,10.8682508092492,6.61582777611151,14.8990897437943,11.6236597478117,13.829435271034,13.7090853107975,16.0158399076304,14.4864957883775,13.4826500001342,10.0912945511251,0.734400921702934,1,1,1,1,0.999987732756559,0.993265589821636,0.936590208093553,42.41206675,-84.2952625,2016,"MIH1",4
"B14A/MO17","IAH3_2017",22.3,750.42899137536,0,2,229,110,65,64,4.15375001356006,4.4766666730245,3.4047203572685,2.20734772714641,0.783636364069852,2.62827690366871,1.89268759309194,2.32887627154288,1.79425708641638,132.920000433922,67.1500000953674,54.0395462729714,78.3386354229667,1.5672727281397,28.0268186547539,71.8554548783736,19.050454611128,54.6954545270313,16.1449318900704,17.7512798945109,18.8930383212172,22.0798596418591,20.5492319916234,20.9938448555213,19.8185231453598,17.2291948925967,15.6432695544943,15.8431249856949,15.5066665013631,21.4265257838852,27.7149819965626,28.4552275339762,29.9007438281351,27.6545797965623,25.6472085203787,25.1376095450402,4.41906251013279,4.14133334358533,9.7822950630621,13.5652693310904,16.0590146888386,16.6123347960228,14.8096001989659,12.7460062737417,11.2819135157885,5.81888047108444,5.62230390959762,9.38713007160935,13.2881535043606,14.425618602213,15.384310503314,13.6587126105144,11.8979604849715,11.2922363413291,0.568604913274092,0.570380948412986,0.879734313174242,1,1,1,1,0.979205627165315,41.9758706,-92.24318881,2017,"IAH3",14
"LH195/PHZ51","OHH1_2017",17.7,754.93413969408,0,2,229,110,65,64,4.40193544664691,12.2957145145961,4.29988011636302,6.25204526150179,18.3629999076327,4.89239555808631,3.19531729304598,3.431958171936,3.79468875169434,136.459998846054,86.0700016021729,53.6394991636276,223.820499566197,40.8649998873472,50.2680010676384,124.096999973059,30.9940001368523,115.432001267374,19.0647902027253,19.0342750549316,21.0022649127082,20.1503275418602,19.6955542882284,18.8958009767532,18.6983791102966,16.0400154962856,13.8551068441073,20.4790323934247,25.431428364345,25.2400270438728,27.2580381755079,28.0954167842865,28.7327046767148,26.3045644702003,24.6939537054533,24.2572073293261,8.01193550132936,13.4499996730259,12.5988240944101,15.9167310176739,16.7535833597183,18.3982409451225,14.9768818892318,13.115358865932,11.8128440258155,8.40722803270821,12.106521996237,11.6372129301586,13.8931373004777,14.6377478966591,15.6322437267281,13.0725287527822,11.6601203930959,11.1333327080566,0.85352534955273,1,1,1,1,0.996926047829299,1,0.964956739838543,39.855785,-83.66477375,2017,"OHH1",10
"PHW52/PHN82","GAH1_2017",13.375,735.62636118528,0,2.75,175,70,61.5,61,1.92968747392297,5.73000001907349,0.343252103133586,3.44928658477499,2.10761896769206,4.58677246557972,5.88411512674098,3.46279361891368,5.79033786946544,61.749999165535,45.8400001525879,4.18523797534761,115.462857757296,3.16142845153809,44.2476188795907,164.396192306564,18.0028569698334,179.500473953429,16.8024901300669,20.1373232603073,20.1734204678472,19.2707622430691,21.2048014383467,16.6798162969963,18.1585808485972,19.3751740168011,17.7370458682012,23.5584374964237,24.7612497806549,28.7388454609341,29.029321913538,29.7903175656758,30.1182594269041,30.8846873649595,33.0415872604128,32.3946695928383,8.65499997884035,9.07374995946884,13.8160128648753,15.9456908272656,16.8514287131173,20.0705928338268,21.0580026966177,22.2436510176886,22.0341169412967,9.93516597929203,10.3201673994425,13.6844889022653,14.8136399848139,15.5596332003494,17.1078969773464,17.9595982908683,19.6134998817186,19.1980031961101,0.883437499936138,1,1,1,1,1,1,1,31.50794425,-83.55854475,2017,"GAH1",13
"CG60/LH162","WIH1_2017",15.35,725.6506756224,0,2,201.5,94.5,63,64,3.89483860231215,1.69400000274181,3.49156577965838,6.2519143171591,26.2978026361176,12.3515148027377,1.78262104808487,1.03121945111417,2.01941396652895,120.739996671677,16.9400000274181,60.7700004577637,238.208635676991,55.4840900247747,148.218177632852,77.271818082441,11.1354542618448,60.745454186743,17.960097635946,21.5698625564575,18.7158230082745,20.7331612703905,19.6944010185473,19.5872614094705,19.1692292014325,15.6915139185436,12.2199858597646,16.0345162114789,20.211999797821,20.2299808812544,26.7106026620157,27.0055303284616,27.1642803278836,24.808088372499,24.0364187930535,21.8450449974554,3.37838715026456,6.26000000238419,9.26856570777133,14.6662764981358,15.355757669969,16.2110985698122,13.1758958125295,11.5252111876034,9.50942962348574,5.50743496208047,7.7204112419547,8.66460263667967,13.1489127920754,13.4606804243422,13.904384596596,11.6785635653614,10.9014606457238,9.60826542273389,0.606900931675039,0.87353569992951,0.867893568108202,1,1,0.99822024159571,0.971647402783493,0.89569217047159,43.05668125,-89.5308135,2017,"WIH1",5
"B73/PHM49","OHH1_2015",17.85,755.57773231104,0,2.5,255.5,111.5,65.5,65,4.82000001592021,2.05666665236155,1.8016670612875,2.43025542541639,2.07058826351867,2.75488234968746,3.66477206268986,1.62396928821263,1.87402210834658,149.420000493526,12.3399999141693,20.2723527515636,82.005883025115,2.23529414043707,26.291764680077,128.020000677446,12.1676469725721,57.1841167421902,17.7133923884361,20.8318819999695,20.8504862520016,20.9356642552082,20.2841929828419,19.5983911919438,17.6623654731294,17.237828458056,14.8348144727293,16.9506451083768,28.0366668701172,26.6417370455297,29.0138207907373,31.0797056871302,30.5952285666871,27.9976227319583,26.6909718314382,23.3465995867595,5.92838709981691,15.4216669400533,14.6630804319106,16.7480126687244,19.2376467199887,18.7432220596114,16.69895780864,13.9098062949743,10.2630872667863,6.58077337714871,14.0473032853577,13.1946799490515,15.0820388919063,17.1686464861742,16.6914321647213,14.5351322646266,12.9234739672045,10.2993285577833,0.672569122324238,1,1,1,1,1,0.994932126289964,0.947361454583103,39.855785,-83.66477375,2015,"OHH1",15
"LH212HT/LH195","GAH2_2017",17.7,731.12121286656,0,2,229,110,65,64,5.21580650729518,2.5900000504085,0.877047008250183,6.97642455518673,36.6657152743567,11.6899047257408,2.7666341943209,6.71771433921087,5.23728113098445,161.690001726151,18.1300003528595,10.9880953289214,219.498574256897,69.630001999083,116.642856779553,77.5566674754733,33.5885716960544,162.355715060518,18.5937584292504,20.9798694338117,21.9819358919917,18.5456761912278,14.3399090085711,17.7663424007476,19.7852386843795,18.8635498507493,17.5761632626324,25.9351613444667,24.1757144927979,30.4733941834677,29.3125237180294,29.5290477389381,29.7298041853324,32.7260150193597,32.1051154233971,30.7678495222522,12.1722579925291,9.93857138497489,16.1532482752429,18.0635315609615,20.4347616377331,19.5111429658516,21.2099278742435,20.8635237298044,19.9554377788772,11.9095461609865,10.3853811467122,15.4565539701251,15.7524985099092,16.9819046883356,16.6341283702326,18.9016913140486,18.4715566451785,17.4124163797098,0.999631334559709,0.985714284741149,1,1,1,1,1,1,33.727145,-83.29821525,2017,"GAH2",13
"LH195/PHZ51","OHH1_2015",17.375,777.45988128768,0,12.25,259.25,114.75,67,67.25,4.82000001592021,2.05666665236155,1.8016670612875,2.43025542541639,2.07058826351867,2.75488234968746,3.66477206268986,1.62396928821263,1.87402210834658,149.420000493526,12.3399999141693,20.2723527515636,82.005883025115,2.23529414043707,26.291764680077,128.020000677446,12.1676469725721,57.1841167421902,17.7133923884361,20.8318819999695,20.8504862520016,20.9356642552082,20.2841929828419,19.5983911919438,17.6623654731294,17.237828458056,14.8348144727293,16.9506451083768,28.0366668701172,26.6417370455297,29.0138207907373,31.0797056871302,30.5952285666871,27.9976227319583,26.6909718314382,23.3465995867595,5.92838709981691,15.4216669400533,14.6630804319106,16.7480126687244,19.2376467199887,18.7432220596114,16.69895780864,13.9098062949743,10.2630872667863,6.58077337714871,14.0473032853577,13.1946799490515,15.0820388919063,17.1686464861742,16.6914321647213,14.5351322646266,12.9234739672045,10.2993285577833,0.672569122324238,1,1,1,1,1,0.994932126289964,0.947361454583103,39.855785,-83.66477375,2015,"OHH1",11
"PHP02/PHB47","NEH4_2015",14.3,796.76765979648,0,2,260,130,65,51,2.82187503576279,0,3.66820742352442,2.01257690040973,1.95124995708466,2.65489388379184,1.68415826157898,0.190010424756578,1.16607996679602,90.3000011444092,0,33.8900003433228,59.0468759536743,1.95124995708466,28.0499994158745,59.1787505969405,1.40187505632639,35.0974998101592,18.8422000855207,27.3106449127197,20.4134253279729,20.5286281482927,19.0307229757309,18.813031223326,18.3382655918127,17.1540727261986,12.6848920344665,24.0143752396107,30.7939994812012,29.6609177177603,30.9071284124221,30.8125007152557,28.6515303485321,29.5029241370045,26.7377680846623,20.9326217885139,13.3584374412894,15.5979997634888,18.4981334997849,19.2687880079637,20.2603126764297,17.3435890080351,16.2431668454296,11.0441755558763,7.09840123026522,11.803427087215,15.4488743735817,16.1431025443756,17.0943625526438,17.5373660088698,15.1870260704456,15.2510618169068,11.8830325749214,8.61837553606536,0.931774556370718,1,1,1,1,0.972846510346512,0.98414434868665,0.784438609048873,41.16732275,-96.41663225,2015,"NEH4",8
"LH74/PHN82","MIH1_2019",23.05,691.21847061504,1.5,6.5,228.75,117.5,66,64.5,3.72032261471594,6.18999987840652,7.08189690006846,2.96191688400863,8.70871785970835,0.913986012652204,1.81721631743115,4.46805386621966,4.01325090748622,115.330001056194,49.5199990272522,106.890000159924,93.8269234987406,16.8199998415433,10.8061538292811,84.3607687308238,63.3192304020318,120.886153043033,19.3198693644616,19.659396648407,18.5197910648149,21.0044455619677,17.0154062173305,20.0474262743285,16.9686392658752,12.0289328686849,10.8756886384412,17.6070966566763,21.672500371933,22.6907490026934,28.9340565953721,30.5653851582454,27.9492195425056,26.0065468645292,21.5026069405808,17.4653024474005,6.21032255887985,10.3187500834465,12.2184779380965,16.8660470129547,18.7433329973465,15.8530651856136,14.0059099463102,11.3257615513,7.16116346403536,6.87677389559506,9.31438263555815,10.3976173052964,15.104532747528,16.8626129686687,14.1939107322347,12.5855318269076,10.0060636582943,7.51165680343827,0.696382483441709,1,0.995173883167682,1,1,0.988904737193903,0.895422602144151,0.709438731296917,42.70789125,-84.4706665,2019,"MIH1",12
"PB80/PHZ51","MNH1_2015",15.3,729.19043501568,8.5,24.5,256.5,139.5,74.5,74.5,2.67645166525918,6.10285712991442,1.58721610445111,4.7077263256623,2.09382353109472,4.68577535931227,5.9350156688025,2.22326150676053,2.19878814463244,82.9700016230345,42.7199999094009,19.590000131551,155.007059007883,3.96529412269592,52.2323524741565,227.094708481256,20.9011769756017,67.401177584358,19.816934616335,15.8754692077637,21.6281845751118,20.6523619261065,17.2143456515144,21.1212332316686,17.7408483022691,14.5374503953005,12.0629753461599,17.4338709308255,22.6300002506801,27.2892179925706,28.4642367103754,28.3652941759895,28.0789971632116,26.1408952283773,24.7325950747879,17.9009570518097,4.56741930688581,13.7342856270926,14.30007362468,16.8971689663296,18.654117640327,16.1974599531415,14.7564351113732,13.5728072906729,6.63464769243789,6.28381609962703,10.8743797711898,13.2690560805916,14.8702380832727,15.6411451436446,14.3539204313244,12.9900637188381,12.4683668720892,7.55733067966644,0.72298386648366,1,1,1,1,0.97770300313998,0.878626049359361,0.7212296457923,44.07038575,-93.53519625,2015,"MNH1",11
"CG44/CGR01","IAH1_2017",15.8,722.75450884608,0,1,172.5,74,65,64,3.40562492981553,4.9653845842068,4.75627611908435,1.83360658706262,3.81409099607757,2.22148488699788,3.67080832802223,1.81325483980117,2.34747311753145,108.979997754097,64.5499995946884,71.2827261577953,63.7872725833546,4.17772737416354,22.8386367667805,118.906818606637,13.7622724988244,72.0368181575428,16.1986516714096,17.4117801372822,18.8419865113308,22.0772261853777,19.5709462599321,20.6423577019663,19.6533487855188,19.1238258402757,16.8780910515948,17.1134373545647,15.3784616176899,22.9595167923024,28.098072667094,26.507423805468,30.2796059126806,29.7994892260695,26.9283494144291,26.376740509697,5.4131250269711,4.92307697809659,11.465490162608,14.1696252786347,11.6175757754933,16.6577523703527,16.6650409071547,13.3875722172112,12.4151066155028,6.53077833948335,5.76856381165309,10.4537021498713,13.7196511279626,11.9478337828281,15.6426259768559,15.399646170179,12.7123989246095,12.1737806011652,0.629988832066634,0.555054952155103,0.946458761983939,1,1,1,1,0.998130952344312,41.19924609,-91.49402296,2017,"IAH1",13
"F42/MO17","KSH1_2018",14.25,780.99964068096,11.25,8.75,229,110,65,64,0.123225804298155,1.30900002717972,2.83506375319456,1.2459214324312,6.19076948899489,0.847777789474553,5.1218265908424,3.69192301692107,0.576771714573463,3.8199999332428,13.0900002717972,33.3599996566772,37.3992318190061,6.19076948899489,7.63000010527097,140.858461535894,22.1515381015264,17.8223077677763,23.1370286018618,19.2060641288757,23.7691797272003,25.0194683662448,21.7231781299298,23.9963390562269,18.765791145748,18.1217001366528,19.2415732235431,22.7570966443708,20.7710000038147,27.0889297319322,34.1348485103316,36.7992310157189,35.2770086761214,33.1767755582226,30.5195789686489,31.4897389333834,3.91580647806967,6.77899992465973,10.7568288663889,16.6038358814018,18.2684613741361,18.3700854309604,18.8712576128239,16.1529120385865,15.043086003567,8.2550349486535,8.26760082812303,11.9055120329443,16.7397208326489,17.8402190283281,17.7325687288557,17.5454570775247,15.4375755545796,15.4362136309613,0.847615199154972,0.789999990803855,1,1,1,1,1,0.970122946724322,37.810107,-100.775188,2018,"KSH1",14
"B37/OH43","NEH2_2015",14.6,755.57773231104,0,3,229,110,96,92,1.35875000804663,3.75599999427795,3.0312642160566,1.28609090161586,0.286666671435038,1.65718752741814,3.75175936234048,0.157499998807907,0.616713690613547,43.4800002574921,37.5599999427795,66.2900002598763,43.4999997615814,0.860000014305115,16.5718752741814,117.643123269081,0.944999992847443,18.9906244128942,19.5378324687481,19.9865628242493,18.8528682006309,23.6515267445892,23.2123234272003,22.7312117993832,19.6276781342462,21.6194818473998,18.2072823920237,15.038749919855,23.1520002365112,18.6692758285186,30.1456176773453,32.3751038511594,32.6086250662804,30.3648981920793,32.3132081599463,28.3144870604238,-2.42656248784624,5.23099999427795,5.26405106663817,13.5723423028142,16.5714581012726,16.1308747947216,15.9646130974384,15.5681904724666,11.1963467507293,4.19248534704874,8.47829673153606,6.89490435408322,14.3761050844018,16.560327995662,16.4700800876987,15.3434088039049,16.0526129070914,12.8317300494645,0.519497764022422,0.976535719633102,0.809891264926545,1,1,1,1,0.92202169835659,41.0514495,-100.7471915,2015,"NEH2",18
"PHB47/PHN82","NYH3_2017",20.05,741.41869473792,1,13.5,251.5,116.5,74.5,74.5,4.98580635363056,2.59333333704207,3.4402922444776,5.9245534070043,1.05166665712992,3.38114006522593,2.2324385401157,2.79862502887845,4.01837100812825,154.559996962547,23.3400000333786,54.1374994516373,222.242500424385,2.04999995231628,44.4449994266033,102.857500582933,24.5575002506375,123.662501238286,18.9189640937313,18.2290218141344,21.600702212488,19.423770573439,18.7574106454849,18.6598477415986,17.2884684616096,13.4743607759476,9.52887015240167,16.549032380504,19.8011112213135,22.3479983508587,25.7161786980239,25.8875002861023,25.2532692400964,23.4987706805266,24.2957499265671,19.1539193195681,5.23967740420372,10.2422222031487,10.5661832437504,15.2041484381282,15.9916667938232,14.888186783581,11.7096748409168,11.1405000209808,8.07706999143045,6.26789810278045,8.57074783107705,9.8009436942741,12.8252190591825,13.147223213623,12.447155484198,10.6753052079461,10.8600266816938,8.09342402838055,0.638917053418775,1,1,1,1,0.987943118304987,0.977741071156093,0.791930494543462,42.73339625,-76.652747,2017,"NYH3",11
"B37/OH43","TXH1_2015",11.25,735.62636118528,0,2,171.5,79,67,66,2.43533335079749,0.886666695276896,4.52938673555072,2.99221044445753,0,5.40749995274977,3.23624041097661,4.52841665893793,2.20566666349769,73.0600005239248,5.32000017166138,54.1699997186661,113.789999812841,0,59.4824994802475,89.1124981939793,24.5449999645352,66.1699999049306,13.3812851905823,15.8030840555827,13.7374967764585,19.4828948425706,22.4659889936447,19.9646397883242,19.5484858334502,19.5703149755796,18.0313507497311,19.6199999491374,26.2683331171672,25.848902795857,26.4780255046089,30.3717709779739,28.7953975634141,31.9014051962311,33.4807082811991,34.3551666140556,6.12233337461948,12.7449999650319,15.3915533218787,13.6943906096253,15.8338542282581,15.9580683003772,20.411723735246,21.4527084350586,23.9322083592415,7.516768443821,12.2822135372146,13.060308889571,12.755099602335,15.355928811491,14.6742697351608,18.1104056886089,19.3060311124189,20.3777584063178,0.822428569446007,1,0.992325396748542,0.994092814847258,1,1,1,0.999431249499321,30.54708625,-96.43393475,2015,"TXH1",19
"CG44/CGR01","ARH1_2017",14,778.7470665216,0,2,189.85,93.95,63,58,3.05812502466142,3.53285707746233,9.87168867799627,6.40516052792204,0.516363615339453,5.98817166776368,5.1192324932667,3.10231815251437,5.34158355959,97.8600007891655,24.7299995422363,132.032728541981,211.621818423271,0.569545431570573,54.3681813803586,136.891365343874,16.0827271288091,165.58909034729,17.1397498100996,16.5534388678415,20.3842401109389,18.762255266809,22.8136479348847,19.0696450768095,19.5355347466332,19.7719311078389,17.1297293478443,24.6090626120567,23.9600004468645,24.7705700575015,28.0660565234123,30.3546969095866,31.5146664012562,31.305776363096,32.7845913251241,30.9158799263739,11.9174999967217,14.1785715648106,11.8445801043321,17.6085024623292,18.9724999485594,21.3061564166136,21.3997927531552,22.5053331635215,21.6223753764133,11.1639708952952,11.7757805455927,11.2265518633486,14.9753735417966,16.7435951634837,18.4104114089349,18.3304942572969,19.547681258962,18.2245760771495,1,1,1,1,1,1,1,1,34.7272515,-90.76032575,2017,"ARH1",14
"F42/MO17","WIH1_2020",22.45,683.17356290304,0.5,0,289.25,158.75,76.5,74.5,1.59838711061785,6.50714300359998,4.41352047113916,5.45542643820132,9.57615368182843,6.84825181127428,1.84719881902334,1.30244238470478,3.23367497316562,49.5500004291534,91.1000020503998,54.0530769802057,191.976921805969,14.7699995774489,75.3307699240171,75.5292314841197,17.1992309551973,99.2976933901127,20.3303611970717,17.7093844073159,19.6377469573902,21.7192805749651,19.4719141446627,18.0877809324465,19.5250672167142,17.0227731666303,12.7424436758233,13.8093548359409,15.7821428094591,24.7187017149516,28.033127103902,31.3961546971248,28.1712590197583,26.9553556739421,26.2427392980096,20.067150654637,1.33290325153259,5.15000006104154,13.2586988238647,14.9072456821681,18.8092307677636,17.6374126180902,14.6682007343716,13.0054438131186,8.42975850841346,4.40407542638638,5.92012185452547,11.7383860300671,13.8805458366735,17.1295568336927,14.9524727582334,13.3020801105566,12.6359188849815,8.58850906873917,0.464815660178112,0.623010193140303,1,1,1,0.987099279404792,0.934776512387789,0.808464704181206,43.05505505,-89.52853825,2020,"WIH1",15
"CG119/CG108","MOH1_2_2020",16.08,731.12121286656,1.2,0.6,166.8,77.6,46.8,45.6,2.76562495436519,8.11999974250793,10.2353328673319,1.9001973638123,6.86294118095847,7.49632206065132,3.61617107977626,2.90162677764285,3.30378619704459,88.4999985396862,40.5999987125397,96.124117121977,56.3941176358391,8.45588235294118,68.0111766142004,117.808234836797,21.5270588468103,101.327058393289,18.7546628713608,21.2521137237549,22.5899971099444,20.2861716619134,20.6427094328637,17.4883495144949,18.1590292123562,17.201188402901,14.6933516897784,22.1865625679493,30.7699993133545,28.8488290507166,30.7433971374194,30.905587869532,31.2308437009688,28.7478064862917,29.2169789190295,24.1743630282567,12.2309375330806,19.2180004119873,17.3051670261327,20.0610583041747,19.70343170914,21.5044441925792,18.1515339525016,17.4034669344519,12.7162555993923,10.4179893534471,16.9939998626709,15.181783668694,17.4222706430064,17.304509789336,18.3742967355387,15.5665539026577,15.5350905066488,11.4110544222645,0.936383935755917,1,1,1,1,1,0.996694042174483,0.965786214348013,38.8958275,-92.2071575,2020,"MOH1",14
"PHN11_PHG47_0251/PHB47","ARH2_2016",13.1,731.12121286656,0,1.5,191,99,62,60,5.78093742206693,12.265000184377,3.71212020820834,7.02228860006285,1.10500001907349,0.295568184419112,1.93128791351543,1.45469692692612,6.28083569178483,184.989997506142,73.5900011062622,50.6740907539021,233.205909837376,2.21000003814697,2.36454547535289,51.2972726388411,7.65681795640425,194.70590644533,17.7645711898804,17.2271962165833,20.1405853736324,19.8064448117891,18.8826211727027,19.79738723148,18.6944065441324,19.8885487758752,15.607143551723,21.0278125703335,25.6983334223429,24.8822470662624,27.5574788870291,33.1628784988866,33.3801704536785,32.4072806330723,33.7124844464389,31.3768475300406,8.51718754693866,14.1383333206177,13.2669300286413,16.7583488235741,22.7915153503418,23.2152275497263,22.5635331248055,22.9502423373136,22.3752492012516,8.62630812400512,12.3761800663264,11.7581879605187,14.4664485465038,19.8918990278765,20.2426308826887,19.4302420192383,20.2373530270853,18.8112695233672,0.958649555088154,1,1,1,1,1,1,1,35.838614,-90.66530155,2016,"ARH2",8
"B37/H95","WIH2_2018",30.75,736.48448467456,5.5,2,270.333333333333,140.166666666667,69.8333333333333,69.3333333333333,3.14419357238277,1.76857142789023,3.7850711937244,5.16484622721252,1.71595238503956,3.40222404942368,3.04494882245682,9.61559933750402,3.37177261638065,97.470000743866,12.3799999952316,46.2814290182931,179.869998318808,4.56071427890233,37.7064288343702,131.482145317963,73.4771447862898,101.717141609107,19.2573341092756,21.1210829871041,21.4752587688556,21.2745392970238,18.3171726181394,18.5302155637122,18.6607088369069,13.625803150659,11.3718547526592,15.5287096115851,24.665714263916,26.0917028350164,28.2348686412978,27.8659524917603,27.6583875546724,26.7064113625472,24.9215236168329,17.9686743887339,3.195161296956,12.9500000817435,13.8890289352891,15.1338539459878,17.4050001189822,17.0648214997667,13.7709706188762,13.5657747038241,6.88716511658397,5.28984108241052,11.5719513224068,12.6458491000419,14.0894685781005,14.7169908688233,14.5010708096508,12.893566291538,12.2339728232487,7.2792037808306,0.580092163387394,1,1,1,1,0.981419112725804,0.932006969360863,0.738663650155215,43.38075,-89.38645,2018,"WIH2",21
"W10001_0022/PHB47","WIH2_2016",18.25,792.90610409472,0,5,276.5,139,59.5,59.5,2.18548383155177,6.56333343187968,3.44709445848626,4.12469378805335,6.70715902429638,6.1588801108116,5.9452931370305,1.65427351296643,4.75874244467604,67.7499987781048,39.3800005912781,44.4554541761225,149.271818908778,18.9127270525152,63.8631812875921,228.761364199898,17.1177273826166,143.160909706896,20.0716181416665,17.6468149820964,20.4812055398289,20.037160747392,21.0009714148261,18.7397162859105,16.3191195187663,14.9467084400859,10.3303758997605,18.3467741935484,27.6566664377848,25.5962674903388,27.3504729025317,29.4464014732476,29.1534918075751,26.7093807853849,24.2132901889739,20.3726808053147,4.8400000141513,15.2516667048136,12.4366041874811,15.2184635103349,16.1839015628352,17.8104753683421,15.2982692422456,12.0891496999401,9.53777032181792,6.76617685026666,13.679230162364,11.7742945200385,13.6256578041453,15.0809804038395,15.5695050800475,13.3573766462884,11.1053684800171,8.84996703908283,0.729688938724281,1,1,1,1,0.998061417783429,0.979766621647087,0.886131911688794,43.32649075,-89.33882925,2016,"WIH2",5
"LH74/PHN82","KSH1_2016",17,826.37292017664,0,2,150,70,93,93,0.381562503054738,5.59374988079071,9.0311369591709,3.98190999396102,0,0.897724768782806,5.01142138710802,3.32242425282796,5.67007326271352,12.2100000977516,44.7499990463257,140.950907804749,148.509091756561,0,8.37409110773693,139.43863695589,19.9345455169678,175.772271144119,18.4331542551517,14.0458284318447,18.3461373797249,20.8844651238299,22.7032874280756,20.5944180136979,18.3498667163808,18.1537938724865,17.325101912546,19.1512499600649,21.7012498378754,22.3390124406673,27.1937706264094,36.3127268877896,35.1754003625928,32.0107843193833,33.8563335245306,30.7689589111686,2.13062504353002,11.4649999141693,9.56823857872411,14.2621367966756,21.5872724706476,22.0435392319554,20.7806130140041,22.7113486636769,19.4913931130664,6.31585730010902,9.66729101728267,9.62689037894436,13.3541884288908,19.5659910681005,19.143975364632,18.068246454854,19.1205473197881,17.0374461461811,0.741573662447211,1,0.9212797776386,0.98604226771574,0.991287871402522,0.998977630941292,0.993550001780192,1,39.14480675,-96.62898225,2016,"KSH1",13
"F42/H95","NYH1_2018",19.15,731.12121286656,4.5,13.5,245,113,67.5,66,4.39451605658377,1.63714293071202,0.546464292223061,3.46126588411801,6.06226183686938,4.33806171800409,2.06754098122778,1.17745675837538,2.35952765513126,136.229997754097,11.4600005149841,7.34000012278557,113.544999405742,14.9578569275992,45.2728574531419,83.6371432329927,15.502142767821,71.2850001624652,21.1490579728157,19.519095829555,22.5001219716587,20.4901431167549,17.3790955884116,18.6235723626046,17.5443773478498,14.4230900554,11.1133368383172,16.4383870170962,24.3471430369786,24.4808438545453,28.4079325010235,28.4709526243664,28.8555878403899,26.2557771614117,21.2173011281591,17.5372396540769,4.18161290259131,13.1842857769557,11.788045655175,16.0297059635046,18.1516667661213,17.5342846802303,14.3751012744368,9.64963466711058,6.53251005449173,6.04617210207382,11.820705170323,11.1899352886346,14.5077669174471,15.3522370327055,15.2644147770615,12.8637381038892,9.17978873289114,7.08420156946025,0.564688940665552,0.946581643454882,0.988804239637421,0.998335459706735,1,0.984010820924294,0.898581806826226,0.740508559242307,42.72940418,-76.65161667,2018,"NYH1",16
"B14A/OH43","NYH1_2018",18.15,731.12121286656,3.5,9,231.5,108,65.5,63.5,4.39451605658377,1.63714293071202,0.546464292223061,3.46126588411801,6.06226183686938,4.33806171800409,2.06754098122778,1.17745675837538,2.35952765513126,136.229997754097,11.4600005149841,7.34000012278557,113.544999405742,14.9578569275992,45.2728574531419,83.6371432329927,15.502142767821,71.2850001624652,21.1490579728157,19.519095829555,22.5001219716587,20.4901431167549,17.3790955884116,18.6235723626046,17.5443773478498,14.4230900554,11.1133368383172,16.4383870170962,24.3471430369786,24.4808438545453,28.4079325010235,28.4709526243664,28.8555878403899,26.2557771614117,21.2173011281591,17.5372396540769,4.18161290259131,13.1842857769557,11.788045655175,16.0297059635046,18.1516667661213,17.5342846802303,14.3751012744368,9.64963466711058,6.53251005449173,6.04617210207382,11.820705170323,11.1899352886346,14.5077669174471,15.3522370327055,15.2644147770615,12.8637381038892,9.17978873289114,7.08420156946025,0.564688940665552,0.946581643454882,0.988804239637421,0.998335459706735,1,0.984010820924294,0.898581806826226,0.740508559242307,42.72940418,-76.65161667,2018,"NYH1",14
"B73/PHN82","IAH3_2015",21.95,695.72361893376,1,0,261.5,137.5,65,64,1.88812499120831,2.91357139178685,3.78481399490418,6.97192884345098,0,3.25750006437302,1.48738522759636,2.54144646929843,4.50744494696458,60.4199997186661,40.7899994850159,55.4399998188019,241.660000324249,0,32.5750006437302,50.3143747076392,24.6850003898144,138.775626681745,19.8017279356718,20.0399833406721,15.9141292010857,20.6828349141208,21.6913648645083,21.2442863583565,20.6378456393082,18.6830175797854,14.9219848873154,14.6418750584126,16.6814285005842,21.6371087993342,27.6137224668604,30.8788542747498,30.3035624980927,28.5962540049038,28.5165626687663,24.3338990757542,0.832500039599836,3.60071423649788,12.2454287241307,16.0517815224708,19.4736456473668,18.1100625455379,15.9931958270939,14.3037321656942,10.6490121472687,4.60513154837493,5.78749983119766,10.114657753447,14.1164012039241,17.1762499610583,16.2539166939567,14.5767076625307,13.9758338636144,10.8754278827313,0.501462055137381,0.634540812549542,0.981270752987184,1,1,1,0.968879462565695,0.933929792194543,41.97585629,-92.24291804,2015,"IAH3",26
"B14A/OH43","MNH1_2018",19.50625,692.18385954048,0,2,229.875,107.5,68.875,65.875,2.7938710316535,5.66428569384984,1.88138350844846,4.66962568011348,0.280777778890398,5.314848416261,5.50309775567603,4.90259317369494,1.74449034129874,86.6100019812584,39.6499998569489,19.6633331219355,156.026667060455,0.653333338101705,61.1846658706665,207.324669293563,42.5680015007655,52.6160005594293,18.6861717470231,18.6483766010829,23.2219031340296,20.2349813747085,21.884095509847,21.2045387879767,17.4384910052928,14.0280589904444,11.4776368163264,18.2458064786849,23.5114288330078,30.4956820770299,28.4029569689886,27.6728887134128,27.8828838203893,26.244249248564,23.4899370002514,17.2954946981698,6.62290317012418,13.3528570447649,16.1020055964721,17.0711162868408,16.2537779596117,15.7901464996916,14.8351560856314,12.4297014384783,6.3474709751724,7.12789266978397,11.1508268377611,15.4213678280709,14.9171949913789,14.1582048951777,14.1049189391121,13.0806653562654,11.2032413303021,7.12656051864639,0.79756912012254,1,1,1,1,0.978734696021031,0.910102722236681,0.699884152136365,44.07044721,-93.53494127,2018,"MNH1",15
"B73/PHM49","IAH3_2015",22.2,692.50565584896,0,0,266,144,65,64,1.88812499120831,2.91357139178685,3.78481399490418,6.97192884345098,0,3.25750006437302,1.48738522759636,2.54144646929843,4.50744494696458,60.4199997186661,40.7899994850159,55.4399998188019,241.660000324249,0,32.5750006437302,50.3143747076392,24.6850003898144,138.775626681745,19.8017279356718,20.0399833406721,15.9141292010857,20.6828349141208,21.6913648645083,21.2442863583565,20.6378456393082,18.6830175797854,14.9219848873154,14.6418750584126,16.6814285005842,21.6371087993342,27.6137224668604,30.8788542747498,30.3035624980927,28.5962540049038,28.5165626687663,24.3338990757542,0.832500039599836,3.60071423649788,12.2454287241307,16.0517815224708,19.4736456473668,18.1100625455379,15.9931958270939,14.3037321656942,10.6490121472687,4.60513154837493,5.78749983119766,10.114657753447,14.1164012039241,17.1762499610583,16.2539166939567,14.5767076625307,13.9758338636144,10.8754278827313,0.501462055137381,0.634540812549542,0.981270752987184,1,1,1,0.968879462565695,0.933929792194543,41.97585629,-92.24291804,2015,"IAH3",16
"B73/PHN82","OHH1_2016",17.75,756.221324928,0,6.5,279,138.5,65,64,4.32806446475368,1.77600002288818,3.91514520817277,2.58074065911205,3.89075762575323,4.1704949600528,5.07906928910772,3.9577419347548,3.61459481407063,134.169998407364,8.88000011444092,44.703636136922,85.9177285974676,9.33045467463407,39.9481819326227,160.185453747484,27.6977266587994,110.118636226112,18.3437643974058,22.2428304672241,20.7314695601022,20.3598251803728,19.1523341554584,18.8282464220066,16.7204849062197,17.9873095465335,14.717978926255,19.6358064528435,29.6320003509521,26.5695358893096,28.5926358759461,29.5910605517301,30.6928383605649,29.2168918167121,28.2718868666116,26.3058832172308,8.12096774674231,16.8959997177124,14.973912901117,16.7052856168403,18.3031819083474,19.7444342603587,18.9160148979259,15.4450083848343,13.402624611054,8.11765705231608,15.3272200928741,13.170280569172,14.8167815407942,15.9685705423992,17.2330323566172,16.1171316077875,14.2150247381021,12.5845870964483,0.859331788177589,1,1,1,1,1,0.999172077691259,0.989049277132183,39.860924,-83.6755995,2016,"OHH1",27
"TX951/LH195","WIH2_2020",32.375,689.28769276416,10.625,0.25,283.125,162,77.125,75.375,1.1422580634394,7.375000166893,3.77260581252768,4.52814362453003,15.9141182057998,3.015240613152,2.84839565074973,6.55966530763758,3.07398353471626,35.4099999666214,73.7500016689301,42.9699998795986,163.85058797107,31.017648192013,33.167646744672,117.769998585477,59.8417637593606,94.4582346818026,20.7395305633545,16.0435289859772,21.2335467472143,21.5809324497532,19.013702953563,17.8857325232603,19.3201351466252,13.5754002692457,12.272545038289,13.5699999486246,18.9109997749329,26.0938682995642,28.2322474952916,29.4664707183838,27.7542245528277,27.0932210297011,24.8050967536966,19.0018905391654,0.762580661163215,9.39699988365173,13.9989215824361,14.995891181738,17.745293897741,17.4980746284526,14.228931024336,13.2921105861382,7.45939913371709,4.17689721425512,8.10798713911043,12.6867740438147,14.0244437879696,15.6641148886257,14.7079063257275,13.2058895334275,12.2696061473378,7.83396025684224,0.443168195200578,0.881928566523961,1,1,1,0.990384734248417,0.880973436890861,0.780679990755404,43.294786,-89.383968,2020,"WIH2",11
"B73/MO17","MIH1_2018",26.1,657.75165453312,0,2,217.5,109,70,64.5,5.01225806436231,1.85857137611934,2.30331191463433,3.25951691756812,0,1.60415119941418,2.92619831356102,4.21553021195656,2.83007403868438,155.379999995232,13.0099996328354,29.7907139573778,101.442142486572,0,18.1621430601392,122.341429148402,36.1057143041066,85.3414282117571,19.7861952781677,22.4124417986189,25.0884598450622,20.2612458458858,21.4032746950785,19.637790091245,17.5968755658502,14.6465572693566,11.3353334319491,19.0825806125518,24.4042857033866,26.505944844571,29.8591727623839,29.2076190766834,28.9402475938851,27.0018144543115,23.872538371452,17.7408049407478,7.63354836452392,11.5700000354222,11.5577044046365,16.9041061443352,16.7723805904388,17.0588350970071,14.0643132941307,11.7732902665618,6.16018373429463,7.98558094772299,11.0854581776882,11.9601199609315,15.5131733342938,15.0676347638495,15.1176834662804,13.1591194742283,11.0037102398898,6.94989994028217,0.750656678482959,0.993928568703788,1,1,1,0.982067154646315,0.951173413871536,0.716707840592432,42.689234,-84.49755575,2018,"MIH1",13
"LH74/PHN82","INH1_2018",17.445,902.96044159488,0,2,201.5,96.5,60.5,57.5,2.76709675596606,4.68454543027011,2.73375390048216,2.60824530652539,0.180000007152557,3.09446822757501,3.41266052830668,0.546071421937878,1.65396234372977,85.779999434948,51.5299997329712,31.2821428435189,86.6164276429585,0.256428582327706,29.5207140445709,116.662143298558,3.92642852238246,50.8021421858243,18.9765172312337,17.8408018458973,18.4751701998396,21.9150256529472,21.1577316011701,19.5355219181826,18.8214706584226,19.1694656130187,15.7384382406504,16.02451609027,18.1199997988614,25.3303929748321,28.9585198406568,31.3696430751256,31.1569442451774,28.1676534533201,28.4284545963903,26.0020677371692,3.26064518622814,6.86181824857538,15.0860844704856,16.0398558950766,19.1849997384208,18.8880693408146,16.7300596399639,15.8360334996758,13.1883403760726,5.57293824336651,7.2592268351296,12.7539078233479,14.7671928829524,17.2773214067732,17.0584025262361,14.6386329372145,14.4000406059153,12.3991525306716,0.613732713553625,0.707012974596643,1,1,1,1,1,0.97996853755749,40.4787825,-86.9898145,2018,"INH1",14
"F42/MO17","ONH2_2015",26.65,733.6955833344,0,0,265.5,135,79,78.5,1.8764516076734,4.28266668319702,1.92800543142355,1.5826126299147,10.8026474223417,1.92320858157255,3.11438839923848,4.29490191426152,2.35638896233292,58.1699998378754,64.2400002479553,23.6199996471405,57.2247065095341,21.6052948446835,21.155294397298,115.501765766565,31.5629407868666,72.1164696006214,18.9538011243266,18.7670978546143,21.1774380927546,22.4541887468383,20.0410301545087,18.4543581008911,18.4537391837158,15.8007825277989,13.3453952521331,11.1738709480532,14.384666633606,23.912001533754,26.6127938053419,30.1517652623794,27.6505346247219,26.7798692937751,25.8746404647827,20.7920556972632,2.00677422361989,5.63600003321966,13.6495024548441,15.646883458515,19.3264702628641,18.5181282879835,16.7469462265247,15.4972220963123,11.0305445628027,3.74293843582847,5.61712950522319,11.5306591381689,13.5235311876304,16.7854267763897,15.1342186639452,13.9515349469929,13.1846932018183,9.37660248979743,0.276970042748385,0.589690475094886,0.985132405558233,1,1,1,0.993019958754548,0.931831119234909,42.45408625,-81.8816065,2015,"ONH2",16
"PHG39/PHN82","NEH3_2015",16.25,754.93413969408,0,0,229,110,65,63,3.23125005699694,0.918000030517578,0.565093977294324,1.28669219481814,3.19749999046326,1.39113635366613,0.258061220527439,1.47466718299048,0.155891338361218,103.400001823902,4.59000015258789,6.15000009536743,39.0474997758865,4.72000002861023,15.3024998903275,11.1799998283386,14.5287498533726,4.64812502264977,21.7912757396698,25.6944263458252,22.867254847038,21.8227166540337,15.2631763219833,20.5907900008288,20.0641284227863,16.2796896759308,13.5386177646183,24.2875001728535,32.6459999084473,30.5877144724061,32.6773132882273,28.9159377217293,29.872386563908,30.8070712705365,25.3903164518473,21.3201827481664,9.27874993439764,13.0079998016357,13.882863304929,15.7826582019676,17.055312037468,14.6271022883329,13.1831330674245,8.87540479026961,3.33401708582752,10.4625782483436,15.2833069114413,14.4546585187703,16.2200567809637,15.0938879027355,14.4964540010227,14.5302013640258,10.9003956474841,7.85174739566555,0.909587052451181,1,1,1,1,0.965712824155829,0.862507779461642,0.809539309558486,41.15824525,-101.9872958,2015,"NEH3",18
"PHB47/PHZ51","WIH2_2015",25.45,749.7853987584,0,0,252.5,133.5,65,64,3.12677418801092,2.65500004092852,4.10360587788369,5.33606725073504,1.86882352828979,3.14284756646862,3.06635871261474,6.46327216547577,3.42627895726651,96.9299998283386,15.9300002455711,53.5811765053693,186.069413493661,5.43588234396542,36.0370585217195,132.474706411362,52.801177333383,103.499412364819,19.6364621193178,20.5731145540873,21.5892617017256,21.0711117653476,18.3630023844102,19.2051703551661,18.5458357222424,13.68038167737,11.3747629179222,15.6409677997712,24.9766667683919,26.1182311514896,28.0952907748788,27.5158822676715,27.9129860396904,26.446906195709,23.9533144307555,17.6364554289999,3.35580646607184,13.6266668637594,13.8892249418098,15.1778817355709,17.2276475008796,16.9294609080024,13.7343451854096,12.6373390166389,6.34391337544442,5.37086055393058,11.9313890592981,12.6525642606911,14.0429022055175,14.4358603312718,14.5758898439564,12.7664601406529,11.4948295633928,7.02316371690367,0.588214291611575,1,1,1,1,0.979783321564246,0.914260834660243,0.715230077160589,43.3264485,-89.33359975,2015,"WIH2",6
"PHB47/PHN82","TXH1_2020",17.7,731.12121286656,0,2,191.77,54.61,65,64,2.28433333331098,0,4.61353044432774,2.94980638849668,1.36294118095847,6.7410564637935,2.84486909263784,3.82908822368173,2.301094230755,68.5299999993294,0,55.9705880389494,110.798823826453,1.36294118095847,71.5223531162038,82.3205902821877,18.9735293598736,69.2911760666791,13.9134384314219,13.3863348007202,15.088164375906,19.7933785915297,19.4813054589664,19.2417072595335,19.7711375744947,20.7945973003612,17.9149533192166,20.0226665178935,27.1799999237061,26.6081594159341,26.5247929322772,29.3961763568953,29.1298912438196,32.2266945953012,33.0307648490457,34.5951133136882,6.79433329502742,17.2040002822876,15.2455437040242,13.6535979675367,17.2968629762238,16.6133713076813,20.7334833408845,20.0616762385649,24.2403706907095,7.90124714145222,14.2729251500305,13.3803758475957,12.7673898940848,15.580090070985,15.1112637437017,18.3989215931754,18.5370137273102,20.5020201130472,0.821357143209094,1,0.992435039560276,0.993791593664641,1,1,1,0.999042533455884,30.53781575,-96.4283715,2020,"TXH1",12
"W10005_0107/PHB47","ONH2_2016",17.9,731.76480548352,0,2.5,228.5,114,71,66,1.4354838748132,1.74083332717419,1.46380271581139,3.02268752387098,0.150999999046326,1.134659085057,3.04644667291448,1.69350377760537,2.7651166654242,44.5000001192093,20.8899999260902,18.8460003852844,117.159000921249,0.150999999046326,12.2534999370575,101.044499832392,13.1614999294281,84.2689999639988,19.7256392663525,22.197474638621,21.6895404820885,21.7736589642688,18.986648273468,19.926783043688,16.6990616557451,15.6815267119186,12.907202899033,14.1074193523776,17.5808333555857,26.0075868502758,26.0489445105545,27.7809998512268,28.7928724592382,28.2480381953381,25.9224786042651,23.7534801354972,4.25741936266422,7.13166666030884,15.038288106176,14.1477788974648,17.7269997119904,17.3392411925576,18.2467210190433,15.9549466693556,14.1752601318334,5.1313461369791,6.98684124280148,12.8511639495985,12.6517199671275,14.842964971112,15.2602720524723,15.3178202053561,13.2653460605469,11.6762118863421,0.511244241010895,0.799851208925247,1,1,1,1,1,0.97582928193879,42.4530035,-81.88279875,2016,"ONH2",11
"B73/PHZ51","SDH1_2015",23.45,621.0668753664,0.5,2.5,173,92,74.5,74.5,1.89000003376315,2.68444448047214,2.84721252258907,0.928406020685138,1.08916666979591,1.21319316571409,1.12388611954165,3.99455887308239,0.570569385236773,58.5900010466576,24.1600003242493,33.8600005656481,31.148749768734,1.72000000625849,12.7762498259544,39.0256242752075,27.9024994894862,17.6581250801682,21.1644650428526,23.3864585028754,24.0305424227224,23.9487849489623,21.7433571616809,21.4249004835432,20.6021277482611,16.2774682791546,15.1857998291828,19.0429034079275,22.5888888041178,27.2082641597216,30.462296538412,29.5476047595342,31.8607387889515,31.4777038165944,29.4866452272578,24.897335823114,4.20870966368145,8.46888891855876,11.6908214324257,14.2596964676466,14.2906251748403,16.0653409849514,14.0226982217202,14.1157811645306,6.94290009588376,6.80751690571185,9.21066066646885,12.2739043710277,14.6760611342004,14.1888826298485,15.8143187909023,15.0055273063528,14.1753903925901,9.83480829576472,0.770253459523831,0.983690483229501,1,1,1,0.983472358000217,0.961069401861592,0.950039755118484,44.208745,-102.928745,2015,"SDH1",7
"PHW52/PHM49","ILH1_2015",11.5,740.131509504,0,0,245,107.5,71,69.5,4.34343749051914,1.29615384340286,7.654899738758,5.34311294988612,3.67499995231628,2.46729163328807,4.64726805078788,0.712819956420433,1.9519079085119,138.989999696612,16.8499999642372,99.8675005473197,177.342500980943,7.34999990463257,22.2056246995926,144.025624632835,5.03937511332333,60.0618743356317,19.4076893031597,20.2182017839872,17.5801237771363,22.592317287411,17.3577569425106,20.1224286291334,18.7955131537028,20.3716592643233,16.8099873810686,15.693750217557,16.2761536378127,23.8148397458069,28.7742831748073,30.2824996709824,31.917013724645,28.6589959642683,28.4854071997461,27.0987701069283,2.91687501082197,4.60230773228865,13.9338979229276,16.2604470887104,20.4774998426437,20.4138195912043,17.7954354684494,15.771967322202,14.6267217462101,5.33980004312561,5.92163564241169,11.5310566581626,14.7484368961231,17.379999756813,18.1717816417615,15.315695861998,14.446488469174,13.3642133617155,0.599162963767802,0.63684064575604,1,1,1,1,1,0.998281250042575,40.05982425,-88.23397575,2015,"ILH1",26
"W10004_0216/PHZ51","NYH1_2017",17.7,731.12121286656,0,2,229,110,65,64,4.75870958066756,4.13999998569489,2.95302494204596,5.71550623200518,4.32087287827144,2.70173206300027,2.61632844338824,1.02263058497457,3.61426843911905,147.519997000694,37.259999871254,45.1261899925414,219.922381491888,11.2685710702624,35.6957141047432,128.424762705962,13.3047620654106,110.890000857058,18.9744435125782,17.8100527657403,22.0763726985416,19.3839747471171,18.5614137876601,19.2253497353029,16.7138256789592,13.4350664320207,9.03754833240572,17.0696775221056,20.2333335876465,22.7745171017373,25.664886994249,26.7039681691972,25.3269152449164,23.2600727170173,23.9684052634079,17.611198191458,5.96419353350516,10.1900000042386,10.9371763249011,15.2036229448209,16.362936383202,14.6065672757674,11.3179340366411,11.5668532308226,6.66954478092379,6.64112734378757,8.72725367499605,10.1527049274721,12.7947461464451,13.7193522643836,12.3756778221065,10.4503517934596,10.9124923049431,7.23915136927561,0.685760370631646,1,1,1,1,0.982493677824514,0.953634339212795,0.701363064221172,42.72880835,-76.6515625,2017,"NYH1",10
"CG119/CG108","MNH1_2015",14.45,709.88265650688,0,0,210.5,108.5,65.5,64.5,2.67645166525918,6.10285712991442,1.58721610445111,4.7077263256623,2.09382353109472,4.68577535931227,5.9350156688025,2.22326150676053,2.19878814463244,82.9700016230345,42.7199999094009,19.590000131551,155.007059007883,3.96529412269592,52.2323524741565,227.094708481256,20.9011769756017,67.401177584358,19.816934616335,15.8754692077637,21.6281845751118,20.6523619261065,17.2143456515144,21.1212332316686,17.7408483022691,14.5374503953005,12.0629753461599,17.4338709308255,22.6300002506801,27.2892179925706,28.4642367103754,28.3652941759895,28.0789971632116,26.1408952283773,24.7325950747879,17.9009570518097,4.56741930688581,13.7342856270926,14.30007362468,16.8971689663296,18.654117640327,16.1974599531415,14.7564351113732,13.5728072906729,6.63464769243789,6.28381609962703,10.8743797711898,13.2690560805916,14.8702380832727,15.6411451436446,14.3539204313244,12.9900637188381,12.4683668720892,7.55733067966644,0.72298386648366,1,1,1,1,0.97770300313998,0.878626049359361,0.7212296457923,44.07038575,-93.53519625,2015,"MNH1",15
"PHN11_PHG47_0251/PHB47","NCH1_2017",17.7,731.12121286656,0,2,229,110,65,64,5.92935477918194,4.0971428326198,0.297958701828474,3.8605887218635,6.67380964188349,5.43709003925323,2.5136726855367,1.67758050992105,4.1404608350745,183.80999815464,28.6799998283386,4.0233332543146,115.819522829283,10.9095240093413,51.8457151651382,65.1576194422586,9.6885714899926,128.354285887309,16.8479611796717,19.660787991115,22.200774141109,19.2039608935909,15.7724910842048,20.5483989412822,18.7994722996277,19.2660637939868,16.4083516821151,26.0700000639885,23.5785715920585,28.1701127560743,29.7261436573129,31.0140472896515,30.4881481291756,32.5472167507523,31.9569590380403,30.4313824649231,13.6406452425065,11.251428263528,15.697578023226,18.8753639802544,22.5767457295978,19.8479362164856,22.2803962481536,21.2748593008167,20.8135023424702,12.5644242151493,10.4878498696085,14.2666594933888,16.3604491100229,18.7994083488786,17.2114406625619,19.3855749588707,18.573365725773,17.6526987585521,0.998329492208595,1,1,1,1,1,1,1,35.29663725,-77.5668065,2017,"NCH1",9
"PHB47/PHN82","WIH2_2016",19.225,782.93041853184,0,3.75,261.25,131.5,61.25,61,2.18548383155177,6.56333343187968,3.44709445848626,4.12469378805335,6.70715902429638,6.1588801108116,5.9452931370305,1.65427351296643,4.75874244467604,67.7499987781048,39.3800005912781,44.4554541761225,149.271818908778,18.9127270525152,63.8631812875921,228.761364199898,17.1177273826166,143.160909706896,20.0716181416665,17.6468149820964,20.4812055398289,20.037160747392,21.0009714148261,18.7397162859105,16.3191195187663,14.9467084400859,10.3303758997605,18.3467741935484,27.6566664377848,25.5962674903388,27.3504729025317,29.4464014732476,29.1534918075751,26.7093807853849,24.2132901889739,20.3726808053147,4.8400000141513,15.2516667048136,12.4366041874811,15.2184635103349,16.1839015628352,17.8104753683421,15.2982692422456,12.0891496999401,9.53777032181792,6.76617685026666,13.679230162364,11.7742945200385,13.6256578041453,15.0809804038395,15.5695050800475,13.3573766462884,11.1053684800171,8.84996703908283,0.729688938724281,1,1,1,1,0.998061417783429,0.979766621647087,0.886131911688794,43.32649075,-89.33882925,2016,"WIH2",13
"B37/OH43","ONH2_2019",29.15,684.78254444544,6.5,6.5,273.5,124.5,58,53,3.14874995499849,1.70714281286512,2.88478878582076,4.44773275651569,0.559615387366368,2.38131568065973,1.59106214821635,2.96387361569317,2.69305606778773,100.759998559952,11.9499996900558,28.2407691662128,155.597694811913,1.39846153901174,27.5169231799933,83.6784609051851,41.8892305951852,82.5030758701838,19.6654808521271,22.323328426906,21.1459014041639,19.5390308172258,19.2147134634165,16.2444364531594,13.8092693178142,11.1541441922889,7.41587626159587,21.2543748617172,24.3300001961844,28.1206539538635,27.659403107452,26.5880771050086,26.077726198008,22.1992560806981,19.8977064041247,9.54949914399213,11.3362499326468,14.4399998528617,17.9479147188671,17.4548671138241,16.3180770874023,16.9592551594127,13.1325379725634,10.9534959742334,1.83470634407937,9.51581683305432,11.9253960701515,15.1221785585939,14.6984840520084,13.6236651087795,13.694452367005,10.6453631912323,9.34459481385867,3.45337100836876,0.985803572194917,1,1,1,1,0.939863719862613,0.838029256830481,0.289255913067737,42.45221275,-81.881844,2019,"ONH2",20
"TX951/LH195","NEH4_2015",19.9,745.92384305664,0,2,280,150,65,59.5,2.82187503576279,0,3.66820742352442,2.01257690040973,1.95124995708466,2.65489388379184,1.68415826157898,0.190010424756578,1.16607996679602,90.3000011444092,0,33.8900003433228,59.0468759536743,1.95124995708466,28.0499994158745,59.1787505969405,1.40187505632639,35.0974998101592,18.8422000855207,27.3106449127197,20.4134253279729,20.5286281482927,19.0307229757309,18.813031223326,18.3382655918127,17.1540727261986,12.6848920344665,24.0143752396107,30.7939994812012,29.6609177177603,30.9071284124221,30.8125007152557,28.6515303485321,29.5029241370045,26.7377680846623,20.9326217885139,13.3584374412894,15.5979997634888,18.4981334997849,19.2687880079637,20.2603126764297,17.3435890080351,16.2431668454296,11.0441755558763,7.09840123026522,11.803427087215,15.4488743735817,16.1431025443756,17.0943625526438,17.5373660088698,15.1870260704456,15.2510618169068,11.8830325749214,8.61837553606536,0.931774556370718,1,1,1,1,0.972846510346512,0.98414434868665,0.784438609048873,41.16732275,-96.41663225,2015,"NEH4",12
"LH212HT/LH195","NCH1_2017",15.9,731.12121286656,0.5,2,222.5,109,65,64,5.92935477918194,4.0971428326198,0.297958701828474,3.8605887218635,6.67380964188349,5.43709003925323,2.5136726855367,1.67758050992105,4.1404608350745,183.80999815464,28.6799998283386,4.0233332543146,115.819522829283,10.9095240093413,51.8457151651382,65.1576194422586,9.6885714899926,128.354285887309,16.8479611796717,19.660787991115,22.200774141109,19.2039608935909,15.7724910842048,20.5483989412822,18.7994722996277,19.2660637939868,16.4083516821151,26.0700000639885,23.5785715920585,28.1701127560743,29.7261436573129,31.0140472896515,30.4881481291756,32.5472167507523,31.9569590380403,30.4313824649231,13.6406452425065,11.251428263528,15.697578023226,18.8753639802544,22.5767457295978,19.8479362164856,22.2803962481536,21.2748593008167,20.8135023424702,12.5644242151493,10.4878498696085,14.2666594933888,16.3604491100229,18.7994083488786,17.2114406625619,19.3855749588707,18.573365725773,17.6526987585521,0.998329492208595,1,1,1,1,1,1,1,35.29663725,-77.5668065,2017,"NCH1",14
"PHB47/PHZ51","NCH1_2017",15.8,731.12121286656,0,2,214.5,94.5,65,64,5.92935477918194,4.0971428326198,0.297958701828474,3.8605887218635,6.67380964188349,5.43709003925323,2.5136726855367,1.67758050992105,4.1404608350745,183.80999815464,28.6799998283386,4.0233332543146,115.819522829283,10.9095240093413,51.8457151651382,65.1576194422586,9.6885714899926,128.354285887309,16.8479611796717,19.660787991115,22.200774141109,19.2039608935909,15.7724910842048,20.5483989412822,18.7994722996277,19.2660637939868,16.4083516821151,26.0700000639885,23.5785715920585,28.1701127560743,29.7261436573129,31.0140472896515,30.4881481291756,32.5472167507523,31.9569590380403,30.4313824649231,13.6406452425065,11.251428263528,15.697578023226,18.8753639802544,22.5767457295978,19.8479362164856,22.2803962481536,21.2748593008167,20.8135023424702,12.5644242151493,10.4878498696085,14.2666594933888,16.3604491100229,18.7994083488786,17.2114406625619,19.3855749588707,18.573365725773,17.6526987585521,0.998329492208595,1,1,1,1,1,1,1,35.29663725,-77.5668065,2017,"NCH1",7
"B73/PHN82","ILH1_2019",19.25,736.9135464192,0,0,246,145,61.5,60.5,3.92290326087706,5.48166660467784,1.00366755026978,4.24469195298614,0.864761891819182,1.28937734611451,1.22741108088123,2.86464707421608,2.11607064787419,121.610001087189,32.889999628067,10.0178568235465,147.038572290114,1.34571427958352,11.7742857251848,45.424286284617,20.7057140384402,64.4999996210848,18.8014538057389,19.6532208124797,22.6739207193184,19.8427488119022,20.6112506503151,20.0231267023568,19.2803285422626,15.593443452501,14.9705618824278,19.7877418764176,27.4949998855591,27.6677106167,28.391751748966,31.9042863845825,30.8675330402875,28.5386960574539,27.7513351862122,26.642996194359,8.82258073745235,16.1166664759318,15.7380163212624,17.4414067467824,20.6435711043222,19.8174946769835,16.7183759585253,16.7475935139624,14.3837349186112,8.3928973982344,14.0110710173232,13.9335870022067,15.0880410930982,18.2842317301039,17.4039330210807,14.7898098558346,14.4511626176183,13.1086534994412,0.871382484238269,1,1,1,1,1,1,0.979387754708731,40.0587105,-88.2298385,2019,"ILH1",28
"F42/OH43","SCH1_2019",16,731.12121286656,0,2,175.26,66.04,56,60.5,3.52258064477674,3.02666664123535,1.83207166627958,3.15534991018595,1.49702380668549,2.43988097139767,1.83821312723543,1.7150475976013,2.16246542897642,109.199999988079,18.1599998474121,19.9499998688698,97.8735719323158,2.84642858164651,21.9271430288042,50.916428404195,9.48142844438553,67.036428298269,18.2238053967876,19.247888247172,19.8381614833763,19.938859204939,17.7934952236357,20.8877508432146,19.9301129518968,20.1952560402098,17.6553152003047,24.0812904296383,27.556666692098,26.8636026409599,30.303022531239,30.1509526570638,31.8182345420595,32.8750149825147,31.8445712543669,32.3335714516002,10.7222581025093,15.8883333206177,14.7897779125592,18.3349862715708,20.4966665676662,19.4895437936934,21.1836656381328,19.1694286028544,20.1650460304752,10.6271599305538,13.8823950294698,13.2745578864924,16.3672741997006,17.323809612365,17.6458035283698,19.009890666677,17.48787313509,18.1591706145628,0.967315667785258,1,1,1,1,1,1,1,34.62248225,-82.73756775,2019,"SCH1",19
"B14A/H95","IAH3_2017",19.65,738.20073165312,0,2,229,110,65,64,4.15375001356006,4.4766666730245,3.4047203572685,2.20734772714641,0.783636364069852,2.62827690366871,1.89268759309194,2.32887627154288,1.79425708641638,132.920000433922,67.1500000953674,54.0395462729714,78.3386354229667,1.5672727281397,28.0268186547539,71.8554548783736,19.050454611128,54.6954545270313,16.1449318900704,17.7512798945109,18.8930383212172,22.0798596418591,20.5492319916234,20.9938448555213,19.8185231453598,17.2291948925967,15.6432695544943,15.8431249856949,15.5066665013631,21.4265257838852,27.7149819965626,28.4552275339762,29.9007438281351,27.6545797965623,25.6472085203787,25.1376095450402,4.41906251013279,4.14133334358533,9.7822950630621,13.5652693310904,16.0590146888386,16.6123347960228,14.8096001989659,12.7460062737417,11.2819135157885,5.81888047108444,5.62230390959762,9.38713007160935,13.2881535043606,14.425618602213,15.384310503314,13.6587126105144,11.8979604849715,11.2922363413291,0.568604913274092,0.570380948412986,0.879734313174242,1,1,1,1,0.979205627165315,41.9758706,-92.24318881,2017,"IAH3",17
"TX779/LH195","IAH1_2020",20.34,731.12121286656,0.5,0.2,229,110,65,64,1.68806450597702,6.19600019454956,3.07937370009497,6.53305792599394,1.27142855099269,2.67326977555714,1.85421064008438,0.708456623919156,3.75561601346081,52.3299996852875,61.9600019454956,37.2349991798401,213.622142757688,2.19857137543815,25.9085708005088,60.1178565110479,6.01214278170041,115.372858315706,19.46953176683,15.0466018676758,20.6424708637148,20.3159834913117,21.992077418736,21.0955225202772,19.7297913964658,19.804555562767,15.1169259092225,15.8729031931969,18.7070004463196,25.7217689451961,28.5067430861476,31.9299994877407,30.8792140748766,28.6114739112471,29.3732770515948,24.6307950130622,3.3483870948755,9.75300015211105,14.6592933360598,17.3863334611218,19.8571428571429,19.2884919363355,17.2726116483618,15.4681903785589,11.8318310619754,5.55848579964145,8.12545645677116,12.6575733793141,15.0980196558132,17.8935711724418,17.0907883427003,15.1212185598445,14.7539709043416,11.4769448256727,0.621440085247674,0.927035726393972,1,1,1,0.99851414246496,0.992713008729779,0.918334154475424,41.19774214,-91.48767072,2020,"IAH1",7
"W10001_0022/PHB47","ILH1_2016",15.6,743.3494725888,2,7,263.5,128.5,74.5,73.5,2.97690523692196,4.38840902691538,2.26653606655233,5.61207630954248,2.38484847184383,3.5965513070917,3.31235071929027,4.35749997459836,4.79379031928375,93.7199998497963,46.3549993336201,33.4606812819839,180.417726646093,4.62886360558597,41.7338635867292,104.141365719112,28.3243180147626,148.202045347203,18.8248824135911,16.772414523905,21.3206123477011,20.186536070862,20.742345383673,18.0798104173881,18.8666988996862,17.8581825314146,16.0768072129811,18.0508114395122,19.2020452456041,23.0422996986406,29.4229266243166,27.9030872836257,26.9731781198959,29.6021857332558,29.1593882944677,28.1759287739546,4.96004029539143,8.5312726020813,10.4507586023432,17.100495052534,15.9971779440389,16.8488147764823,19.4105485847029,18.8438310752183,17.0974068698762,6.7812351246955,7.96926780707668,10.1711916616246,15.4161417086623,14.2957979847463,14.1538489170388,16.5199597663553,16.0495125310087,14.8445893652738,0.666766271376172,0.897956158588459,0.946860721270467,1,1,1,1,0.999883116813965,40.0607245,-88.2338815,2016,"ILH1",6
"LH74/PHN82","COH1_2017",17.7,731.12121286656,0,2,229,110,65,64,3.39312494290061,0,0.00170868351345971,0.360843908083864,0.891428553868854,3.56038209699924,1.42287894970366,1.56567067457265,1.77087045139264,108.57999817282,0,0.029047619728815,12.2947617719571,1.60047616277422,43.7852383255959,56.4828571748166,21.0252381148083,53.2028570139692,22.2680299282074,25.656948362078,25.993106298919,24.2875628049184,21.2698285844591,19.3765266793928,19.6563178718538,15.9259101156787,11.9913693493718,20.3862498551607,26.2785715375628,29.0099024905478,30.9575008483351,32.8439676496718,29.2459773876014,27.8707551629923,24.4981203104176,17.6400496374322,4.67625003145076,9.95571436200823,11.4416630470283,13.3349225420512,15.6419047401065,14.2894836037956,11.5599296846894,8.65086998417367,2.50572452632776,7.38781388850004,11.2215251258146,12.9782738928515,14.5313666366823,16.2303242626942,14.1158650824494,12.5801561869845,10.4056817622244,6.00700011612576,0.85979910066817,1,1,1,1,0.978368119236658,0.88222033244958,0.65364973214317,40.64850025,-104.9997825,2017,"COH1",15
"W10004_0216/PHZ51","DEH1_2016",18.4,755.57773231104,0,2.5,288,136.5,78,78.5,2.70187503471971,7.43181821432981,3.8913443672194,3.01543568987816,5.35810598460111,2.45305554595861,7.02803129397506,2.62431810561455,3.19686020007931,86.4600011110306,81.7500003576279,66.3949995338917,101.616362200542,13.3345452438701,24.0222726382992,188.323178079995,15.0527268241752,98.5804540785876,18.330474331975,10.1000462011857,19.4097170760173,21.0293855949914,18.2505545182662,17.6465201137042,18.9446848277627,17.7865102970239,16.4444979187331,18.0900000035763,16.6009089730003,19.9020842077776,27.6764673780698,27.7968177506418,28.9030859032063,31.9137982464639,31.2181211240364,30.5716960682314,5.52968750568107,9.93090907010165,10.1128978635646,16.858989299231,18.0210605245648,19.7880051766983,21.9088104518459,21.6295759258848,20.1612733062994,6.82557737843557,7.64560586528393,8.60663778636783,14.4360322816611,14.984016447316,16.3761010057792,18.8554137385462,18.377489564845,17.3477874995971,0.726328134087713,0.729318175997053,0.99092985905268,1,1,1,1,1,38.6482025,-75.44606,2016,"DEH1",11
"PHG39/PHN82","WIH2_2016",21.85,837.31399466496,0,5.5,267.5,130.5,66,65,2.18548383155177,6.56333343187968,3.44709445848626,4.12469378805335,6.70715902429638,6.1588801108116,5.9452931370305,1.65427351296643,4.75874244467604,67.7499987781048,39.3800005912781,44.4554541761225,149.271818908778,18.9127270525152,63.8631812875921,228.761364199898,17.1177273826166,143.160909706896,20.0716181416665,17.6468149820964,20.4812055398289,20.037160747392,21.0009714148261,18.7397162859105,16.3191195187663,14.9467084400859,10.3303758997605,18.3467741935484,27.6566664377848,25.5962674903388,27.3504729025317,29.4464014732476,29.1534918075751,26.7093807853849,24.2132901889739,20.3726808053147,4.8400000141513,15.2516667048136,12.4366041874811,15.2184635103349,16.1839015628352,17.8104753683421,15.2982692422456,12.0891496999401,9.53777032181792,6.76617685026666,13.679230162364,11.7742945200385,13.6256578041453,15.0809804038395,15.5695050800475,13.3573766462884,11.1053684800171,8.84996703908283,0.729688938724281,1,1,1,1,0.998061417783429,0.979766621647087,0.886131911688794,43.32649075,-89.33882925,2016,"WIH2",19
"PHG80/PHZ51","NCH1_2016",13.9,731.12121286656,0,1.5,239,127,65,64,2.90156245231628,3.1257141658238,7.13790793537677,4.68303443912438,4.31772709976543,0.863030289158677,5.22628340706996,5.10418182503093,4.50766866787438,92.8499984741211,21.8799991607666,91.8631831515919,160.77363422513,8.49772692810405,8.49545440890572,139.931818181818,26.1277273243124,139.737728704106,16.3685781806707,22.2713846479143,15.4949862283056,18.7284907802807,21.8793197978627,21.8664798996665,18.529991999807,18.05675721891,17.3265616131668,20.861250013113,25.5857140677316,25.6894626938102,27.1054564010764,30.2031816569242,31.055969704522,32.4242385211894,33.5976670091802,33.2603517739304,7.69218749413267,8.21285721233913,14.2700391136405,16.0730002825544,18.0268178419633,18.8016968052797,21.2796372022056,22.6219093149359,22.7218181954101,8.38342182115148,10.4398532157701,12.4646866942302,13.955992978898,16.1716004230384,16.9972748117641,18.8316059181804,19.9805669981395,19.8669778055321,0.913761163346602,1,1,1,1,1,1,1,35.30015175,-77.57127825,2016,"NCH1",8
"W10004_0216/PHZ51","TXH1_2016",10,723.39810146304,0,2,240,75,70,70,1.63366669813792,16.1399999346052,0.997024219685634,4.71986560334683,0.129393938815955,3.27727272687865,13.062324570375,0.703636358001015,1.01712562139433,49.0100009441376,112.979999542236,14.5313639044762,177.354999092492,0.330909089608626,36.0499999956651,378.067267352884,3.17999996922233,30.534545768391,13.9726291974386,10.7287414414542,17.8894095128623,17.8007609349484,20.5568532076749,19.7779241435784,17.9048036307734,20.8338603973389,20.1432609317589,22.3250001589457,23.9500002179827,24.4830925562751,26.4049851333462,28.5388636011066,28.6354545482919,30.1287031897283,34.3540452523665,35.5883872279207,6.03466663161914,13.3357141358512,9.67537964446524,13.1275877936174,15.7853026679068,16.3376445415591,20.1390285305243,23.0818636243994,24.0011842107726,8.47337903343467,11.2978355051063,10.5045992024655,12.4611166479839,14.4368127893531,14.7220414816358,17.1236823819741,20.5322511435483,20.8759903806844,0.915869047670137,1,0.972225206868779,1,1,1,1,1,30.54708625,-96.43393475,2016,"TXH1",12
"CG60/LH162","INH1_2015",13.15,520.02283450368,0,10,176.5,81.5,58,58,2.9680645350487,5.60875007510185,2.40179747847063,2.62059657947358,1.04906250536442,3.0483124434948,3.45413084403517,1.33253348086561,1.48437097516432,92.0100005865097,44.8700006008148,26.4431248307228,85.124374628067,1.71562501788139,30.483124434948,116.572499513626,9.31624999642372,45.6806252300739,19.4460865605262,13.5904663801193,21.8831559274163,21.6568943925879,20.6013035774231,19.7332655191422,18.7756038139106,17.9973838829568,15.6492746342254,15.6758063224054,21.0562500953674,27.4439682904935,29.5244933150031,32.6678117513657,30.1698124170303,28.1731758635525,28.469341514366,25.5406298018271,3.00451613914582,13.0524997711182,15.2206834324312,16.622144823273,19.5684375762939,18.0281877398491,16.7148970596921,16.4656363842743,12.5684752128738,5.36093065777599,9.9438759002861,13.7258189969439,15.2669641421753,18.1181246638298,16.1828720954291,14.6381021415267,14.6766784889395,11.9590249739617,0.609504607106958,1,1,1,1,1,1,0.986081101217618,40.477075,-87.000205,2015,"INH1",6
"B37/MO17","NYH2_2016",19.1,731.12121286656,4.5,4.5,184,84.5,80,73.5,2.03451613264699,1.03000000119209,1.88805842038864,0.867300395588696,1.14095236573901,2.3264502044364,3.37645110879505,4.28774657460297,3.20857245139568,63.0700001120567,12.3600000143051,22.4085715952374,34.4438095036007,2.62285709381103,25.5909522488004,116.656190026374,31.7580950827826,97.8257142560823,19.2124098193261,23.3558462460836,23.4055682219574,22.1788358644049,23.9445644560314,21.2536164940178,17.188970918256,16.172458164546,13.3590641317158,14.0493548300958,18.6874999205271,27.5085128267558,26.2363372785012,28.7807143075126,29.3169266424138,28.4163855529889,26.4450086476851,23.1529754740241,1.68677417501327,4.43999998768171,12.9269903570741,12.8553450425452,13.8947619256519,15.6558873601806,16.8638179961093,13.5881803360115,10.5576226536427,4.5112983091881,6.60715549716729,12.8876567633635,12.3333042748845,13.7996271971815,14.74166699264,14.8229567266396,12.6605081320414,10.2684241420574,0.447315666670074,0.804761906110105,0.9994000377118,0.994542932132847,1,0.999880087618925,0.994843293976969,0.949842164673799,42.726117,-76.655339,2016,"NYH2",12
"PHW52/PHM49","SDH1_2015",18.65,655.82087668224,0,0.5,157.5,71,73,71.5,1.89000003376315,2.68444448047214,2.84721252258907,0.928406020685138,1.08916666979591,1.21319316571409,1.12388611954165,3.99455887308239,0.570569385236773,58.5900010466576,24.1600003242493,33.8600005656481,31.148749768734,1.72000000625849,12.7762498259544,39.0256242752075,27.9024994894862,17.6581250801682,21.1644650428526,23.3864585028754,24.0305424227224,23.9487849489623,21.7433571616809,21.4249004835432,20.6021277482611,16.2774682791546,15.1857998291828,19.0429034079275,22.5888888041178,27.2082641597216,30.462296538412,29.5476047595342,31.8607387889515,31.4777038165944,29.4866452272578,24.897335823114,4.20870966368145,8.46888891855876,11.6908214324257,14.2596964676466,14.2906251748403,16.0653409849514,14.0226982217202,14.1157811645306,6.94290009588376,6.80751690571185,9.21066066646885,12.2739043710277,14.6760611342004,14.1888826298485,15.8143187909023,15.0055273063528,14.1753903925901,9.83480829576472,0.770253459523831,0.983690483229501,1,1,1,0.983472358000217,0.961069401861592,0.950039755118484,44.208745,-102.928745,2015,"SDH1",27
"LH195/LH82","IAH1_2015",20.4,715.35319375104,1.25,5.25,227.25,123.75,65,64,1.56645163797563,2.21307695370454,8.40241855686024,1.32346369240836,0.084411761339973,2.29735939798791,2.93999255048908,2.37101190956701,2.73279376330065,48.5600007772446,28.770000398159,122.139999866486,43.5299997925758,0.168823522679946,22.8235286263859,100.118234865806,16.6700000342201,83.8129400085,20.4321490257017,18.8581149761493,14.6331772809511,22.3127675938035,19.1422725845786,22.2080652261871,19.8386258824345,18.3376315823456,15.0581957022198,16.087741913334,16.6453845684345,21.8469785316973,28.7334183023463,30.2685291065889,31.3074705248565,29.0510553070878,29.396362715275,24.6694635680625,1.83903228419442,4.86538466123434,13.1289285435553,16.8676896249547,20.0594113854801,18.0570519634322,16.3929613969702,15.4374991619954,11.1722985517151,5.44712973145307,6.09818857737345,10.4824096365253,14.9963247305916,17.1663926633043,16.728841860151,14.9692492703924,14.7713722092671,11.3064436073178,0.593087559179639,0.682994502258825,0.988452544600181,1,1,0.997626800819033,1,0.896934673983109,41.9980952,-93.69336973,2015,"IAH1",5
"B73/PHM49","NYH2_2017",17.7,731.12121286656,0,2,229,110,65,64,4.98580635363056,2.59333333704207,3.45371500532324,5.89688957038573,0.94807019150048,3.20841810925976,2.37965572681416,2.69433302149013,3.3979729822606,154.559996962547,23.3400000333786,55.2357888974641,222.98894784325,1.76315789473684,41.8126309106224,117.779474443511,23.6378949959027,104.191053542652,18.9189640937313,18.2290218141344,21.6231091311596,19.2816943373654,21.2024165956598,18.916781590673,16.9740698632348,13.8804367561403,9.43949481778822,16.549032380504,19.8011112213135,22.3488199715029,25.6546189886677,27.1610527540508,25.3148987975818,23.2880304669988,24.2514658183566,18.2446084072576,5.23967740420372,10.2422222031487,10.5593938701109,15.2177031552253,15.8735966682434,14.8450433481215,11.5614248973978,11.1539849421825,7.35242725274508,6.26789810278045,8.57074783107705,9.79388514165009,12.8009794426063,13.6890467322532,12.4613839915646,10.5515557799113,10.876639235376,7.68889693415974,0.638917053418775,1,1,1,1,0.981507474576186,0.966916282342149,0.722284214210263,42.73248125,-76.65275025,2017,"NYH2",17
"WF9/H95","ONH1_2015",38.15,702.80313772032,0,0,225,115,89,88.5,1.60562500171363,2.29631582059358,1.4114260910993,1.97329795371468,0.512941168803795,3.43676916784781,2.64103540530206,1.79995381645545,2.36057120934647,51.3800000548363,43.6300005912781,20.3011770318536,73.5029410351725,0.818823519875022,40.7335294695461,103.936472787577,19.5847062696429,71.148825086215,18.0216946154833,20.4737019036946,23.3400709093662,22.6454399715782,20.2406537486058,18.0725441178749,18.6044729913646,14.2275523091565,12.219208949974,9.77156253159046,12.6347369143837,23.7578119012338,26.8344168593777,29.9094126084272,27.4692824860095,26.1197207542336,22.8220175470625,18.3525084633076,-0.327500017825514,2.04526315237346,11.0134760611429,13.3191988703222,17.4331371830959,16.5032930170151,14.0677575161805,11.6957219533643,7.01371468782571,2.85121172458945,4.201400589021,10.6771310509359,12.7739998184956,15.7658975270033,14.1503260638498,12.635773860967,10.4824980569175,7.37915990096047,0.167098218209243,0.403345873929504,0.957007130525896,0.991950294097347,1,0.994472793880519,0.939113043318717,0.77236656111447,43.49741975,-80.44806025,2015,"ONH1",10
"F42/MO17","NYH2_2016",23.8,731.12121286656,0.5,2,183,86,79,71.5,2.03451613264699,1.03000000119209,1.88805842038864,0.867300395588696,1.14095236573901,2.3264502044364,3.37645110879505,4.28774657460297,3.20857245139568,63.0700001120567,12.3600000143051,22.4085715952374,34.4438095036007,2.62285709381103,25.5909522488004,116.656190026374,31.7580950827826,97.8257142560823,19.2124098193261,23.3558462460836,23.4055682219574,22.1788358644049,23.9445644560314,21.2536164940178,17.188970918256,16.172458164546,13.3590641317158,14.0493548300958,18.6874999205271,27.5085128267558,26.2363372785012,28.7807143075126,29.3169266424138,28.4163855529889,26.4450086476851,23.1529754740241,1.68677417501327,4.43999998768171,12.9269903570741,12.8553450425452,13.8947619256519,15.6558873601806,16.8638179961093,13.5881803360115,10.5576226536427,4.5112983091881,6.60715549716729,12.8876567633635,12.3333042748845,13.7996271971815,14.74166699264,14.8229567266396,12.6605081320414,10.2684241420574,0.447315666670074,0.804761906110105,0.9994000377118,0.994542932132847,1,0.999880087618925,0.994843293976969,0.949842164673799,42.726117,-76.655339,2016,"NYH2",17
"PHW52/PHM49","SCH1_2018",16.295,731.12121286656,0,2,223,114.5,61.5,65,5.50937507301569,3.37250000238419,5.77532792752829,7.72812766098977,4.71095229046685,3.13060314183971,3.12348515829066,2.01328565960839,5.79306446956599,176.300002336502,26.9800000190735,97.6099995204381,245.673573059695,5.41571421282632,31.8442854029792,83.9342848232814,10.5378568683352,179.584998556546,18.6477236524224,19.2869287729263,21.173054595667,18.1631813069703,18.8474233264015,19.2548603041347,19.9945130026415,19.3178334372384,16.3013944175386,22.5390624701977,22.5337498188019,23.0902047939223,27.6187004518251,28.0654765991938,28.9085680901058,32.584791315526,33.4833329836528,31.116866401813,9.30156246945262,9.31125009059906,8.76240008069966,17.5066534747267,16.7615474973406,18.3829589417142,21.2079791456952,21.6712853658767,20.8076727291406,9.59119125294698,9.40007484305004,9.57450522783795,14.7679377529716,14.5196225818089,15.7238139666896,18.8616965293534,19.451053178185,17.9628857433375,0.951841517750706,1,0.982626498534951,0.991514694994028,1,1,1,1,34.6223015,-82.7364835,2018,"SCH1",28
"PHN11_PHW65_0323/LH195","MNH1_2015",20.8,728.54684239872,6,1,230,108,74,74,2.67645166525918,6.10285712991442,1.58721610445111,4.7077263256623,2.09382353109472,4.68577535931227,5.9350156688025,2.22326150676053,2.19878814463244,82.9700016230345,42.7199999094009,19.590000131551,155.007059007883,3.96529412269592,52.2323524741565,227.094708481256,20.9011769756017,67.401177584358,19.816934616335,15.8754692077637,21.6281845751118,20.6523619261065,17.2143456515144,21.1212332316686,17.7408483022691,14.5374503953005,12.0629753461599,17.4338709308255,22.6300002506801,27.2892179925706,28.4642367103754,28.3652941759895,28.0789971632116,26.1408952283773,24.7325950747879,17.9009570518097,4.56741930688581,13.7342856270926,14.30007362468,16.8971689663296,18.654117640327,16.1974599531415,14.7564351113732,13.5728072906729,6.63464769243789,6.28381609962703,10.8743797711898,13.2690560805916,14.8702380832727,15.6411451436446,14.3539204313244,12.9900637188381,12.4683668720892,7.55733067966644,0.72298386648366,1,1,1,1,0.97770300313998,0.878626049359361,0.7212296457923,44.07038575,-93.53519625,2015,"MNH1",16
"CG44/CGR01","NCH1_2019",14.95,751.07258399232,0,2.5,193.5625,83.75,57,56,2.19112902687442,0,0.107342030975845,4.77507323258167,0.466011907373156,4.53366071837289,6.24100047954245,2.370892843746,2.94129567493308,67.924999833107,0,1.3471428326198,143.414641141891,0.941785710198539,36.2692857469831,165.010000262942,13.542499933924,91.0282135435513,18.6945283182206,25.3012667338053,21.7738242823774,19.078931758161,22.5687620866866,20.7892764977046,19.2290380742896,18.9667955189335,16.7108737708237,25.6958062879501,28.7666660944621,32.2989134582725,30.0829447266695,33.3002377010527,33.8308033858027,32.7574178138121,32.0492754949193,30.7969182892695,13.3427419508657,12.1913332621257,19.0628058780323,18.6108973402873,20.5685118834178,21.2355805294854,21.0813141387738,19.9046463969613,19.7783264509544,12.1843668285043,13.3359738524393,17.6421634826888,16.3912677221001,18.883427458337,19.4407548098431,18.824781095651,17.9808021159142,17.3116109306789,1,1,1,1,1,1,1,1,35.67010175,-78.510504,2019,"NCH1",15
"B14A/OH43","TXH1-Dry_2018",9.2,694.43643369984,0,2,218.5,75,70,69,2.44233329544465,0.878333330154419,4.91741256001052,2.91095925044977,1.11232141086033,5.98734766325737,3.09403364827696,2.44530950245403,2.57365667705529,73.2699988633394,5.26999998092651,55.2178573012352,113.372142612934,4.44928564344134,64.3635703495571,86.7278586477041,13.6771427350385,77.3578569974218,13.4988632996877,14.4915455182393,13.9248534838171,19.6618496048866,19.3908269973028,19.6418435904543,19.3841029346057,21.21373351415,18.0125832346727,19.6893333117167,26.9583333333333,25.6661437272963,26.5699684543749,30.2423808461144,29.1437299615549,31.9180543268285,33.2644761993771,34.5116055384576,6.35766667922338,15.039999961853,15.1375581486321,13.6905545931612,18.240714152654,16.4484343575537,20.6307032285911,20.5015473865327,23.9749401441184,7.6135705722337,13.4071560355566,12.8752807062941,12.7953613694417,16.3441020747261,15.0664778975255,18.2123343788981,18.7591973934278,20.4060627549583,0.821476193552925,1,0.991620594691275,0.994086429913331,1,1,1,0.999013392447937,30.546318,-96.4329965,2018,"TXH1-Dry",16
"PHG80/PHZ51","COH1_2017",17.7,731.12121286656,0,2,229,110,65,64,3.39312494290061,0,0.00170868351345971,0.360843908083864,0.891428553868854,3.56038209699924,1.42287894970366,1.56567067457265,1.77087045139264,108.57999817282,0,0.029047619728815,12.2947617719571,1.60047616277422,43.7852383255959,56.4828571748166,21.0252381148083,53.2028570139692,22.2680299282074,25.656948362078,25.993106298919,24.2875628049184,21.2698285844591,19.3765266793928,19.6563178718538,15.9259101156787,11.9913693493718,20.3862498551607,26.2785715375628,29.0099024905478,30.9575008483351,32.8439676496718,29.2459773876014,27.8707551629923,24.4981203104176,17.6400496374322,4.67625003145076,9.95571436200823,11.4416630470283,13.3349225420512,15.6419047401065,14.2894836037956,11.5599296846894,8.65086998417367,2.50572452632776,7.38781388850004,11.2215251258146,12.9782738928515,14.5313666366823,16.2303242626942,14.1158650824494,12.5801561869845,10.4056817622244,6.00700011612576,0.85979910066817,1,1,1,1,0.978368119236658,0.88222033244958,0.65364973214317,40.64850025,-104.9997825,2017,"COH1",9
"B14A/H95","ARH1_2016",17.8,779.39065913856,0,2.5,181.5,111.5,72.5,70,12.6265622600913,6.05222214592828,7.85959392181908,4.41103236837171,3.76999992132187,0.095833331948579,1.83491350889616,2.95036352764476,2.93171556272115,404.049992322922,54.4699993133545,101.143181920052,160.496816039085,7.53999984264374,0.824999988079071,46.8663639642976,14.7518176382238,90.8831824443557,16.4075767695904,14.4028924306234,17.4133262481418,19.3139989097208,17.4816541382761,22.1591818079804,19.7781726024698,18.2520895112645,17.225964043497,20.37124979496,20.0866667429606,25.2525350665633,26.3044541539922,29.5068177887888,32.2701959152414,33.2207471683232,33.1760686831041,32.7599998597176,8.5396875902079,10.0499999258253,14.8465505392494,15.675688928556,20.1031818389893,20.9033523737782,23.0132003928172,23.4658411589536,23.3566423203589,8.37657913218764,8.62389009177744,12.4075180997134,13.3856810078906,16.804999813889,18.5700508727667,20.093843133889,20.2460302688536,19.8980815100491,0.93219865730498,0.999841266208225,1,1,1,1,1,1,34.72952,-90.7603555,2016,"ARH1",18
"CG119/CG108","DEH1_2018",14.3675,463.70848051968,0,2.75,188.5,86.75,61.5,59.5,3.41322579499214,4.72454556551847,2.00775327918751,2.76062415391978,0.287142855780465,8.86277766454787,3.9158652312497,4.93358162276599,5.97197165156839,105.809999644756,51.9700012207031,28.2621423006058,90.3585697838238,0.861428567341396,79.7649989809309,101.102142018931,26.3792856761387,184.740002146789,18.2473833330216,20.3033478476784,18.9606146470246,21.1924231312641,20.3949074972244,18.857703663054,17.7348203831473,14.4784469860752,15.0837273726632,17.38161277771,18.2845456383445,22.0146909227081,28.1479547134017,32.2871426173619,31.6823014910259,32.0928691179815,30.4210680254463,28.7979001527192,6.70387100404309,7.41363637013869,12.8585797691042,17.9749757557002,22.0019048963274,21.3199205701313,22.7642059419863,22.2614113645489,20.2152603631745,6.82571116473102,7.36638381566628,10.3838574094334,15.2115811688111,19.1075311123214,18.4785044144811,19.3587997645324,18.3420426743588,16.5827432526275,0.7816013778959,0.839058448354919,0.98942529531986,1,1,1,1,1,38.65164475,-75.44913625,2018,"DEH1",16
"PHN11_OH43_0001/PHB47","IAH2_2017",13.95,734.33917595136,1.5,15.5,209.5,140,65,64,2.99193547618005,4.00374990701675,5.59415436127969,1.82415974193672,2.96590905297886,1.13861617337574,3.54439579705404,5.52586092903759,3.22496434239523,92.7499997615814,32.029999256134,86.8399996757507,64.743636071682,5.88090901483189,11.0354546579448,133.685001557524,39.366364874623,98.0227279554714,18.9181115088924,22.0308394432068,18.3906703843513,21.9130098121916,21.5970702604814,21.0005855088282,18.7624625632021,16.5013675579605,14.5633697451035,16.7025806211656,25.2537500858307,21.1644402920874,28.7879280313535,31.3429540287365,31.038908986371,27.7923067917653,26.5413899369054,25.0180860311055,3.83612903808394,9.06000000238419,9.83648406203406,14.7235259390494,17.1804546009411,18.0048533863491,15.618900018401,13.9478747019692,12.2571085666223,5.88435640664124,10.5205817772981,9.32555658634035,14.1961143177765,16.2939337097197,16.5715003347332,14.0580127584531,12.7380351430824,11.5799250069021,0.659274194561254,1,0.882113053044242,1,1,1,1,0.976890028652541,42.06582876,-94.72050129,2017,"IAH2",8
"PHG39/PHN82","ILH1_2019",17,763.30084371456,0,0,237,122.5,63.5,62,3.92290326087706,5.48166660467784,1.00366755026978,4.24469195298614,0.864761891819182,1.28937734611451,1.22741108088123,2.86464707421608,2.11607064787419,121.610001087189,32.889999628067,10.0178568235465,147.038572290114,1.34571427958352,11.7742857251848,45.424286284617,20.7057140384402,64.4999996210848,18.8014538057389,19.6532208124797,22.6739207193184,19.8427488119022,20.6112506503151,20.0231267023568,19.2803285422626,15.593443452501,14.9705618824278,19.7877418764176,27.4949998855591,27.6677106167,28.391751748966,31.9042863845825,30.8675330402875,28.5386960574539,27.7513351862122,26.642996194359,8.82258073745235,16.1166664759318,15.7380163212624,17.4414067467824,20.6435711043222,19.8174946769835,16.7183759585253,16.7475935139624,14.3837349186112,8.3928973982344,14.0110710173232,13.9335870022067,15.0880410930982,18.2842317301039,17.4039330210807,14.7898098558346,14.4511626176183,13.1086534994412,0.871382484238269,1,1,1,1,1,1,0.979387754708731,40.0587105,-88.2298385,2019,"ILH1",20
"PHW52/PHN82","GAH2_2018",15.2,760.08288062976,0,2,216,82,54.5,53,4.84967745888618,0.472857134682792,6.38984283527144,2.50728712962131,2.62500000283832,3.79519841145901,2.49966845428401,2.8287857288406,3.72412446731796,150.340001225471,3.30999994277954,84.9085696467331,76.9578574214663,5.38785717317036,33.8478571346828,66.1414286494255,15.0642858062472,115.447858486857,20.4955881180302,21.8851153509957,20.3329850251172,19.1599877182245,23.5162671634129,19.7079079832349,20.0248900302085,19.4201906385876,16.0079359810473,23.574838699833,25.8042855943952,25.0982466928002,29.4338754995983,32.5767859504336,32.3044644802336,33.9553133770799,34.1288569904509,31.9958754816363,8.78774203408149,10.5771427835737,11.2078081937334,18.18961495413,18.4690478188651,20.5788887871636,21.2528475332136,21.0849286215646,21.0162903284697,9.71754329526851,11.3392147010659,11.2342556626861,15.8911321098361,17.5337695363242,18.4416766336986,19.3188239485151,19.4729093337791,18.4928476713494,0.993778801184096,1,1,1,1,1,1,1,33.71560925,-83.30894675,2018,"GAH2",14
"TX779/LH195","OHH1_2020",30.15,666.44015486208,0,0,229,110,66.5,64.5,4.17531252652407,1.24000000953674,2.00345390284468,2.60983029866827,3.23846153112558,4.45886834167934,3.00036561176739,1.62123751863745,2.44580479004937,133.61000084877,6.20000004768372,24.4130769326137,78.6046159542524,5.61230769524207,46.1353850364685,105.099228918552,18.4038462547156,73.9823074799318,19.0699402838945,20.3434976577759,22.2606296382627,20.3012567157111,18.9498025820805,17.7236463467836,17.4778105651895,14.6981523061276,13.3187672602627,20.7559375166893,29.3100002288818,26.9862925042267,30.2695111898902,31.9223073812631,29.6345828447586,27.3548547015208,24.4549626237029,20.9133971554963,9.30187501414912,17.6140003204346,14.1865254708109,18.2208269882724,19.4742308396559,18.7425546755046,15.6630529320659,13.0705697417276,8.16455502736238,9.09812715428091,15.5392395086553,13.053962338305,16.293566554699,17.6982691104595,16.2136008397491,13.8472545696004,11.755231160095,8.71363226327798,0.810993301958661,1,1,1,1,0.998602591314452,0.941606618318591,0.857376018975295,39.85643475,-83.67288725,2020,"OHH1",8
"B73/PHM49","ONH2_2016",20.4,733.05199071744,0,2.5,249.5,140,76.5,73,1.4354838748132,1.74083332717419,1.46380271581139,3.02268752387098,0.150999999046326,1.134659085057,3.04644667291448,1.69350377760537,2.7651166654242,44.5000001192093,20.8899999260902,18.8460003852844,117.159000921249,0.150999999046326,12.2534999370575,101.044499832392,13.1614999294281,84.2689999639988,19.7256392663525,22.197474638621,21.6895404820885,21.7736589642688,18.986648273468,19.926783043688,16.6990616557451,15.6815267119186,12.907202899033,14.1074193523776,17.5808333555857,26.0075868502758,26.0489445105545,27.7809998512268,28.7928724592382,28.2480381953381,25.9224786042651,23.7534801354972,4.25741936266422,7.13166666030884,15.038288106176,14.1477788974648,17.7269997119904,17.3392411925576,18.2467210190433,15.9549466693556,14.1752601318334,5.1313461369791,6.98684124280148,12.8511639495985,12.6517199671275,14.842964971112,15.2602720524723,15.3178202053561,13.2653460605469,11.6762118863421,0.511244241010895,0.799851208925247,1,1,1,1,1,0.97582928193879,42.4530035,-81.88279875,2016,"ONH2",18
"B37/MO17","ARH1_2018",21.2,568.163562252288,0,2,184.5,104.5,66.5,59.5,6.80749994516373,4.70999993596758,2.62777637512911,4.73591215777578,3.61916664668492,6.96017852632536,4.33043756926438,0.796285740818296,3.37467743449497,217.839998245239,32.9699995517731,35.4892859118325,145.294284343719,5.83142852783203,62.5142853089741,109.797857735838,4.00357156140464,104.615000469344,17.9970670938492,21.7022604261126,20.0594998235876,19.526801115197,21.5939762251718,17.9926481322637,18.0574776027005,19.3321502186003,18.3042435536187,21.0706250667572,24.3185710906982,24.0216893355052,29.4527985731761,31.7309522401719,30.7069242303334,32.5717108049104,33.2952144259498,31.8374196285476,10.2671874910593,12.0357142857143,12.7020508751037,18.6741208320572,19.9915478343055,20.6467757206115,22.9033521317947,23.2358570643834,21.2883410212082,9.22327753419032,11.0103677478877,11.2783232173313,16.1126744540351,17.8620654597657,17.6775747954964,19.7277038225499,20.1946927088828,18.5436880911809,0.945725440979004,1,1,1,1,1,1,1,34.729679,-90.7603455,2018,"ARH1",13
"B73/PHN82","NYH2_2018",20.9266666666667,700.572016648192,0,2,202.666666666667,101.333333333333,71.3333333333333,70.3333333333333,4.15290321265497,0.855714253016881,1.31693108037102,2.05687731597006,18.6071429092304,4.17142207984413,1.79646054057165,3.7134592103056,2.00191168391851,128.739999592304,5.98999977111816,17.5049994406956,73.5107148954911,37.6500000993588,45.137142878558,70.0178583988122,34.8200002163649,60.5300002843142,20.6438379902993,23.734383719308,20.979802756266,21.2837364687676,15.7229437487466,18.2684387615749,18.5091505369441,13.7748191949597,12.8345781276578,12.8280644647537,24.7271431514195,24.7677545588972,27.6010100898047,28.9642853736877,28.5122726960616,26.9105002489963,24.0160674085693,19.6655860562055,1.45225804755765,10.4899997711182,13.0755966585126,14.8719080974443,19.0864286082132,17.4819285981067,14.9501351065933,12.8073849135839,7.86512439486738,4.11302762674546,10.7452289392157,11.828471820398,13.7492806797528,16.0509662796631,15.0657523924464,13.3718144658096,11.4287385087198,8.14411924534505,0.351670501693603,1,0.973410203661018,0.995047280170266,1,0.991140912992252,0.940533101368687,0.821942421986262,42.72611075,-76.65530175,2018,"NYH2",29
"B14A/MO17","IAH2_2019",21.45,697.65439678464,1.5,1,233,117.5,65,64,1.62499997764826,4.99466671943665,7.63382698125987,4.02341454883287,10.5352383568173,1.2235000201634,2.76356744289516,7.26151782906954,4.77332183541973,51.9999992847443,74.9200007915497,126.729286615338,144.380714906113,31.605715070452,12.235000201634,103.205714230027,58.2335712058204,145.353572113173,19.4007869511843,15.5991585731506,17.733772213764,20.3714196622645,18.6917074294317,21.1146088668278,19.0489610311361,16.4610812394392,13.9454261347262,15.7803125455976,14.7866665522257,21.3077396412048,26.9056014090092,30.4667857033866,29.366785798754,27.7021302399588,26.078908695115,24.6989301095544,1.82374999648891,4.27600004474322,9.22220813411321,15.0646722365935,19.7144050598145,18.1754287719727,16.7421217731022,15.3263292785675,13.453586662864,5.18898236774639,5.37138114303097,9.15066822380473,13.4185125554301,17.1062666762375,15.7965739643108,14.4428391706503,13.0451790767413,11.9235761362982,0.546495538936662,0.532857125358922,0.866155154080708,0.998157433935226,1,1,1,0.956872448730631,42.06583499,-94.72067796,2019,"IAH2",15
"B14A/MO17","NYH2_2020",16.9,700.22876725248,0,10,230.5,122.5,71,71,4.4222579925291,0,1.39173123579944,3.18235724693344,6.17088877360026,3.50790104135118,2.28349072361197,1.42691866419926,2.17217563357404,137.089997768402,0,18.6826673050721,113.270666055878,12.6093331019084,36.9826669931412,88.4693336625894,18.1466666658719,65.6160001913706,20.9426754428494,21.7824497138129,21.5566608507285,20.6432143634654,19.2778644667731,18.9298452936519,17.7688209270759,13.7796892350961,11.7049053949951,14.5544730601772,27.9497778235541,23.6293392760458,27.8654129678972,27.8868889702691,28.7867253702337,26.5330294770505,21.5667549297366,18.2050767358379,2.61195698992539,15.6643110571967,11.3557305522714,15.510257551595,16.3110002305773,17.4820829176662,14.5382635461397,10.8637773380053,6.87917712598825,4.97941532358752,14.0269723819236,10.7080110498196,14.0939234463352,14.2287908501232,15.2006731147438,13.0497103701591,9.74952242691145,7.38768080178657,0.470065284751573,1,0.969822941036728,0.995242037142797,1,0.988859641207354,0.904446401273676,0.765938607634747,42.73230075,-76.65036275,2020,"NYH2",16
"PHG39/TX205","NYH2_2017",23,657.75165453312,1,4,261.5,134.5,78.5,78.5,4.98580635363056,2.59333333704207,3.45371500532324,5.89688957038573,0.94807019150048,3.20841810925976,2.37965572681416,2.69433302149013,3.3979729822606,154.559996962547,23.3400000333786,55.2357888974641,222.98894784325,1.76315789473684,41.8126309106224,117.779474443511,23.6378949959027,104.191053542652,18.9189640937313,18.2290218141344,21.6231091311596,19.2816943373654,21.2024165956598,18.916781590673,16.9740698632348,13.8804367561403,9.43949481778822,16.549032380504,19.8011112213135,22.3488199715029,25.6546189886677,27.1610527540508,25.3148987975818,23.2880304669988,24.2514658183566,18.2446084072576,5.23967740420372,10.2422222031487,10.5593938701109,15.2177031552253,15.8735966682434,14.8450433481215,11.5614248973978,11.1539849421825,7.35242725274508,6.26789810278045,8.57074783107705,9.79388514165009,12.8009794426063,13.6890467322532,12.4613839915646,10.5515557799113,10.876639235376,7.68889693415974,0.638917053418775,1,1,1,1,0.981507474576186,0.966916282342149,0.722284214210263,42.73248125,-76.65275025,2017,"NYH2",7
"B97/PHB47","MOH2_2015",15.25,731.12121286656,0.5,1,210,90,71.5,70,3.91483872167526,3.53454542160034,2.89167602876837,5.44662396781396,2.50588237538057,1.11372550016914,5.06858646461217,0.980448185896673,4.0111195383597,121.360000371933,38.8799996376038,35.2317639782148,173.692939155242,5.01176475076114,10.0235295015223,148.922352524365,6.48705886392032,124.344705689151,19.0870114757169,18.1253494782881,17.1671785847115,21.5962912871016,16.8894541123334,20.3451615751179,18.3289543491586,19.9060889353605,16.9549438623142,18.7561290033402,18.2472727515481,23.8732290384998,29.0283650683656,30.5917647866642,31.9324831869088,30.2728559915889,28.7322074708484,28.3406261827733,6.1525806919221,8.05909102613276,15.301299728071,17.8011435243455,21.9470590703628,21.3926142773597,20.1702312736422,17.4051933128293,17.2094118925381,7.28819699270824,7.58478922996184,12.0589106387454,15.5177509064803,18.2694119285135,18.6625487321343,17.2518738973888,15.2135918237946,14.9707890115806,0.755541469850298,0.814935085835395,1,1,1,1,1,1,38.89807917,-92.2079,2015,"MOH2",10
"LH212HT/LH195","WIH2_2016",20.75,803.84717858304,0,7.5,281,150.5,65,65.5,2.18548383155177,6.56333343187968,3.44709445848626,4.12469378805335,6.70715902429638,6.1588801108116,5.9452931370305,1.65427351296643,4.75874244467604,67.7499987781048,39.3800005912781,44.4554541761225,149.271818908778,18.9127270525152,63.8631812875921,228.761364199898,17.1177273826166,143.160909706896,20.0716181416665,17.6468149820964,20.4812055398289,20.037160747392,21.0009714148261,18.7397162859105,16.3191195187663,14.9467084400859,10.3303758997605,18.3467741935484,27.6566664377848,25.5962674903388,27.3504729025317,29.4464014732476,29.1534918075751,26.7093807853849,24.2132901889739,20.3726808053147,4.8400000141513,15.2516667048136,12.4366041874811,15.2184635103349,16.1839015628352,17.8104753683421,15.2982692422456,12.0891496999401,9.53777032181792,6.76617685026666,13.679230162364,11.7742945200385,13.6256578041453,15.0809804038395,15.5695050800475,13.3573766462884,11.1053684800171,8.84996703908283,0.729688938724281,1,1,1,1,0.998061417783429,0.979766621647087,0.886131911688794,43.32649075,-89.33882925,2016,"WIH2",15
"TX777/LH195","OHH1_2020",32.3,666.1183585536,0,0,229,110,65,63,4.17531252652407,1.24000000953674,2.00345390284468,2.60983029866827,3.23846153112558,4.45886834167934,3.00036561176739,1.62123751863745,2.44580479004937,133.61000084877,6.20000004768372,24.4130769326137,78.6046159542524,5.61230769524207,46.1353850364685,105.099228918552,18.4038462547156,73.9823074799318,19.0699402838945,20.3434976577759,22.2606296382627,20.3012567157111,18.9498025820805,17.7236463467836,17.4778105651895,14.6981523061276,13.3187672602627,20.7559375166893,29.3100002288818,26.9862925042267,30.2695111898902,31.9223073812631,29.6345828447586,27.3548547015208,24.4549626237029,20.9133971554963,9.30187501414912,17.6140003204346,14.1865254708109,18.2208269882724,19.4742308396559,18.7425546755046,15.6630529320659,13.0705697417276,8.16455502736238,9.09812715428091,15.5392395086553,13.053962338305,16.293566554699,17.6982691104595,16.2136008397491,13.8472545696004,11.755231160095,8.71363226327798,0.810993301958661,1,1,1,1,0.998602591314452,0.941606618318591,0.857376018975295,39.85643475,-83.67288725,2020,"OHH1",10
"B73/PHM49","TXH3_2020",10.0975,1259.51075139072,0,2,236.22,94.615,62.75,61,3.45875000953674,5.34571429661342,0.996479651065087,4.09089315236596,11.3717651367188,0.0555555571138469,3.33441812268722,0.880352915034575,2.22611003899258,110.680000305176,37.4200000762939,12.0805880813038,124.975883862552,22.7435302734375,0.45000001262216,88.3282351318528,3.71411754103268,69.0094112087698,15.8034200966358,18.3400974273682,21.3054113252054,19.4076227493762,20.1658006742889,20.6212549708248,19.0289956494815,16.9470315596637,18.7516036187449,25.77062484622,24.0028569357736,27.6357750244424,29.9540296499709,30.1918626486086,32.3806370161717,33.3632814274538,35.0383530111874,35.6320682503919,14.19906270504,12.2442855153765,13.9206276091926,17.6015685916535,18.339215222527,21.1414216421788,21.8859169591652,25.7136472589829,24.3476091308883,12.6037243600486,11.2042502750959,13.2986533327034,15.9636428686288,16.2736183942562,18.6961842054097,19.4144726026518,21.4701964617595,20.8190107741322,0.989866069384984,1,1,1,1,0.999954159902907,0.999321566563027,0.99882700580498,30.53869475,-96.4274175,2020,"TXH3",19
"F42/H95","MOH1_2_2018",17.4666666666667,731.12121286656,0,2,236.333333333333,108.666666666667,56.6666666666667,54.3333333333333,4.41903226221761,0.120000000510897,6.56660791995818,4.99591372633306,0,0.865952385796441,4.86790862322567,7.31814540619296,3.6292411527306,136.990000128746,0.840000003576279,71.6014266695295,150.62857072694,0,7.79357147216797,145.615713886518,39.8592857306025,112.015713835268,18.3939577687171,18.4656530107771,20.1607480990468,20.7059322149744,19.8732600893293,21.9774913485088,18.0698285783682,17.4646894327232,16.3191407620449,19.5254839005009,22.7671429770333,27.1655427269033,29.6093682189896,31.6271427018302,32.3242057770018,29.5162818466631,29.853759335174,27.0484316483804,7.99741943036356,14.1471428189959,16.4373297396251,18.8117261232584,21.7996424947466,20.7100794050429,19.443161886798,19.2115569948339,15.9181414362839,7.99298649242084,11.1555315984476,14.0053567257346,16.2635961901413,18.7133925982884,18.5171425910223,16.5469966366495,16.6004405943066,13.8667043099972,0.872361757925578,1,1,1,1,1,1,0.995607143802708,38.89555425,-92.20964575,2018,"MOH1",17
"W10004_0216/PHZ51","MOH1_2015",14.85,731.12121286656,0,0.5,252.5,127.5,75,73,3.91483872167526,3.00272724845193,2.70388340007172,5.64622626815722,2.26875001192093,1.18333334392971,4.73674408601423,1.74040179593222,3.6664919433214,121.360000371933,33.0299997329712,34.4199993312359,178.871247828007,5.86875003576279,10.6500000953674,140.261874556541,11.8831250667572,113.661250242963,18.8184669402338,18.8870315551758,16.929197347905,21.705914807588,15.7215426564217,19.9453006850349,18.4742217908113,20.1287302806264,17.0265389219407,18.2845160884242,18.0018183101307,23.7780545636798,28.9302828526302,29.8559374809265,31.7611801889208,30.4214076278912,28.5805001264527,28.4314314703788,5.85709682707825,7.50000006502325,15.2148777665246,17.6487962035776,21.6728123426437,21.4597915940815,20.2818253816477,17.0989999456065,17.2866936922073,7.06854431480445,7.30219313947649,11.971425794578,15.3979636076336,17.7643749117851,18.6104858915011,17.38069400277,14.991826945877,15.0531743909791,0.723283405334169,0.814935085835395,1,1,1,1,1,1,38.8965375,-92.20800417,2015,"MOH1",13
"PHG80/PHZ51","KSH1_2016",17.7,731.12121286656,0,2,170,70,89,89,0.381562503054738,5.59374988079071,9.0311369591709,3.98190999396102,0,0.897724768782806,5.01142138710802,3.32242425282796,5.67007326271352,12.2100000977516,44.7499990463257,140.950907804749,148.509091756561,0,8.37409110773693,139.43863695589,19.9345455169678,175.772271144119,18.4331542551517,14.0458284318447,18.3461373797249,20.8844651238299,22.7032874280756,20.5944180136979,18.3498667163808,18.1537938724865,17.325101912546,19.1512499600649,21.7012498378754,22.3390124406673,27.1937706264094,36.3127268877896,35.1754003625928,32.0107843193833,33.8563335245306,30.7689589111686,2.13062504353002,11.4649999141693,9.56823857872411,14.2621367966756,21.5872724706476,22.0435392319554,20.7806130140041,22.7113486636769,19.4913931130664,6.31585730010902,9.66729101728267,9.62689037894436,13.3541884288908,19.5659910681005,19.143975364632,18.068246454854,19.1205473197881,17.0374461461811,0.741573662447211,1,0.9212797776386,0.98604226771574,0.991287871402522,0.998977630941292,0.993550001780192,1,39.14480675,-96.62898225,2016,"KSH1",10
"TX777/LH195","INH1_2020",17.7,731.12121286656,0,2,245.175,126.4,78.5,75.25,2.63064515013849,6.09222216076321,2.38090554163418,2.63802878915032,0.629411795560051,2.97723527796128,3.34980336859539,1.09505251642703,1.57514418927949,81.5499996542931,54.8299994468689,26.3500001711004,86.9017637687571,0.755294154672062,29.7723527796128,114.917647417854,7.60117643019732,48.4147051677984,19.1204067507098,14.4686205122206,21.683403471156,21.7538997697412,20.2483905343448,19.6695943495807,18.7818895809529,18.0082829882238,15.450766363346,15.2067741424807,20.6899998982747,27.1104927022189,29.4265010732643,32.0752935970531,30.3638822218951,28.1583408143781,28.6678223609317,25.4133379392123,2.93419356355744,11.5155556201935,15.1781191785852,16.469441937157,19.3758825414321,18.2375294629265,16.6673405457507,16.5683672047159,12.5233751913666,5.19370579464667,9.33766425162009,13.5421990121603,15.1602616547628,17.7314612721144,16.3694037021206,14.6116717912345,14.8394952945466,11.9009549885014,0.576025337581673,0.994801586582547,1,1,1,1,1,0.975702380729156,40.4787965,-86.9895995,2020,"INH1",11
"CG119/CG108","NYH3_2019",22.6,727.2596571648,5,0.5,193.5,94,65.5,64,3.72258061843534,3.87333340446154,3.76955400809287,3.75795896571508,6.56821410996573,3.88506864038579,3.60460358533742,1.92985849242725,3.70969433207682,115.399999171495,34.8600006401539,61.0485710842269,135.223571415458,13.1364282199315,47.6607138003622,172.531427594168,35.2749997771212,112.091428233044,17.9818517008135,20.7904033660889,20.5345835557134,20.2058653140992,15.5610718727112,20.4766564495834,15.7702462009656,13.4294513617228,8.80235229894496,16.2129032073482,21.9111109839545,21.5613081952495,26.8770007968465,26.2792857942127,27.1986309888162,23.3375417451935,19.773083545106,13.3983490204822,5.32225806866923,10.3000000317891,10.3160979176523,15.509271738716,17.6248807452974,14.9270009474877,12.0004128155567,8.02753882145729,3.37833070208652,6.13441130849994,9.41403374570844,9.31851776692003,13.5297047939764,14.1150331062229,13.4089788898699,10.6913410862683,8.32722055380148,5.10908243250187,0.665391704453851,1,0.983452188949599,1,1,0.970435943491675,0.837841688793101,0.510564167879573,42.7321756,-76.65345463,2019,"NYH3",17
"TX714/PHZ51","TXH3_2020",11.95,743.3494725888,0,2,194.31,63.5,65,64,3.45875000953674,5.34571429661342,0.996479651065087,4.09089315236596,11.3717651367188,0.0555555571138469,3.33441812268722,0.880352915034575,2.22611003899258,110.680000305176,37.4200000762939,12.0805880813038,124.975883862552,22.7435302734375,0.45000001262216,88.3282351318528,3.71411754103268,69.0094112087698,15.8034200966358,18.3400974273682,21.3054113252054,19.4076227493762,20.1658006742889,20.6212549708248,19.0289956494815,16.9470315596637,18.7516036187449,25.77062484622,24.0028569357736,27.6357750244424,29.9540296499709,30.1918626486086,32.3806370161717,33.3632814274538,35.0383530111874,35.6320682503919,14.19906270504,12.2442855153765,13.9206276091926,17.6015685916535,18.339215222527,21.1414216421788,21.8859169591652,25.7136472589829,24.3476091308883,12.6037243600486,11.2042502750959,13.2986533327034,15.9636428686288,16.2736183942562,18.6961842054097,19.4144726026518,21.4701964617595,20.8190107741322,0.989866069384984,1,1,1,1,0.999954159902907,0.999321566563027,0.99882700580498,30.53869475,-96.4274175,2020,"TXH3",5
"B73/TX779","GAH2_2019",12.05,769.73676988416,0,1,254.5,120,60.5,61,1.54500000178814,4.55750012397766,0.25038096110026,1.26115812989332,2.25714288439069,9.48535066239246,1.33614409651812,0.813952386946905,3.35046084053505,49.4400000572205,36.4600009918213,3.75571441650391,38.3642859458923,2.25714288439069,98.6257144212723,36.5242857933044,4.7842857497079,103.864286056587,18.1843583285809,18.1926598548889,22.8847832039837,21.2424743163055,23.343471799578,16.1973903507381,20.406434922581,19.786477175213,19.9482317717943,21.3693748414516,23.1312500238419,27.3469177857106,30.7749969799764,32.5328576224191,28.6002857356877,32.7095731677431,33.5871425810314,33.1883873390163,7.02968752599554,9.77125006914139,11.2815020569475,17.2003093405711,17.5714282989502,19.0865192611496,20.3543848174549,22.4010473887126,20.799078101936,8.37706487587309,9.94554860544552,12.2034012638927,16.015516436445,17.0927729129428,15.8928310784011,18.4704650387309,19.8156386674494,18.9072515496887,0.942712049542544,0.943348209772791,1,1,1,1,1,1,33.7204165,-83.308125,2019,"GAH2",6
"CG44/CGR01","NCH1_2020",16.275,705.05571187968,0,0,181.25,78.125,65,64,3.81125003128545,6.58374977111816,1.87015070111794,7.59338454735375,0.884285699753534,2.63668646698906,3.33071338060501,6.12114287103925,7.32343316943415,121.960001001135,52.6699981689453,29.2835704556533,255.940713865416,2.6528570992606,23.4857139246804,94.0314286180905,30.3285714898791,227.026428252459,17.7931001186371,18.2030313014984,21.9031161387958,16.624104256889,22.7344187781924,20.9765385862381,20.5430953276098,18.1598880904061,15.6514139856611,21.6678124964237,23.2199997901917,23.3487043310554,27.0496421427954,28.21738079616,30.9563497626592,33.0704321677563,33.2972858973912,31.2465668471727,8.08281250484288,11.5312500596046,9.51933213031121,18.0966886080901,18.1914290927705,20.5856052201892,22.1124512970464,22.8580000468663,21.9105529499493,8.88590596036503,10.345445976376,9.896418392683,14.6940439801602,15.2496249982652,17.7688184726376,19.5031272394627,19.9903569790644,18.562087597318,0.935200902566846,1,0.995619772597503,1,1,1,1,1,35.30009892,-77.57131746,2020,"NCH1",16
"B37/MO17","MOH1_2016",18.4,731.12121286656,34,2,262.5,135,61,58,2.46548387696666,8.05800023078918,0.26425937654912,6.28252126803095,1.94553034955805,9.25680558966717,4.35890712054063,3.35466445060003,5.45313052702641,76.4300001859665,40.2900011539459,2.87999999523163,172.837275786833,4.26272736896168,83.2036366733638,125.209091579372,21.1336360627955,168.224091789262,20.2309362965245,16.9350936889648,22.4982955657569,20.2095998884574,18.6817798614502,19.2140896434736,18.009092196306,17.1771441321352,15.8753494680802,21.8319354826404,27.5660003662109,27.8864476525043,31.2121523499736,30.2579544240778,31.2505744972614,30.5742306529435,29.8007791217787,28.2533923636667,10.0738709972751,16.7440000534058,16.2647446268316,19.8621598402259,19.9837122252493,20.4911741319329,20.7615379101816,19.9143179443491,17.5631836798883,9.49779854702591,14.2434334868972,14.2129642512569,17.4733694599123,17.1223259823391,17.869915103463,17.6510486247485,16.9099855149229,15.0956111701838,0.937315665082448,1,1,1,1,1,1,0.999442640656517,38.8955475,-92.2072025,2016,"MOH1",14
"PHG29/PHG47","NCH1_2017",16,731.12121286656,0,3.5,196.5,97,65,64,5.92935477918194,4.0971428326198,0.297958701828474,3.8605887218635,6.67380964188349,5.43709003925323,2.5136726855367,1.67758050992105,4.1404608350745,183.80999815464,28.6799998283386,4.0233332543146,115.819522829283,10.9095240093413,51.8457151651382,65.1576194422586,9.6885714899926,128.354285887309,16.8479611796717,19.660787991115,22.200774141109,19.2039608935909,15.7724910842048,20.5483989412822,18.7994722996277,19.2660637939868,16.4083516821151,26.0700000639885,23.5785715920585,28.1701127560743,29.7261436573129,31.0140472896515,30.4881481291756,32.5472167507523,31.9569590380403,30.4313824649231,13.6406452425065,11.251428263528,15.697578023226,18.8753639802544,22.5767457295978,19.8479362164856,22.2803962481536,21.2748593008167,20.8135023424702,12.5644242151493,10.4878498696085,14.2666594933888,16.3604491100229,18.7994083488786,17.2114406625619,19.3855749588707,18.573365725773,17.6526987585521,0.998329492208595,1,1,1,1,1,1,1,35.29663725,-77.5668065,2017,"NCH1",5
"PB80/PHZ51","GAH1_2016",14.35,778.7470665216,2,4,200,95,60,58,6.46625005081296,4.39500004053116,0.56642149156447,2.54962756812163,3.17469698010069,5.85994313642232,4.09696701425995,2.3309999964454,2.47626100694679,206.920001626015,35.1600003242493,6.21000005982139,86.0200002979148,9.52409094030207,52.4272723306309,105.673179734837,11.654999982227,76.7640912153504,15.956961274147,18.253856420517,20.331000534978,20.7402420911881,20.0106486840682,19.5430273528051,19.3819876920889,19.2695335214788,18.2145192224609,23.6268749833107,22.9824998378754,28.5613493699125,29.4983659035312,33.3707563804858,32.6271904538376,33.2502690735618,34.5149995457042,33.9492812618133,11.2974999733269,10.4700000882149,15.6474472778231,16.2846205025457,20.7828786156394,20.6126955145537,21.5692710707406,22.5180909243497,22.4046772791843,10.5397142233966,9.96244043830302,14.3648116302111,15.1131347489154,19.0295292381209,18.5685926456766,19.2666819522424,20.3439096349474,19.9941584099477,0.993928568703788,1,1,1,1,1,1,1,31.5079175,-83.55854775,2016,"GAH1",12
"PHG39/PHN82","KSH1_2016",14.8,755.57773231104,0,2,160,70,89,89,0.381562503054738,5.59374988079071,9.0311369591709,3.98190999396102,0,0.897724768782806,5.01142138710802,3.32242425282796,5.67007326271352,12.2100000977516,44.7499990463257,140.950907804749,148.509091756561,0,8.37409110773693,139.43863695589,19.9345455169678,175.772271144119,18.4331542551517,14.0458284318447,18.3461373797249,20.8844651238299,22.7032874280756,20.5944180136979,18.3498667163808,18.1537938724865,17.325101912546,19.1512499600649,21.7012498378754,22.3390124406673,27.1937706264094,36.3127268877896,35.1754003625928,32.0107843193833,33.8563335245306,30.7689589111686,2.13062504353002,11.4649999141693,9.56823857872411,14.2621367966756,21.5872724706476,22.0435392319554,20.7806130140041,22.7113486636769,19.4913931130664,6.31585730010902,9.66729101728267,9.62689037894436,13.3541884288908,19.5659910681005,19.143975364632,18.068246454854,19.1205473197881,17.0374461461811,0.741573662447211,1,0.9212797776386,0.98604226771574,0.991287871402522,0.998977630941292,0.993550001780192,1,39.14480675,-96.62898225,2016,"KSH1",21
"B73/MO17","MOH1_2015",15.1,731.12121286656,0,1,230,120,76,73.5,3.91483872167526,3.00272724845193,2.70388340007172,5.64622626815722,2.26875001192093,1.18333334392971,4.73674408601423,1.74040179593222,3.6664919433214,121.360000371933,33.0299997329712,34.4199993312359,178.871247828007,5.86875003576279,10.6500000953674,140.261874556541,11.8831250667572,113.661250242963,18.8184669402338,18.8870315551758,16.929197347905,21.705914807588,15.7215426564217,19.9453006850349,18.4742217908113,20.1287302806264,17.0265389219407,18.2845160884242,18.0018183101307,23.7780545636798,28.9302828526302,29.8559374809265,31.7611801889208,30.4214076278912,28.5805001264527,28.4314314703788,5.85709682707825,7.50000006502325,15.2148777665246,17.6487962035776,21.6728123426437,21.4597915940815,20.2818253816477,17.0989999456065,17.2866936922073,7.06854431480445,7.30219313947649,11.971425794578,15.3979636076336,17.7643749117851,18.6104858915011,17.38069400277,14.991826945877,15.0531743909791,0.723283405334169,0.814935085835395,1,1,1,1,1,1,38.8965375,-92.20800417,2015,"MOH1",14
"CG44/CGR01","GAH1_2018",14.635,657.880373056512,0,2,192.5,102.5,54.5,54.5,4.23124991450459,1.93499994277954,5.57546423139444,3.80102721408996,1.06785716329302,3.25619050056215,3.93224686575623,3.81685705866132,2.68502302543359,135.399997264147,11.6099996566772,76.7957134246826,135.018569469452,1.51642860685076,29.3057145050594,107.19214289529,19.0842852933066,83.2357137884412,16.891305744648,18.8303790092468,19.9789378987127,20.3262259893163,17.1663663727897,17.4750944924733,19.9805820305679,18.7765754699707,18.3549691213441,25.6268748044968,28.5650002161662,25.4642801168346,27.9641718628224,30.5753573008946,30.5485713292682,31.9994496950806,33.0712854930333,33.6833643056281,12.7006249800324,14.4699996312459,11.3598847335803,14.2730199772345,20.4792857851301,20.4244442742968,20.683989012522,21.8254284177508,22.3090554821876,11.9929111910296,13.9163936520453,11.3353404179938,13.6365222515622,17.5273215430123,17.4865078017825,18.3396781460675,19.3698555277453,19.8838856953605,0.988973218681557,1,1,1,1,1,1,1,31.50582525,-83.55515025,2018,"GAH1",17
"B37/OH43","GAH1_2020",23.755,680.084318341632,7,0,177.5,75,68,65,4.27968756295741,0,6.08243138020408,3.81142053665399,2.26797622726077,2.53000005464705,3.98378478018425,1.74183334594681,2.91020735672542,136.950002014637,0,84.3757133483887,135.927856496402,4.83357150214059,22.7700004918235,107.937856589045,9.11500006914139,90.216428058488,16.61263859272,21.597287495931,19.1063623666566,20.7228669323379,14.5468794504801,18.1558473072355,20.0860545342815,19.6863488855816,18.2778173152203,25.3734375238419,26.7716668446859,25.9414437889232,27.7782461895112,29.5535711560931,30.6518254961286,31.7819527581035,33.481785315559,33.5632257461548,12.4387500640005,10.556666692098,12.1903592865197,13.8072078123191,20.5805949710664,20.2611109718444,20.573869922599,21.9683809507461,22.2545622197164,11.8050821453841,11.6911327448693,11.8898952454891,13.3543297450153,17.0670830635797,17.4564682339865,18.1799652092781,19.6703232683732,19.801667626888,0.988537947248135,1,1,1,1,1,1,1,31.5079775,-83.558517,2020,"GAH1",21
"W10001_0022/PHB47","GAH2_2017",18.1,732.40839810048,41.5,2,233.5,124,48.5,50.5,5.21580650729518,2.5900000504085,0.877047008250183,6.97642455518673,36.6657152743567,11.6899047257408,2.7666341943209,6.71771433921087,5.23728113098445,161.690001726151,18.1300003528595,10.9880953289214,219.498574256897,69.630001999083,116.642856779553,77.5566674754733,33.5885716960544,162.355715060518,18.5937584292504,20.9798694338117,21.9819358919917,18.5456761912278,14.3399090085711,17.7663424007476,19.7852386843795,18.8635498507493,17.5761632626324,25.9351613444667,24.1757144927979,30.4733941834677,29.3125237180294,29.5290477389381,29.7298041853324,32.7260150193597,32.1051154233971,30.7678495222522,12.1722579925291,9.93857138497489,16.1532482752429,18.0635315609615,20.4347616377331,19.5111429658516,21.2099278742435,20.8635237298044,19.9554377788772,11.9095461609865,10.3853811467122,15.4565539701251,15.7524985099092,16.9819046883356,16.6341283702326,18.9016913140486,18.4715566451785,17.4124163797098,0.999631334559709,0.985714284741149,1,1,1,1,1,1,33.727145,-83.29821525,2017,"GAH2",7
"TX714/PHZ51","DEH1_2016",19.4,730.4776202496,0,2,278,150.5,73,74,2.70187503471971,7.43181821432981,3.8913443672194,3.01543568987816,5.35810598460111,2.45305554595861,7.02803129397506,2.62431810561455,3.19686020007931,86.4600011110306,81.7500003576279,66.3949995338917,101.616362200542,13.3345452438701,24.0222726382992,188.323178079995,15.0527268241752,98.5804540785876,18.330474331975,10.1000462011857,19.4097170760173,21.0293855949914,18.2505545182662,17.6465201137042,18.9446848277627,17.7865102970239,16.4444979187331,18.0900000035763,16.6009089730003,19.9020842077776,27.6764673780698,27.7968177506418,28.9030859032063,31.9137982464639,31.2181211240364,30.5716960682314,5.52968750568107,9.93090907010165,10.1128978635646,16.858989299231,18.0210605245648,19.7880051766983,21.9088104518459,21.6295759258848,20.1612733062994,6.82557737843557,7.64560586528393,8.60663778636783,14.4360322816611,14.984016447316,16.3761010057792,18.8554137385462,18.377489564845,17.3477874995971,0.726328134087713,0.729318175997053,0.99092985905268,1,1,1,1,1,38.6482025,-75.44606,2016,"DEH1",6
"TX714/PHZ51","SDH1_2015",17.3,650.0285431296,0,1,178,102,76,70,1.89000003376315,2.68444448047214,2.84721252258907,0.928406020685138,1.08916666979591,1.21319316571409,1.12388611954165,3.99455887308239,0.570569385236773,58.5900010466576,24.1600003242493,33.8600005656481,31.148749768734,1.72000000625849,12.7762498259544,39.0256242752075,27.9024994894862,17.6581250801682,21.1644650428526,23.3864585028754,24.0305424227224,23.9487849489623,21.7433571616809,21.4249004835432,20.6021277482611,16.2774682791546,15.1857998291828,19.0429034079275,22.5888888041178,27.2082641597216,30.462296538412,29.5476047595342,31.8607387889515,31.4777038165944,29.4866452272578,24.897335823114,4.20870966368145,8.46888891855876,11.6908214324257,14.2596964676466,14.2906251748403,16.0653409849514,14.0226982217202,14.1157811645306,6.94290009588376,6.80751690571185,9.21066066646885,12.2739043710277,14.6760611342004,14.1888826298485,15.8143187909023,15.0055273063528,14.1753903925901,9.83480829576472,0.770253459523831,0.983690483229501,1,1,1,0.983472358000217,0.961069401861592,0.950039755118484,44.208745,-102.928745,2015,"SDH1",7
"F42/OH43","ARH2_2016",13.65,731.12121286656,0,2,218.5,126.5,64,61,5.78093742206693,12.265000184377,3.71212020820834,7.02228860006285,1.10500001907349,0.295568184419112,1.93128791351543,1.45469692692612,6.28083569178483,184.989997506142,73.5900011062622,50.6740907539021,233.205909837376,2.21000003814697,2.36454547535289,51.2972726388411,7.65681795640425,194.70590644533,17.7645711898804,17.2271962165833,20.1405853736324,19.8064448117891,18.8826211727027,19.79738723148,18.6944065441324,19.8885487758752,15.607143551723,21.0278125703335,25.6983334223429,24.8822470662624,27.5574788870291,33.1628784988866,33.3801704536785,32.4072806330723,33.7124844464389,31.3768475300406,8.51718754693866,14.1383333206177,13.2669300286413,16.7583488235741,22.7915153503418,23.2152275497263,22.5635331248055,22.9502423373136,22.3752492012516,8.62630812400512,12.3761800663264,11.7581879605187,14.4664485465038,19.8918990278765,20.2426308826887,19.4302420192383,20.2373530270853,18.8112695233672,0.958649555088154,1,1,1,1,1,1,1,35.838614,-90.66530155,2016,"ARH2",20
"B73/PHM49","MOH1_1_2020",13.4,731.12121286656,0,0,216,105,56,54,2.76562495436519,8.11999974250793,10.4965665432202,1.90988591541756,5.80285712650844,7.41529583070873,3.69147555579874,2.29330189178664,3.40093086493501,88.4999985396862,40.5999987125397,96.79785660335,57.0957142966134,7.73714283534459,67.398571559361,118.8485709639,17.5292856608118,104.715713961848,18.7546628713608,21.2521137237549,22.4992353525235,20.3165893948899,20.846220720382,17.6863092529825,18.1247609809281,17.4629379813572,14.6415832693126,22.1865625679493,30.7699993133545,28.8654612498961,30.7246999845884,30.6222615696135,31.262532432358,28.6735263227042,29.5448009486396,24.3522503449254,12.2309375330806,19.2180004119873,17.3563651522358,20.0318803133021,19.4051194418044,21.453094976461,18.106764951949,17.5897200308714,12.913667504011,10.4179893534471,16.9939998626709,15.2134650030725,17.3995363981545,17.013690505709,18.3658920907666,15.5120526403147,15.801643365393,11.5681836400825,0.936383935755917,1,1,1,1,1,0.995985622640443,0.962870503946671,38.8978375,-92.2070925,2020,"MOH1",20
"WF9/H95","SDH1_2015",21.95,647.45417266176,0.5,6.5,152,83,75,73,1.89000003376315,2.68444448047214,2.84721252258907,0.928406020685138,1.08916666979591,1.21319316571409,1.12388611954165,3.99455887308239,0.570569385236773,58.5900010466576,24.1600003242493,33.8600005656481,31.148749768734,1.72000000625849,12.7762498259544,39.0256242752075,27.9024994894862,17.6581250801682,21.1644650428526,23.3864585028754,24.0305424227224,23.9487849489623,21.7433571616809,21.4249004835432,20.6021277482611,16.2774682791546,15.1857998291828,19.0429034079275,22.5888888041178,27.2082641597216,30.462296538412,29.5476047595342,31.8607387889515,31.4777038165944,29.4866452272578,24.897335823114,4.20870966368145,8.46888891855876,11.6908214324257,14.2596964676466,14.2906251748403,16.0653409849514,14.0226982217202,14.1157811645306,6.94290009588376,6.80751690571185,9.21066066646885,12.2739043710277,14.6760611342004,14.1888826298485,15.8143187909023,15.0055273063528,14.1753903925901,9.83480829576472,0.770253459523831,0.983690483229501,1,1,1,0.983472358000217,0.961069401861592,0.950039755118484,44.208745,-102.928745,2015,"SDH1",11
"W10005_0107/PHB47","IAH4_2015",15.45,717.6057679104,71,8,230,101,65,64,1.42451612026461,4.85461551409501,2.51366814388176,6.35112741860021,5.46999979019165,2.15468744138877,1.85099418012837,0.335758933997048,4.06477020181796,44.1599997282028,63.1100016832352,35.58999979496,218.239999890327,10.9399995803833,20.3081244528294,58.4868740737438,2.37750003859401,125.114376250654,19.8399788794979,19.2877280528729,16.0227039780687,20.6982291705844,17.2771818637848,21.3583117332723,20.173035647804,19.5936077237129,15.6142427020175,15.8303226194074,16.787692290086,22.2616416304594,27.8872542261576,29.3799998760223,31.527847079436,28.6989534201586,30.1840446931975,25.4683327571038,2.47354838888972,5.02461542532994,13.4828078946313,16.5986873437933,20.3737498521805,19.7862846771876,17.3729821147223,16.8951585807971,12.6851404789395,5.3186939130858,6.22884723842383,10.7829124536012,14.4752906425735,16.8768748641014,17.6605473898843,15.1814165620107,15.7121042559737,12.0590735738697,0.585391697096145,0.659230776868024,0.989944130014561,1,1,1,1,0.952600636395888,41.19970961,-91.49362406,2015,"IAH4",12
"PHG80/PHZ51","WIH2_2015",36.35,789.04454839296,0,0,257.5,161.5,65,64,3.12677418801092,2.65500004092852,4.10360587788369,5.33606725073504,1.86882352828979,3.14284756646862,3.06635871261474,6.46327216547577,3.42627895726651,96.9299998283386,15.9300002455711,53.5811765053693,186.069413493661,5.43588234396542,36.0370585217195,132.474706411362,52.801177333383,103.499412364819,19.6364621193178,20.5731145540873,21.5892617017256,21.0711117653476,18.3630023844102,19.2051703551661,18.5458357222424,13.68038167737,11.3747629179222,15.6409677997712,24.9766667683919,26.1182311514896,28.0952907748788,27.5158822676715,27.9129860396904,26.446906195709,23.9533144307555,17.6364554289999,3.35580646607184,13.6266668637594,13.8892249418098,15.1778817355709,17.2276475008796,16.9294609080024,13.7343451854096,12.6373390166389,6.34391337544442,5.37086055393058,11.9313890592981,12.6525642606911,14.0429022055175,14.4358603312718,14.5758898439564,12.7664601406529,11.4948295633928,7.02316371690367,0.588214291611575,1,1,1,1,0.979783321564246,0.914260834660243,0.715230077160589,43.3264485,-89.33359975,2015,"WIH2",11
"F42/OH43","WIH1_2016",22.45,731.12121286656,2,6,246,136.5,70,69,2.07612901829904,1.94750002026558,4.43029129058702,4.06837717818273,0.606590926647186,8.20447110085448,6.520888551421,7.2858018260261,4.4131911117893,64.3599995672703,23.370000243187,50.6681830666282,153.97863580422,1.01772730458866,87.4172730174932,222.460452949459,58.9559095664458,134.926818408749,19.9280546249882,20.9108026027679,19.5354633918175,20.656900418312,18.9729677330364,19.7636050157311,17.5087671369867,15.2137091671578,12.2388305592514,16.7025806211656,17.5758331219355,27.0818272779223,26.4913085721608,27.2215908223932,28.3583387540392,27.670006898165,25.1458900986296,22.9867464155046,3.3274193627219,4.99083332717419,14.0472380898586,14.4742379762581,17.5863633372567,16.7186735984708,17.173991451041,14.3205114663249,12.5735533033509,5.87586661218575,6.41950897413704,12.98865397587,12.9292428934718,14.50224274263,14.726515337733,14.5565806693068,12.2392458124565,10.7486023953999,0.621198160548089,0.765386900199311,1,1,1,0.999967802990051,0.998306276607307,0.970976554260314,43.05632525,-89.53194975,2016,"WIH1",21
"PHW52/PHN82","NEH3_2015",16.35,750.42899137536,0,1,229,110,63.5,62,3.23125005699694,0.918000030517578,0.565093977294324,1.28669219481814,3.19749999046326,1.39113635366613,0.258061220527439,1.47466718299048,0.155891338361218,103.400001823902,4.59000015258789,6.15000009536743,39.0474997758865,4.72000002861023,15.3024998903275,11.1799998283386,14.5287498533726,4.64812502264977,21.7912757396698,25.6944263458252,22.867254847038,21.8227166540337,15.2631763219833,20.5907900008288,20.0641284227863,16.2796896759308,13.5386177646183,24.2875001728535,32.6459999084473,30.5877144724061,32.6773132882273,28.9159377217293,29.872386563908,30.8070712705365,25.3903164518473,21.3201827481664,9.27874993439764,13.0079998016357,13.882863304929,15.7826582019676,17.055312037468,14.6271022883329,13.1831330674245,8.87540479026961,3.33401708582752,10.4625782483436,15.2833069114413,14.4546585187703,16.2200567809637,15.0938879027355,14.4964540010227,14.5302013640258,10.9003956474841,7.85174739566555,0.909587052451181,1,1,1,1,0.965712824155829,0.862507779461642,0.809539309558486,41.15824525,-101.9872958,2015,"NEH3",15
"W10005_0107/PHB47","MNH1_2015",15.1,729.83402763264,5,7,239,115,76,74,2.67645166525918,6.10285712991442,1.58721610445111,4.7077263256623,2.09382353109472,4.68577535931227,5.9350156688025,2.22326150676053,2.19878814463244,82.9700016230345,42.7199999094009,19.590000131551,155.007059007883,3.96529412269592,52.2323524741565,227.094708481256,20.9011769756017,67.401177584358,19.816934616335,15.8754692077637,21.6281845751118,20.6523619261065,17.2143456515144,21.1212332316686,17.7408483022691,14.5374503953005,12.0629753461599,17.4338709308255,22.6300002506801,27.2892179925706,28.4642367103754,28.3652941759895,28.0789971632116,26.1408952283773,24.7325950747879,17.9009570518097,4.56741930688581,13.7342856270926,14.30007362468,16.8971689663296,18.654117640327,16.1974599531415,14.7564351113732,13.5728072906729,6.63464769243789,6.28381609962703,10.8743797711898,13.2690560805916,14.8702380832727,15.6411451436446,14.3539204313244,12.9900637188381,12.4683668720892,7.55733067966644,0.72298386648366,1,1,1,1,0.97770300313998,0.878626049359361,0.7212296457923,44.07038575,-93.53519625,2015,"MNH1",13
"B73/PHN82","ARH2_2018",14.88,731.12121286656,0,2,171.5,88.5,68.5,64,4.52312493696809,5.87777773539225,3.20221045546513,3.22538419759111,0.461428574153355,5.07039669960264,1.70725153730848,1.54697617831684,1.91550691130524,144.739997982979,52.8999996185303,46.3228566646576,103.499284437725,0.461428574153355,45.6335702964238,42.6871420655932,7.34642852629934,59.3807142504624,17.754108697176,19.645527097914,19.5209714731691,20.0568442813419,23.807372706277,19.9782345332797,19.1297214036176,18.2548979571076,18.0559728640016,19.6187500059605,21.9200000762939,22.773456222744,28.907182961616,31.9800004959106,30.9839679929945,32.8413090722368,33.5659560339791,31.9039170577229,8.73406261950731,10.3477777904934,11.2877129581977,17.8543030688035,18.7064290046692,19.7554763460916,22.4826605422564,23.260513297879,21.2522349467475,8.30560135863556,9.42321555433479,10.2210790341996,15.520093271009,17.3523251398544,17.3798448246148,19.6186100549221,20.2782541977247,18.5368977813659,0.857433027720877,1,0.994106716733556,0.995975764430299,1,1,1,1,35.674241,-90.0749725,2018,"ARH2",30
"CG119/CG108","DEH1_2020",16.7142857142857,719.53654576128,6.28571428571429,6.85714285714286,189,98.7142857142857,53.5714285714286,52,3.88483868875811,2.91874992847443,0.484801505503061,3.71268255549857,3.96392849513463,10.5487894544762,3.68050884933542,4.08975176026626,5.319973187453,120.429999351501,23.3499994277954,5.74999997019768,113.1935703797,6.56571415492467,94.9292836615017,102.593572867768,23.166428906577,164.612859283175,19.3438995884311,17.33862388134,21.2312624647651,20.3726220481303,20.8446989627112,18.1338016267807,16.8296419143509,15.5006431469301,15.1408180300907,17.434838879493,21.1624999046326,25.0214381114927,29.0102466521478,32.2544050670805,31.3041766938709,31.9504815386958,29.3682823985612,28.2151496441866,6.79290319402372,12.8525000810623,15.4018443361914,18.8679049092236,21.2860713232131,21.9305357119394,22.8433926389509,21.0652513572148,19.3078685858649,6.86665098039301,10.0448246591535,12.6407234275317,16.020283469814,18.7216176458005,18.6039745498917,19.328040061196,17.2231380052054,15.9100314441845,0.793629040417995,0.982098209006446,1,1,1,1,1,1,38.628981,-75.46566025,2020,"DEH1",18
"PHW52/PHN82","ONH1_2016",31.9,660.32602500096,0,2,202.5,94.5,87,82.5,1.97903224729723,2.10571429133415,0.921813660111247,1.4397382865638,4.72083331843217,2.43543939581423,4.62931562992959,1.31185226971093,2.04330374064945,61.349999666214,29.4800000786781,13.3160000681877,60.2840000450611,10.9924999892712,28.5415000140667,172.047501341999,11.3764998450875,61.3804993152618,20.2488387169376,21.5672763415745,23.7736534890274,22.4114230831704,19.3081846952438,20.6147360729449,17.1281369087258,15.3153421936676,11.6349498992261,10.4929032143085,16.4799998828343,25.0156145674307,25.5146692195041,28.2251669565837,27.9941591414538,27.3135614713641,24.4901795066248,20.388601503087,-0.735806467131742,3.75357140520854,10.9305092215939,11.6118469940074,15.5532501856486,14.7177574468381,15.072441088201,12.7162050899814,9.18578765883922,3.26930641138453,5.68876848413294,11.0920976145976,11.5617585881532,14.221610104509,13.7639954370179,13.5764243452927,11.5133866018644,8.77689949507841,0.291105987941889,0.684668366749752,0.998913789733904,0.988093962379835,1,0.998165816322577,0.971212583726985,0.877977400556158,43.4997965,-80.451125,2016,"ONH1",16
"LH195/PHZ51","ONH1_2015",33.775,708.59547127296,0,0,248.75,123.75,88.75,89.25,1.60562500171363,2.29631582059358,1.4114260910993,1.97329795371468,0.512941168803795,3.43676916784781,2.64103540530206,1.79995381645545,2.36057120934647,51.3800000548363,43.6300005912781,20.3011770318536,73.5029410351725,0.818823519875022,40.7335294695461,103.936472787577,19.5847062696429,71.148825086215,18.0216946154833,20.4737019036946,23.3400709093662,22.6454399715782,20.2406537486058,18.0725441178749,18.6044729913646,14.2275523091565,12.219208949974,9.77156253159046,12.6347369143837,23.7578119012338,26.8344168593777,29.9094126084272,27.4692824860095,26.1197207542336,22.8220175470625,18.3525084633076,-0.327500017825514,2.04526315237346,11.0134760611429,13.3191988703222,17.4331371830959,16.5032930170151,14.0677575161805,11.6957219533643,7.01371468782571,2.85121172458945,4.201400589021,10.6771310509359,12.7739998184956,15.7658975270033,14.1503260638498,12.635773860967,10.4824980569175,7.37915990096047,0.167098218209243,0.403345873929504,0.957007130525896,0.991950294097347,1,0.994472793880519,0.939113043318717,0.77236656111447,43.49741975,-80.44806025,2015,"ONH1",12
"B73/PHZ51","GAH2_2016",11.1,731.12121286656,0,2,262,219,52,51,1.48612904548645,0,7.31639282646724,2.07978285641698,1.71842106392509,1.26467104491435,2.43256313956764,4.61773679005472,3.23545616822656,46.0700004100799,0,60.5099992752075,55.9721047376332,3.43684212785018,10.1173683593148,67.3173680117256,23.1589471101761,100.284737706184,20.2118938661391,22.8758346557617,19.1011230160256,21.3403657539832,17.8587609090303,19.8381845135438,18.504799453929,15.9975397963273,17.296879826121,27.806774262459,30.5040000915527,32.0601081155143,34.2138268998867,34.9384203459087,34.8628289574071,34.6245511355174,33.3337369617663,32.8000339166958,13.8351613013975,16.5560001373291,19.3590630480755,20.3201968396974,22.9621053996839,21.7643420821742,22.0498494210966,22.2967018729762,20.1464993783425,13.3256687060676,15.6030228291554,17.7253179345392,18.7837254612071,20.3663812460935,19.8919083811276,19.9091667022268,19.7008010464687,18.4234032944344,1,1,1,1,1,1,1,1,33.717295,-83.3110275,2016,"GAH2",8
"PHB47/PHZ51","ONH1_2016",27.125,650.0285431296,0,2,215.75,114.25,82.5,81,1.97903224729723,2.10571429133415,0.921813660111247,1.4397382865638,4.72083331843217,2.43543939581423,4.62931562992959,1.31185226971093,2.04330374064945,61.349999666214,29.4800000786781,13.3160000681877,60.2840000450611,10.9924999892712,28.5415000140667,172.047501341999,11.3764998450875,61.3804993152618,20.2488387169376,21.5672763415745,23.7736534890274,22.4114230831704,19.3081846952438,20.6147360729449,17.1281369087258,15.3153421936676,11.6349498992261,10.4929032143085,16.4799998828343,25.0156145674307,25.5146692195041,28.2251669565837,27.9941591414538,27.3135614713641,24.4901795066248,20.388601503087,-0.735806467131742,3.75357140520854,10.9305092215939,11.6118469940074,15.5532501856486,14.7177574468381,15.072441088201,12.7162050899814,9.18578765883922,3.26930641138453,5.68876848413294,11.0920976145976,11.5617585881532,14.221610104509,13.7639954370179,13.5764243452927,11.5133866018644,8.77689949507841,0.291105987941889,0.684668366749752,0.998913789733904,0.988093962379835,1,0.998165816322577,0.971212583726985,0.877977400556158,43.4997965,-80.451125,2016,"ONH1",8
"TX951/LH195","GAH1_2020",20.745,736.463031587328,0,3,197.5,97.5,68,68,4.27968756295741,0,6.08243138020408,3.81142053665399,2.26797622726077,2.53000005464705,3.98378478018425,1.74183334594681,2.91020735672542,136.950002014637,0,84.3757133483887,135.927856496402,4.83357150214059,22.7700004918235,107.937856589045,9.11500006914139,90.216428058488,16.61263859272,21.597287495931,19.1063623666566,20.7228669323379,14.5468794504801,18.1558473072355,20.0860545342815,19.6863488855816,18.2778173152203,25.3734375238419,26.7716668446859,25.9414437889232,27.7782461895112,29.5535711560931,30.6518254961286,31.7819527581035,33.481785315559,33.5632257461548,12.4387500640005,10.556666692098,12.1903592865197,13.8072078123191,20.5805949710664,20.2611109718444,20.573869922599,21.9683809507461,22.2545622197164,11.8050821453841,11.6911327448693,11.8898952454891,13.3543297450153,17.0670830635797,17.4564682339865,18.1799652092781,19.6703232683732,19.801667626888,0.988537947248135,1,1,1,1,1,1,1,31.5079775,-83.558517,2020,"GAH1",13
"PHG39/PHN82","MOH1_2_2020",17.3,731.12121286656,0,0.2,226.4,93.6,58,56.2,2.76562495436519,8.11999974250793,10.2353328673319,1.9001973638123,6.86294118095847,7.49632206065132,3.61617107977626,2.90162677764285,3.30378619704459,88.4999985396862,40.5999987125397,96.124117121977,56.3941176358391,8.45588235294118,68.0111766142004,117.808234836797,21.5270588468103,101.327058393289,18.7546628713608,21.2521137237549,22.5899971099444,20.2861716619134,20.6427094328637,17.4883495144949,18.1590292123562,17.201188402901,14.6933516897784,22.1865625679493,30.7699993133545,28.8488290507166,30.7433971374194,30.905587869532,31.2308437009688,28.7478064862917,29.2169789190295,24.1743630282567,12.2309375330806,19.2180004119873,17.3051670261327,20.0610583041747,19.70343170914,21.5044441925792,18.1515339525016,17.4034669344519,12.7162555993923,10.4179893534471,16.9939998626709,15.181783668694,17.4222706430064,17.304509789336,18.3742967355387,15.5665539026577,15.5350905066488,11.4110544222645,0.936383935755917,1,1,1,1,1,0.996694042174483,0.965786214348013,38.8958275,-92.2071575,2020,"MOH1",22
"B73/DK3IIH6","TXH1_2016",9.7,662.25680285184,0,2,218.5,86,68.5,68.5,1.63366669813792,16.1399999346052,0.997024219685634,4.71986560334683,0.129393938815955,3.27727272687865,13.062324570375,0.703636358001015,1.01712562139433,49.0100009441376,112.979999542236,14.5313639044762,177.354999092492,0.330909089608626,36.0499999956651,378.067267352884,3.17999996922233,30.534545768391,13.9726291974386,10.7287414414542,17.8894095128623,17.8007609349484,20.5568532076749,19.7779241435784,17.9048036307734,20.8338603973389,20.1432609317589,22.3250001589457,23.9500002179827,24.4830925562751,26.4049851333462,28.5388636011066,28.6354545482919,30.1287031897283,34.3540452523665,35.5883872279207,6.03466663161914,13.3357141358512,9.67537964446524,13.1275877936174,15.7853026679068,16.3376445415591,20.1390285305243,23.0818636243994,24.0011842107726,8.47337903343467,11.2978355051063,10.5045992024655,12.4611166479839,14.4368127893531,14.7220414816358,17.1236823819741,20.5322511435483,20.8759903806844,0.915869047670137,1,0.972225206868779,1,1,1,1,1,30.54708625,-96.43393475,2016,"TXH1",3
"LH74/PHN82","WIH2_2019",25.85,642.62722803456,0,0,242.9166665,112.916667,65.25,64.5,5.08468752354383,1.18666664759318,3.6826903842319,5.86844075059536,0.695238090696789,4.73009736972414,4.31577464825363,4.39550227859553,4.5479470677731,162.710000753403,7.11999988555908,58.0892852885382,183.800716136183,1.22285713468279,55.0542853304318,207.543570097004,59.5300005589213,136.879287609032,20.5184082686901,23.1025533676147,19.8462265884652,19.5497870934029,22.1357431638808,19.0482196356906,14.9081708567355,12.9839793672648,9.3378728905398,18.934687525034,26.8550001780192,22.8072941633611,28.9284112862702,27.8675001462301,27.5314296675729,23.3386479941843,22.3078561940146,12.1954661551983,7.17343750596046,12.7983331680298,11.759633151741,17.3057566963452,14.6784524122874,15.4249876302121,12.5616155530279,11.349939856886,2.68747308500535,7.56817394253405,12.4405435406301,10.3208419077868,15.2441985143731,13.6357406598178,13.7824031844248,10.8770867954482,10.5509228774816,4.71357086510305,0.80854910452451,1,0.995612407809644,1,1,0.966295589443794,0.875965565851245,0.450550637737248,43.320768,-89.33189475,2019,"WIH2",16
"B73/PHN82","DEH1_2016",20.9,733.6955833344,0,2,276.5,148,77.5,75.5,2.70187503471971,7.43181821432981,3.8913443672194,3.01543568987816,5.35810598460111,2.45305554595861,7.02803129397506,2.62431810561455,3.19686020007931,86.4600011110306,81.7500003576279,66.3949995338917,101.616362200542,13.3345452438701,24.0222726382992,188.323178079995,15.0527268241752,98.5804540785876,18.330474331975,10.1000462011857,19.4097170760173,21.0293855949914,18.2505545182662,17.6465201137042,18.9446848277627,17.7865102970239,16.4444979187331,18.0900000035763,16.6009089730003,19.9020842077776,27.6764673780698,27.7968177506418,28.9030859032063,31.9137982464639,31.2181211240364,30.5716960682314,5.52968750568107,9.93090907010165,10.1128978635646,16.858989299231,18.0210605245648,19.7880051766983,21.9088104518459,21.6295759258848,20.1612733062994,6.82557737843557,7.64560586528393,8.60663778636783,14.4360322816611,14.984016447316,16.3761010057792,18.8554137385462,18.377489564845,17.3477874995971,0.726328134087713,0.729318175997053,0.99092985905268,1,1,1,1,1,38.6482025,-75.44606,2016,"DEH1",31
"B14A/OH43","OHH1_2015",13.6,723.39810146304,0,1,266.5,124.5,63,62,4.82000001592021,2.05666665236155,1.8016670612875,2.43025542541639,2.07058826351867,2.75488234968746,3.66477206268986,1.62396928821263,1.87402210834658,149.420000493526,12.3399999141693,20.2723527515636,82.005883025115,2.23529414043707,26.291764680077,128.020000677446,12.1676469725721,57.1841167421902,17.7133923884361,20.8318819999695,20.8504862520016,20.9356642552082,20.2841929828419,19.5983911919438,17.6623654731294,17.237828458056,14.8348144727293,16.9506451083768,28.0366668701172,26.6417370455297,29.0138207907373,31.0797056871302,30.5952285666871,27.9976227319583,26.6909718314382,23.3465995867595,5.92838709981691,15.4216669400533,14.6630804319106,16.7480126687244,19.2376467199887,18.7432220596114,16.69895780864,13.9098062949743,10.2630872667863,6.58077337714871,14.0473032853577,13.1946799490515,15.0820388919063,17.1686464861742,16.6914321647213,14.5351322646266,12.9234739672045,10.2993285577833,0.672569122324238,1,1,1,1,1,0.994932126289964,0.947361454583103,39.855785,-83.66477375,2015,"OHH1",17
"B73/MO17","NYH1_2017",17.7,731.12121286656,0,2,229,110,65,64,4.75870958066756,4.13999998569489,2.95302494204596,5.71550623200518,4.32087287827144,2.70173206300027,2.61632844338824,1.02263058497457,3.61426843911905,147.519997000694,37.259999871254,45.1261899925414,219.922381491888,11.2685710702624,35.6957141047432,128.424762705962,13.3047620654106,110.890000857058,18.9744435125782,17.8100527657403,22.0763726985416,19.3839747471171,18.5614137876601,19.2253497353029,16.7138256789592,13.4350664320207,9.03754833240572,17.0696775221056,20.2333335876465,22.7745171017373,25.664886994249,26.7039681691972,25.3269152449164,23.2600727170173,23.9684052634079,17.611198191458,5.96419353350516,10.1900000042386,10.9371763249011,15.2036229448209,16.362936383202,14.6065672757674,11.3179340366411,11.5668532308226,6.66954478092379,6.64112734378757,8.72725367499605,10.1527049274721,12.7947461464451,13.7193522643836,12.3756778221065,10.4503517934596,10.9124923049431,7.23915136927561,0.685760370631646,1,1,1,1,0.982493677824514,0.953634339212795,0.701363064221172,42.72880835,-76.6515625,2017,"NYH1",15
"F42/OH43","OHH1_2016",18.4,695.0800263168,0,34,274,122,65,64,4.32806446475368,1.77600002288818,3.91514520817277,2.58074065911205,3.89075762575323,4.1704949600528,5.07906928910772,3.9577419347548,3.61459481407063,134.169998407364,8.88000011444092,44.703636136922,85.9177285974676,9.33045467463407,39.9481819326227,160.185453747484,27.6977266587994,110.118636226112,18.3437643974058,22.2428304672241,20.7314695601022,20.3598251803728,19.1523341554584,18.8282464220066,16.7204849062197,17.9873095465335,14.717978926255,19.6358064528435,29.6320003509521,26.5695358893096,28.5926358759461,29.5910605517301,30.6928383605649,29.2168918167121,28.2718868666116,26.3058832172308,8.12096774674231,16.8959997177124,14.973912901117,16.7052856168403,18.3031819083474,19.7444342603587,18.9160148979259,15.4450083848343,13.402624611054,8.11765705231608,15.3272200928741,13.170280569172,14.8167815407942,15.9685705423992,17.2330323566172,16.1171316077875,14.2150247381021,12.5845870964483,0.859331788177589,1,1,1,1,1,0.999172077691259,0.989049277132183,39.860924,-83.6755995,2016,"OHH1",22
"B37/H95","TXH2_2020",15.625,770.7021588096,0,2,198.755,66.675,69.75,70.75,2.28433333331098,0,4.62190601893642,2.98212486109347,1.65500000544957,6.6891140146517,2.89405669810805,2.6158928505012,2.52840013820821,68.5299999993294,0,55.8871426582336,111.366428869111,1.65500000544957,70.9185716084072,82.981430636985,12.8707142599991,76.1657138211387,13.9134384314219,13.3863348007202,15.0866111560474,19.803288917066,19.033588205065,19.2160028015896,19.6119811590575,21.5690046037946,17.9190584017934,20.0226665178935,27.1799999237061,26.5908877208556,26.4906358222245,29.807499840146,29.1309458846826,32.1753435797528,33.0040716307504,34.5761613763789,6.79433329502742,17.2040002822876,15.225541109216,13.6066640599696,17.9690478642782,16.6326781709129,20.7865935447495,19.7931782722473,24.1392358327242,7.90124714145222,14.2729251500305,13.3655726382532,12.7306893070716,16.0895726192153,15.1219271903472,18.3983196746893,18.3923998362645,20.4692781310852,0.821357143209094,1,0.992404767624491,0.993752440088375,1,1,1,0.999043315061226,30.53825625,-96.42790225,2020,"TXH2",22
"B73/PHN82","GAH1_2019",16.985,718.24936052736,0.5,1,202.5,100,61,60,4.2248276430985,1.98000000582801,1.90823678359521,2.10647248574171,0,0.0907142843518938,5.69186592379183,1.47342855930328,3.0456205472785,122.520001649857,17.8200000524521,22.3799997738429,72.0499995776585,0,0.725714274815151,156.552854708263,7.36714279651642,92.869284595762,16.4500470983571,17.4863393571642,17.4025938464352,20.9384505981452,22.5114740644182,21.8443094832557,17.6671443571744,19.7649144172668,19.7113921770486,21.2065516504748,22.5866669548882,26.8157474524398,29.5228407044518,35.0427381424677,35.7019644635064,32.622701984341,33.6281431470598,33.3689372225291,7.21482760176576,8.5955556233724,14.0449841602638,14.4754341124517,19.2165478297642,20.5846430063248,20.896611150629,21.7801428658622,21.253149004759,8.37062868121402,9.27422007508131,12.9164221771526,14.4004499916871,18.6772654256278,19.2831320721806,18.6339539837863,19.6355556785611,19.1804902073846,0.902167480218734,0.984365084814647,1,1,1,1,1,1,31.50582525,-83.55515025,2019,"GAH1",32
"F42/OH43","TXH2_2020",13.025,723.71989777152,0,2,191.135,59.69,68.25,70.5,2.28433333331098,0,4.62190601893642,2.98212486109347,1.65500000544957,6.6891140146517,2.89405669810805,2.6158928505012,2.52840013820821,68.5299999993294,0,55.8871426582336,111.366428869111,1.65500000544957,70.9185716084072,82.981430636985,12.8707142599991,76.1657138211387,13.9134384314219,13.3863348007202,15.0866111560474,19.803288917066,19.033588205065,19.2160028015896,19.6119811590575,21.5690046037946,17.9190584017934,20.0226665178935,27.1799999237061,26.5908877208556,26.4906358222245,29.807499840146,29.1309458846826,32.1753435797528,33.0040716307504,34.5761613763789,6.79433329502742,17.2040002822876,15.225541109216,13.6066640599696,17.9690478642782,16.6326781709129,20.7865935447495,19.7931782722473,24.1392358327242,7.90124714145222,14.2729251500305,13.3655726382532,12.7306893070716,16.0895726192153,15.1219271903472,18.3983196746893,18.3923998362645,20.4692781310852,0.821357143209094,1,0.992404767624491,0.993752440088375,1,1,1,0.999043315061226,30.53825625,-96.42790225,2020,"TXH2",23
"W10005_0107/PHB47","MIH1_2017",20.25,704.7339155712,0,6.5,105.5,50,63,63.5,2.65129033404012,1.64250004291534,0.365195355155368,3.68588979784018,0.0229824551364832,0.46297232149101,1.74576806741443,1.92419894727902,6.21584880662018,82.1900003552437,13.1400003433228,4.41789476338186,131.667893061512,0.0689473654094495,5.87157878122832,77.4078943196096,25.1578945925361,187.919470972136,20.7548004581082,19.5261926651001,24.4742989093836,19.8905510316777,21.9433432796545,22.1206047711906,17.4790874196007,14.7643136405382,9.64132186376111,18.9967743350613,22.1187500953674,26.4465225468316,27.4969315652497,27.7329823008755,27.824925694871,25.3738691139958,24.1007104170058,20.6398986734167,5.96129034796069,11.9187499284744,11.3631864125553,16.0503932975266,16.0887717866061,14.9625505184838,12.276571042592,9.93890341042346,8.93630907537408,7.30321713873745,10.0125802625948,11.8678501821976,14.0611352118072,14.116078975745,13.7509617648401,11.6765951301922,10.5934889835682,9.14877577769738,0.770126732675711,1,1,1,1,0.999072621356021,0.94927833355258,0.816440377467249,42.68116575,-84.49434125,2017,"MIH1",14
"WF9/H95","NEH1_2015",15.25,779.39065913856,0,2,255,110,65,58,2.95906250551343,0.753999996185303,4.74563283345314,2.18704069073799,0.179999995976687,3.60144891745383,1.54800079262728,0.0578125016763806,1.58921436409676,94.6900001764298,3.76999998092651,46.8499994277954,63.5081251226366,0.239999994635582,39.1218755729496,55.4949998706579,0.586250016465783,47.8581244703382,19.0719456225634,25.8469993591309,20.0059366173214,19.9624584223382,20.9646370410919,17.862962844426,18.3117533318471,17.3040564497312,12.3794141031722,23.749062538147,30.5139999389648,29.1300998729287,30.7414867126068,30.7375001907349,28.4385862173456,29.1303174585083,26.8837498406569,20.1234253179002,13.1921873912215,15.4699998855591,18.0403649873505,19.1809282210085,19.1128125190735,17.3324828895656,15.9213148381598,11.1533021022876,6.52520026862121,11.6448137461047,15.2595573319928,15.683366010067,16.9689110631387,16.9384551391655,15.0734546124166,14.9518339258185,12.0107008879437,8.15887847021127,0.924598212486931,1,1,1,1,0.969696650265103,0.982957587710449,0.758540942647513,41.290979,-96.41664325,2015,"NEH1",12
"F42/MO17","WIH2_2015",34.45,767.80599203328,0,0,257.5,146,65,64,3.12677418801092,2.65500004092852,4.10360587788369,5.33606725073504,1.86882352828979,3.14284756646862,3.06635871261474,6.46327216547577,3.42627895726651,96.9299998283386,15.9300002455711,53.5811765053693,186.069413493661,5.43588234396542,36.0370585217195,132.474706411362,52.801177333383,103.499412364819,19.6364621193178,20.5731145540873,21.5892617017256,21.0711117653476,18.3630023844102,19.2051703551661,18.5458357222424,13.68038167737,11.3747629179222,15.6409677997712,24.9766667683919,26.1182311514896,28.0952907748788,27.5158822676715,27.9129860396904,26.446906195709,23.9533144307555,17.6364554289999,3.35580646607184,13.6266668637594,13.8892249418098,15.1778817355709,17.2276475008796,16.9294609080024,13.7343451854096,12.6373390166389,6.34391337544442,5.37086055393058,11.9313890592981,12.6525642606911,14.0429022055175,14.4358603312718,14.5758898439564,12.7664601406529,11.4948295633928,7.02316371690367,0.588214291611575,1,1,1,1,0.979783321564246,0.914260834660243,0.715230077160589,43.3264485,-89.33359975,2015,"WIH2",18
"F42/OH43","OHH1_2019",23.4333333333333,696.36721155072,0,0.833333333333333,239.166666666667,115.5,58,57.3333333333333,4.52187501639128,5.60142850450107,9.49218418812764,3.67767790493084,1.56571434225355,0.385974026345587,1.86530509479137,1.65904762083981,1.75173883737507,144.700000524521,39.2099995315075,109.352857010705,105.492856400354,2.90714296272823,4.24571428980146,67.7371422350407,11.4071428733213,52.9257135008063,18.8840596526861,17.4926710128784,16.8400286458912,20.3390746061215,18.2435736315591,21.9239106364064,17.3234712965801,16.4353543187485,12.6882473915586,23.6978123784065,23.0442856379918,25.9338769538436,30.6462611406935,27.2342853546143,29.1364936828613,27.6347160934714,28.4020578731485,24.227758823928,12.3731250613928,13.0142856325422,16.5405247622919,19.1537767425904,17.2985715184893,16.61116872515,15.6873998226323,14.4186055400745,10.1522703877059,11.0978151065421,10.856451580884,13.4108578189607,16.9524907944801,14.3911883936558,15.002149715115,13.9211580533092,13.8157455840743,10.7664966885892,0.952522322535515,1,1,1,1,1,1,0.923664696824271,39.85685125,-83.67122475,2019,"OHH1",24
"PHW52/PHM49","TXH1_2016",10.7,721.78911992064,0,2,205.75,62.5,73.75,73.75,1.63366669813792,16.1399999346052,0.997024219685634,4.71986560334683,0.129393938815955,3.27727272687865,13.062324570375,0.703636358001015,1.01712562139433,49.0100009441376,112.979999542236,14.5313639044762,177.354999092492,0.330909089608626,36.0499999956651,378.067267352884,3.17999996922233,30.534545768391,13.9726291974386,10.7287414414542,17.8894095128623,17.8007609349484,20.5568532076749,19.7779241435784,17.9048036307734,20.8338603973389,20.1432609317589,22.3250001589457,23.9500002179827,24.4830925562751,26.4049851333462,28.5388636011066,28.6354545482919,30.1287031897283,34.3540452523665,35.5883872279207,6.03466663161914,13.3357141358512,9.67537964446524,13.1275877936174,15.7853026679068,16.3376445415591,20.1390285305243,23.0818636243994,24.0011842107726,8.47337903343467,11.2978355051063,10.5045992024655,12.4611166479839,14.4368127893531,14.7220414816358,17.1236823819741,20.5322511435483,20.8759903806844,0.915869047670137,1,0.972225206868779,1,1,1,1,1,30.54708625,-96.43393475,2016,"TXH1",29
"F42/MO17","GAH2_2018",13.7,730.4776202496,1.5,2,254,130,54.5,53,4.84967745888618,0.472857134682792,6.38984283527144,2.50728712962131,2.62500000283832,3.79519841145901,2.49966845428401,2.8287857288406,3.72412446731796,150.340001225471,3.30999994277954,84.9085696467331,76.9578574214663,5.38785717317036,33.8478571346828,66.1414286494255,15.0642858062472,115.447858486857,20.4955881180302,21.8851153509957,20.3329850251172,19.1599877182245,23.5162671634129,19.7079079832349,20.0248900302085,19.4201906385876,16.0079359810473,23.574838699833,25.8042855943952,25.0982466928002,29.4338754995983,32.5767859504336,32.3044644802336,33.9553133770799,34.1288569904509,31.9958754816363,8.78774203408149,10.5771427835737,11.2078081937334,18.18961495413,18.4690478188651,20.5788887871636,21.2528475332136,21.0849286215646,21.0162903284697,9.71754329526851,11.3392147010659,11.2342556626861,15.8911321098361,17.5337695363242,18.4416766336986,19.3188239485151,19.4729093337791,18.4928476713494,0.993778801184096,1,1,1,1,1,1,1,33.71560925,-83.30894675,2018,"GAH2",19
"W10001_0022/PHB47","IAH3_2015",16.7,718.24936052736,0,9.5,251,131.5,65,64,1.88812499120831,2.91357139178685,3.78481399490418,6.97192884345098,0,3.25750006437302,1.48738522759636,2.54144646929843,4.50744494696458,60.4199997186661,40.7899994850159,55.4399998188019,241.660000324249,0,32.5750006437302,50.3143747076392,24.6850003898144,138.775626681745,19.8017279356718,20.0399833406721,15.9141292010857,20.6828349141208,21.6913648645083,21.2442863583565,20.6378456393082,18.6830175797854,14.9219848873154,14.6418750584126,16.6814285005842,21.6371087993342,27.6137224668604,30.8788542747498,30.3035624980927,28.5962540049038,28.5165626687663,24.3338990757542,0.832500039599836,3.60071423649788,12.2454287241307,16.0517815224708,19.4736456473668,18.1100625455379,15.9931958270939,14.3037321656942,10.6490121472687,4.60513154837493,5.78749983119766,10.114657753447,14.1164012039241,17.1762499610583,16.2539166939567,14.5767076625307,13.9758338636144,10.8754278827313,0.501462055137381,0.634540812549542,0.981270752987184,1,1,1,0.968879462565695,0.933929792194543,41.97585629,-92.24291804,2015,"IAH3",8
"2369/LH123HT","MIH1_2018",26.1,671.91069210624,1,1.5,259,130.5,66,64,5.01225806436231,1.85857137611934,2.30331191463433,3.25951691756812,0,1.60415119941418,2.92619831356102,4.21553021195656,2.83007403868438,155.379999995232,13.0099996328354,29.7907139573778,101.442142486572,0,18.1621430601392,122.341429148402,36.1057143041066,85.3414282117571,19.7861952781677,22.4124417986189,25.0884598450622,20.2612458458858,21.4032746950785,19.637790091245,17.5968755658502,14.6465572693566,11.3353334319491,19.0825806125518,24.4042857033866,26.505944844571,29.8591727623839,29.2076190766834,28.9402475938851,27.0018144543115,23.872538371452,17.7408049407478,7.63354836452392,11.5700000354222,11.5577044046365,16.9041061443352,16.7723805904388,17.0588350970071,14.0643132941307,11.7732902665618,6.16018373429463,7.98558094772299,11.0854581776882,11.9601199609315,15.5131733342938,15.0676347638495,15.1176834662804,13.1591194742283,11.0037102398898,6.94989994028217,0.750656678482959,0.993928568703788,1,1,1,0.982067154646315,0.951173413871536,0.716707840592432,42.689234,-84.49755575,2018,"MIH1",12
"F42/OH43","DEH1_2015",21.75,687.35691491328,0,2,243,116.5,67,61,2.877187483944,6.84800000190735,1.65812227065002,2.89981113868033,0.533124998211861,6.39805544084973,4.54206526084818,4.66633341695581,5.69481861783612,92.069999486208,68.4800000190735,26.8631244525313,94.403749205172,0.778750002384186,57.5824989676476,115.858124211431,26.7362504601479,176.53937715292,18.0978914797306,17.2013893604279,20.1115188355204,21.0089776981854,21.5349248051643,19.2473051614232,17.7019111319721,15.0562807784194,15.1484673523134,16.8265626430511,19.2440000534058,20.7237695406926,27.6889034218542,31.5665628314018,31.8635417355431,32.09465687106,30.4336400264785,29.0939515059994,6.26593750482425,9.85899999141693,10.7453803031313,17.6787637613727,20.387500166893,21.3565970261892,22.772206074744,22.282508844421,20.5664716151453,6.52196032901766,8.41291476735724,9.22995774812798,14.8599372331721,17.9770314991474,18.5817073937474,19.3617069706047,18.3580744354498,16.8673674529789,0.750435272946821,0.870857151065554,0.962682183853112,1,1,1,1,1,38.62935675,-75.4656925,2015,"DEH1",25
"B73/PHM49","GAH2_2020",14.275,722.75450884608,5.25,13.75,246.75,118.25,60.5,61,4.57387093959316,0.441111114290025,8.35394185372255,2.5962924982051,5.73357168265751,2.10309520316502,2.17900143835476,2.48514287812369,3.91854836534245,141.789999127388,3.97000002861023,91.3907156842096,80.7742858465229,11.4150005068098,18.9278568284852,57.7149996161461,12.4257143906185,121.474999325616,20.6617187376945,23.2718448638916,17.5894329765579,19.5164109002456,18.7530079569135,20.3538568436153,20.2600156135181,17.1142686435155,16.0110933209345,24.3293548707039,22.8122221628825,27.2504947599791,29.7690339777179,31.2345238640195,32.734285172962,34.1389163525176,33.4245718002319,31.6445851084274,9.68354843124267,7.43777778413561,15.0700236897766,18.4119594858843,20.4682145799909,20.9503967497084,21.2406723049754,21.9171428135463,20.839055221751,10.3443726467021,8.95024401989543,13.555408754191,16.1518166823771,17.8513692220052,18.8423409613352,19.4006118837996,19.5800409446887,18.2372896183776,0.993479262299252,1,1,1,1,1,1,1,33.72355555,-83.30265185,2020,"GAH2",21
"F42/MO17","WIH2_2016",19.85,769.73676988416,0,25.5,271.5,135,63,63,2.18548383155177,6.56333343187968,3.44709445848626,4.12469378805335,6.70715902429638,6.1588801108116,5.9452931370305,1.65427351296643,4.75874244467604,67.7499987781048,39.3800005912781,44.4554541761225,149.271818908778,18.9127270525152,63.8631812875921,228.761364199898,17.1177273826166,143.160909706896,20.0716181416665,17.6468149820964,20.4812055398289,20.037160747392,21.0009714148261,18.7397162859105,16.3191195187663,14.9467084400859,10.3303758997605,18.3467741935484,27.6566664377848,25.5962674903388,27.3504729025317,29.4464014732476,29.1534918075751,26.7093807853849,24.2132901889739,20.3726808053147,4.8400000141513,15.2516667048136,12.4366041874811,15.2184635103349,16.1839015628352,17.8104753683421,15.2982692422456,12.0891496999401,9.53777032181792,6.76617685026666,13.679230162364,11.7742945200385,13.6256578041453,15.0809804038395,15.5695050800475,13.3573766462884,11.1053684800171,8.84996703908283,0.729688938724281,1,1,1,1,0.998061417783429,0.979766621647087,0.886131911688794,43.32649075,-89.33882925,2016,"WIH2",20
"B73/MO17","NEH3_2015",15.6,751.71617660928,0,2.5,229,110,65,64,3.23125005699694,0.918000030517578,0.565093977294324,1.28669219481814,3.19749999046326,1.39113635366613,0.258061220527439,1.47466718299048,0.155891338361218,103.400001823902,4.59000015258789,6.15000009536743,39.0474997758865,4.72000002861023,15.3024998903275,11.1799998283386,14.5287498533726,4.64812502264977,21.7912757396698,25.6944263458252,22.867254847038,21.8227166540337,15.2631763219833,20.5907900008288,20.0641284227863,16.2796896759308,13.5386177646183,24.2875001728535,32.6459999084473,30.5877144724061,32.6773132882273,28.9159377217293,29.872386563908,30.8070712705365,25.3903164518473,21.3201827481664,9.27874993439764,13.0079998016357,13.882863304929,15.7826582019676,17.055312037468,14.6271022883329,13.1831330674245,8.87540479026961,3.33401708582752,10.4625782483436,15.2833069114413,14.4546585187703,16.2200567809637,15.0938879027355,14.4964540010227,14.5302013640258,10.9003956474841,7.85174739566555,0.909587052451181,1,1,1,1,0.965712824155829,0.862507779461642,0.809539309558486,41.15824525,-101.9872958,2015,"NEH3",16
"PHN11_PHW65_0323/LH195","IAH3_2017",22,746.5674356736,0,2,229,110,65,64,4.15375001356006,4.4766666730245,3.4047203572685,2.20734772714641,0.783636364069852,2.62827690366871,1.89268759309194,2.32887627154288,1.79425708641638,132.920000433922,67.1500000953674,54.0395462729714,78.3386354229667,1.5672727281397,28.0268186547539,71.8554548783736,19.050454611128,54.6954545270313,16.1449318900704,17.7512798945109,18.8930383212172,22.0798596418591,20.5492319916234,20.9938448555213,19.8185231453598,17.2291948925967,15.6432695544943,15.8431249856949,15.5066665013631,21.4265257838852,27.7149819965626,28.4552275339762,29.9007438281351,27.6545797965623,25.6472085203787,25.1376095450402,4.41906251013279,4.14133334358533,9.7822950630621,13.5652693310904,16.0590146888386,16.6123347960228,14.8096001989659,12.7460062737417,11.2819135157885,5.81888047108444,5.62230390959762,9.38713007160935,13.2881535043606,14.425618602213,15.384310503314,13.6587126105144,11.8979604849715,11.2922363413291,0.568604913274092,0.570380948412986,0.879734313174242,1,1,1,1,0.979205627165315,41.9758706,-92.24318881,2017,"IAH3",17
"F42/OH43","TXH1_2016",9.95,713.74421220864,0,2,207,68.5,71,69.5,1.63366669813792,16.1399999346052,0.997024219685634,4.71986560334683,0.129393938815955,3.27727272687865,13.062324570375,0.703636358001015,1.01712562139433,49.0100009441376,112.979999542236,14.5313639044762,177.354999092492,0.330909089608626,36.0499999956651,378.067267352884,3.17999996922233,30.534545768391,13.9726291974386,10.7287414414542,17.8894095128623,17.8007609349484,20.5568532076749,19.7779241435784,17.9048036307734,20.8338603973389,20.1432609317589,22.3250001589457,23.9500002179827,24.4830925562751,26.4049851333462,28.5388636011066,28.6354545482919,30.1287031897283,34.3540452523665,35.5883872279207,6.03466663161914,13.3357141358512,9.67537964446524,13.1275877936174,15.7853026679068,16.3376445415591,20.1390285305243,23.0818636243994,24.0011842107726,8.47337903343467,11.2978355051063,10.5045992024655,12.4611166479839,14.4368127893531,14.7220414816358,17.1236823819741,20.5322511435483,20.8759903806844,0.915869047670137,1,0.972225206868779,1,1,1,1,1,30.54708625,-96.43393475,2016,"TXH1",26
"TX779/LH195","TXH1-Dry_2018",11.75,739.48791688704,0,2,229.5,96.5,69,74,2.44233329544465,0.878333330154419,4.91741256001052,2.91095925044977,1.11232141086033,5.98734766325737,3.09403364827696,2.44530950245403,2.57365667705529,73.2699988633394,5.26999998092651,55.2178573012352,113.372142612934,4.44928564344134,64.3635703495571,86.7278586477041,13.6771427350385,77.3578569974218,13.4988632996877,14.4915455182393,13.9248534838171,19.6618496048866,19.3908269973028,19.6418435904543,19.3841029346057,21.21373351415,18.0125832346727,19.6893333117167,26.9583333333333,25.6661437272963,26.5699684543749,30.2423808461144,29.1437299615549,31.9180543268285,33.2644761993771,34.5116055384576,6.35766667922338,15.039999961853,15.1375581486321,13.6905545931612,18.240714152654,16.4484343575537,20.6307032285911,20.5015473865327,23.9749401441184,7.6135705722337,13.4071560355566,12.8752807062941,12.7953613694417,16.3441020747261,15.0664778975255,18.2123343788981,18.7591973934278,20.4060627549583,0.821476193552925,1,0.991620594691275,0.994086429913331,1,1,1,0.999013392447937,30.546318,-96.4329965,2018,"TXH1-Dry",9
"WF9/H95","NEH3_2015",16.6,749.14180614144,0,0,229,110,65,62,3.23125005699694,0.918000030517578,0.565093977294324,1.28669219481814,3.19749999046326,1.39113635366613,0.258061220527439,1.47466718299048,0.155891338361218,103.400001823902,4.59000015258789,6.15000009536743,39.0474997758865,4.72000002861023,15.3024998903275,11.1799998283386,14.5287498533726,4.64812502264977,21.7912757396698,25.6944263458252,22.867254847038,21.8227166540337,15.2631763219833,20.5907900008288,20.0641284227863,16.2796896759308,13.5386177646183,24.2875001728535,32.6459999084473,30.5877144724061,32.6773132882273,28.9159377217293,29.872386563908,30.8070712705365,25.3903164518473,21.3201827481664,9.27874993439764,13.0079998016357,13.882863304929,15.7826582019676,17.055312037468,14.6271022883329,13.1831330674245,8.87540479026961,3.33401708582752,10.4625782483436,15.2833069114413,14.4546585187703,16.2200567809637,15.0938879027355,14.4964540010227,14.5302013640258,10.9003956474841,7.85174739566555,0.909587052451181,1,1,1,1,0.965712824155829,0.862507779461642,0.809539309558486,41.15824525,-101.9872958,2015,"NEH3",13
"B73/TX779","TXH1-Dry_2018",10.7,734.33917595136,0,2,238.5,98,65,74.5,2.44233329544465,0.878333330154419,4.91741256001052,2.91095925044977,1.11232141086033,5.98734766325737,3.09403364827696,2.44530950245403,2.57365667705529,73.2699988633394,5.26999998092651,55.2178573012352,113.372142612934,4.44928564344134,64.3635703495571,86.7278586477041,13.6771427350385,77.3578569974218,13.4988632996877,14.4915455182393,13.9248534838171,19.6618496048866,19.3908269973028,19.6418435904543,19.3841029346057,21.21373351415,18.0125832346727,19.6893333117167,26.9583333333333,25.6661437272963,26.5699684543749,30.2423808461144,29.1437299615549,31.9180543268285,33.2644761993771,34.5116055384576,6.35766667922338,15.039999961853,15.1375581486321,13.6905545931612,18.240714152654,16.4484343575537,20.6307032285911,20.5015473865327,23.9749401441184,7.6135705722337,13.4071560355566,12.8752807062941,12.7953613694417,16.3441020747261,15.0664778975255,18.2123343788981,18.7591973934278,20.4060627549583,0.821476193552925,1,0.991620594691275,0.994086429913331,1,1,1,0.999013392447937,30.546318,-96.4329965,2018,"TXH1-Dry",7
"W10001_0022/PHB47","IAH2_2017",17.7,731.12121286656,0,2,229,110,65,64,2.99193547618005,4.00374990701675,5.59415436127969,1.82415974193672,2.96590905297886,1.13861617337574,3.54439579705404,5.52586092903759,3.22496434239523,92.7499997615814,32.029999256134,86.8399996757507,64.743636071682,5.88090901483189,11.0354546579448,133.685001557524,39.366364874623,98.0227279554714,18.9181115088924,22.0308394432068,18.3906703843513,21.9130098121916,21.5970702604814,21.0005855088282,18.7624625632021,16.5013675579605,14.5633697451035,16.7025806211656,25.2537500858307,21.1644402920874,28.7879280313535,31.3429540287365,31.038908986371,27.7923067917653,26.5413899369054,25.0180860311055,3.83612903808394,9.06000000238419,9.83648406203406,14.7235259390494,17.1804546009411,18.0048533863491,15.618900018401,13.9478747019692,12.2571085666223,5.88435640664124,10.5205817772981,9.32555658634035,14.1961143177765,16.2939337097197,16.5715003347332,14.0580127584531,12.7380351430824,11.5799250069021,0.659274194561254,1,0.882113053044242,1,1,1,1,0.976890028652541,42.06582876,-94.72050129,2017,"IAH2",9
"B73/TX779","COH1_2017",9.16666666666667,426.05831242752,0,20.3333333333333,254.666666666667,130,88.6666666666667,84,3.39312494290061,0,0.00170868351345971,0.360843908083864,0.891428553868854,3.56038209699924,1.42287894970366,1.56567067457265,1.77087045139264,108.57999817282,0,0.029047619728815,12.2947617719571,1.60047616277422,43.7852383255959,56.4828571748166,21.0252381148083,53.2028570139692,22.2680299282074,25.656948362078,25.993106298919,24.2875628049184,21.2698285844591,19.3765266793928,19.6563178718538,15.9259101156787,11.9913693493718,20.3862498551607,26.2785715375628,29.0099024905478,30.9575008483351,32.8439676496718,29.2459773876014,27.8707551629923,24.4981203104176,17.6400496374322,4.67625003145076,9.95571436200823,11.4416630470283,13.3349225420512,15.6419047401065,14.2894836037956,11.5599296846894,8.65086998417367,2.50572452632776,7.38781388850004,11.2215251258146,12.9782738928515,14.5313666366823,16.2303242626942,14.1158650824494,12.5801561869845,10.4056817622244,6.00700011612576,0.85979910066817,1,1,1,1,0.978368119236658,0.88222033244958,0.65364973214317,40.64850025,-104.9997825,2017,"COH1",8
"CG119/CG108","NYH2_2019",20.075,725.32887931392,2.25,7.75,245.25,129.25,69.75,68.75,3.72258061843534,3.87333340446154,3.775457026325,3.80239766120292,4.63714272635324,4.20499080790705,3.39897996839254,2.82319160670219,3.70322117314841,115.399999171495,34.8600006401539,60.3757139018604,137.151428576027,9.27428545270647,51.1471424443381,162.255713337234,52.589999843921,112.958570649581,17.9818517008135,20.7904033660889,20.473813344074,20.1213100428569,17.755722114018,20.434915687575,15.8980539339434,11.9646884042325,8.55015152566444,16.2129032073482,21.9111109839545,21.5018149872607,26.857039892231,26.6385715121315,27.3784615548102,23.5487375676915,18.106258931396,13.0372119922071,5.32225806866923,10.3000000317891,10.2948123096041,15.5514849578328,16.8654759724935,15.0109707278646,12.1004990230235,6.86512224888894,3.16474190773228,6.13441130849994,9.41403374570844,9.28485648287302,13.5350255335527,13.9731699693035,13.5314050875807,10.7804596398745,7.36771291693761,4.90306160030537,0.665391704453851,1,0.983534166522247,1,1,0.98384212060935,0.777563161169133,0.485846778845575,42.73221403,-76.65248675,2019,"NYH2",19
"LH198/PHZ51","NEH4_2015",14.6,795.48047456256,0,2,275,135,65,56,2.82187503576279,0,3.66820742352442,2.01257690040973,1.95124995708466,2.65489388379184,1.68415826157898,0.190010424756578,1.16607996679602,90.3000011444092,0,33.8900003433228,59.0468759536743,1.95124995708466,28.0499994158745,59.1787505969405,1.40187505632639,35.0974998101592,18.8422000855207,27.3106449127197,20.4134253279729,20.5286281482927,19.0307229757309,18.813031223326,18.3382655918127,17.1540727261986,12.6848920344665,24.0143752396107,30.7939994812012,29.6609177177603,30.9071284124221,30.8125007152557,28.6515303485321,29.5029241370045,26.7377680846623,20.9326217885139,13.3584374412894,15.5979997634888,18.4981334997849,19.2687880079637,20.2603126764297,17.3435890080351,16.2431668454296,11.0441755558763,7.09840123026522,11.803427087215,15.4488743735817,16.1431025443756,17.0943625526438,17.5373660088698,15.1870260704456,15.2510618169068,11.8830325749214,8.61837553606536,0.931774556370718,1,1,1,1,0.972846510346512,0.98414434868665,0.784438609048873,41.16732275,-96.41663225,2015,"NEH4",10
"PHN11_PHW65_0323/LH195","KSH1_2015",14.1,753.64695446016,0,2,229,110,83.5,82,0.688124985434115,3.51874988526106,2.53723953629,4.63432691532959,6.34078425052119,4.01351628490523,5.7530108742313,3.9555966203954,1.81791271000705,22.0199995338917,28.1499990820885,47.4017647645053,147.170588188312,9.16588230694042,38.1823524166556,161.646473025574,23.7470587141374,56.3552940102185,19.4891082793474,20.3406240940094,19.219587906801,21.3066410822441,18.0035172630759,18.8081848331526,18.6006693160364,17.8671807769968,18.7825362153026,17.6940625309944,22.9675002098083,19.8522148456821,29.3189279151369,29.1170587726668,31.416705766067,31.167606554856,30.5050588602445,29.9620492345242,3.2971874922514,8.93874996900558,8.79256136460572,16.998742995872,18.0970592872769,19.8498956119313,20.1377743985527,20.0328234533636,17.0683681091728,6.18473854158211,9.47623015774604,8.38152018909972,15.3881661623318,15.6169766258551,17.6554751493738,17.6555626478954,17.3245865439199,15.7567018294421,0.677812499559617,1,0.850138809291572,1,1,1,1,0.983045539709894,39.21641775,-96.60482225,2015,"KSH1",18
"B14A/H95","GAH2_2020",16.125,725.97247193088,15,20.75,228.5,129,63.25,61.5,4.57387093959316,0.441111114290025,8.35394185372255,2.5962924982051,5.73357168265751,2.10309520316502,2.17900143835476,2.48514287812369,3.91854836534245,141.789999127388,3.97000002861023,91.3907156842096,80.7742858465229,11.4150005068098,18.9278568284852,57.7149996161461,12.4257143906185,121.474999325616,20.6617187376945,23.2718448638916,17.5894329765579,19.5164109002456,18.7530079569135,20.3538568436153,20.2600156135181,17.1142686435155,16.0110933209345,24.3293548707039,22.8122221628825,27.2504947599791,29.7690339777179,31.2345238640195,32.734285172962,34.1389163525176,33.4245718002319,31.6445851084274,9.68354843124267,7.43777778413561,15.0700236897766,18.4119594858843,20.4682145799909,20.9503967497084,21.2406723049754,21.9171428135463,20.839055221751,10.3443726467021,8.95024401989543,13.555408754191,16.1518166823771,17.8513692220052,18.8423409613352,19.4006118837996,19.5800409446887,18.2372896183776,0.993479262299252,1,1,1,1,1,1,1,33.72355555,-83.30265185,2020,"GAH2",19
"PHB47/PHN82","GAH2_2020",14.85,711.81343435776,3,10,237,126,58.25,57.5,4.57387093959316,0.441111114290025,8.35394185372255,2.5962924982051,5.73357168265751,2.10309520316502,2.17900143835476,2.48514287812369,3.91854836534245,141.789999127388,3.97000002861023,91.3907156842096,80.7742858465229,11.4150005068098,18.9278568284852,57.7149996161461,12.4257143906185,121.474999325616,20.6617187376945,23.2718448638916,17.5894329765579,19.5164109002456,18.7530079569135,20.3538568436153,20.2600156135181,17.1142686435155,16.0110933209345,24.3293548707039,22.8122221628825,27.2504947599791,29.7690339777179,31.2345238640195,32.734285172962,34.1389163525176,33.4245718002319,31.6445851084274,9.68354843124267,7.43777778413561,15.0700236897766,18.4119594858843,20.4682145799909,20.9503967497084,21.2406723049754,21.9171428135463,20.839055221751,10.3443726467021,8.95024401989543,13.555408754191,16.1518166823771,17.8513692220052,18.8423409613352,19.4006118837996,19.5800409446887,18.2372896183776,0.993479262299252,1,1,1,1,1,1,1,33.72355555,-83.30265185,2020,"GAH2",14
"CG119/CG108","MIH1_2018",16.6,705.37750818816,15,4,151,78,54,51,5.01225806436231,1.85857137611934,2.30331191463433,3.25951691756812,0,1.60415119941418,2.92619831356102,4.21553021195656,2.83007403868438,155.379999995232,13.0099996328354,29.7907139573778,101.442142486572,0,18.1621430601392,122.341429148402,36.1057143041066,85.3414282117571,19.7861952781677,22.4124417986189,25.0884598450622,20.2612458458858,21.4032746950785,19.637790091245,17.5968755658502,14.6465572693566,11.3353334319491,19.0825806125518,24.4042857033866,26.505944844571,29.8591727623839,29.2076190766834,28.9402475938851,27.0018144543115,23.872538371452,17.7408049407478,7.63354836452392,11.5700000354222,11.5577044046365,16.9041061443352,16.7723805904388,17.0588350970071,14.0643132941307,11.7732902665618,6.16018373429463,7.98558094772299,11.0854581776882,11.9601199609315,15.5131733342938,15.0676347638495,15.1176834662804,13.1591194742283,11.0037102398898,6.94989994028217,0.750656678482959,0.993928568703788,1,1,1,0.982067154646315,0.951173413871536,0.716707840592432,42.689234,-84.49755575,2018,"MIH1",20
"B14A/OH43","DEH1_2019",21.025,697.65439678464,0,2,234.75,106.25,58.25,58.25,4.88548383405132,0.129999995231628,2.22754366008185,2.83887974343054,7.0926190557934,13.0900794286577,2.37605914671847,7.24609516660372,5.29133873076483,151.449998855591,1.16999995708466,29.4199992418289,87.7514276163919,13.3278571537563,117.810714857919,70.1764280796051,38.8228567923818,163.760714939662,18.0942263295574,22.5275441275703,19.0983295645176,21.1054939145839,16.8799242519197,18.3868353404696,17.4379090753706,14.476434816633,15.1882209444193,17.4912903078141,20.5577778286404,23.0837453456724,28.6110288519394,30.7033335821969,31.5357142251635,31.9663629076681,30.1067382585435,28.4413756884737,7.04516128955349,9.18444446722666,14.3005087701308,18.3414932581405,20.743333589463,21.7011906154572,22.6829330156982,22.0334762732188,19.5725390395811,6.99216838650998,8.73551017725078,11.4143050106146,15.6056687045059,17.7112297913015,18.5929650565741,19.2590150034337,18.0735423865727,16.1304203541944,0.769815655759952,0.948412698885751,0.988507503793619,1,1,1,1,1,38.670675,-75.433225,2019,"DEH1",18
"B14A/OH43","MIH1_2018",24.65,664.18758070272,0,3,218,109.5,65,59,5.01225806436231,1.85857137611934,2.30331191463433,3.25951691756812,0,1.60415119941418,2.92619831356102,4.21553021195656,2.83007403868438,155.379999995232,13.0099996328354,29.7907139573778,101.442142486572,0,18.1621430601392,122.341429148402,36.1057143041066,85.3414282117571,19.7861952781677,22.4124417986189,25.0884598450622,20.2612458458858,21.4032746950785,19.637790091245,17.5968755658502,14.6465572693566,11.3353334319491,19.0825806125518,24.4042857033866,26.505944844571,29.8591727623839,29.2076190766834,28.9402475938851,27.0018144543115,23.872538371452,17.7408049407478,7.63354836452392,11.5700000354222,11.5577044046365,16.9041061443352,16.7723805904388,17.0588350970071,14.0643132941307,11.7732902665618,6.16018373429463,7.98558094772299,11.0854581776882,11.9601199609315,15.5131733342938,15.0676347638495,15.1176834662804,13.1591194742283,11.0037102398898,6.94989994028217,0.750656678482959,0.993928568703788,1,1,1,0.982067154646315,0.951173413871536,0.716707840592432,42.689234,-84.49755575,2018,"MIH1",19
"PHW52/PHM49","KSH1_2016",13.15,777.45988128768,0.5,1.5,192.5,80,84.5,84.5,0.381562503054738,5.59374988079071,9.0311369591709,3.98190999396102,0,0.897724768782806,5.01142138710802,3.32242425282796,5.67007326271352,12.2100000977516,44.7499990463257,140.950907804749,148.509091756561,0,8.37409110773693,139.43863695589,19.9345455169678,175.772271144119,18.4331542551517,14.0458284318447,18.3461373797249,20.8844651238299,22.7032874280756,20.5944180136979,18.3498667163808,18.1537938724865,17.325101912546,19.1512499600649,21.7012498378754,22.3390124406673,27.1937706264094,36.3127268877896,35.1754003625928,32.0107843193833,33.8563335245306,30.7689589111686,2.13062504353002,11.4649999141693,9.56823857872411,14.2621367966756,21.5872724706476,22.0435392319554,20.7806130140041,22.7113486636769,19.4913931130664,6.31585730010902,9.66729101728267,9.62689037894436,13.3541884288908,19.5659910681005,19.143975364632,18.068246454854,19.1205473197881,17.0374461461811,0.741573662447211,1,0.9212797776386,0.98604226771574,0.991287871402522,0.998977630941292,0.993550001780192,1,39.14480675,-96.62898225,2016,"KSH1",30
"PHN11_OH43_0001/PHB47","NYH3_2015",18.2,731.12121286656,0,2.5,253.5,110,70.5,70.5,4.26838707539343,0,1.23480362862861,3.31548590496468,3.74470586428309,3.70874331928192,2.03473858875296,2.09190753286542,2.16016066343177,132.319999337196,0,17.669999435544,111.464706651428,9.84352939345819,38.4235294566435,75.3511776310556,21.4923532237025,65.3723531067371,20.9588571671517,21.7616018295288,22.010031667843,20.4765439063008,19.3750716377707,18.8480084862939,18.0995458235427,14.2586651794525,12.1716549346147,15.2151612850928,28.4139999389648,23.9726607996166,27.9485215330969,28.2241176156437,29.0064544300345,26.8861269088758,22.6542903882269,19.0203909387172,3.20645156502724,16.0079999923706,11.6223586733296,15.6103262901363,16.7502940963296,17.7263369351147,14.8880444255661,11.6083206558939,7.35658823269703,5.34962666660979,14.3873497094372,10.9577344850549,14.1718313559719,14.6193748893675,15.4121399843839,13.3167035418842,10.3456969793581,7.70771127893227,0.504331792142534,1,0.972673749990107,0.996219796126396,1,0.995345527139322,0.95775528025916,0.812032548066487,42.7233625,-76.6555945,2015,"NYH3",9
"F42/MO17","IAH2_2019",22.45,711.81343435776,7,0,229,116,65,64,1.62499997764826,4.99466671943665,7.63382698125987,4.02341454883287,10.5352383568173,1.2235000201634,2.76356744289516,7.26151782906954,4.77332183541973,51.9999992847443,74.9200007915497,126.729286615338,144.380714906113,31.605715070452,12.235000201634,103.205714230027,58.2335712058204,145.353572113173,19.4007869511843,15.5991585731506,17.733772213764,20.3714196622645,18.6917074294317,21.1146088668278,19.0489610311361,16.4610812394392,13.9454261347262,15.7803125455976,14.7866665522257,21.3077396412048,26.9056014090092,30.4667857033866,29.366785798754,27.7021302399588,26.078908695115,24.6989301095544,1.82374999648891,4.27600004474322,9.22220813411321,15.0646722365935,19.7144050598145,18.1754287719727,16.7421217731022,15.3263292785675,13.453586662864,5.18898236774639,5.37138114303097,9.15066822380473,13.4185125554301,17.1062666762375,15.7965739643108,14.4428391706503,13.0451790767413,11.9235761362982,0.546495538936662,0.532857125358922,0.866155154080708,0.998157433935226,1,1,1,0.956872448730631,42.06583499,-94.72067796,2019,"IAH2",21
"LH195/PHZ51","INH1_2016",18,733.05199071744,0,24,265.5,124,64.5,63.5,3.03451614802883,1.38285718645368,3.10656882285516,3.96627025574623,3.5004544691606,6.75263637087562,3.45117264331826,3.19852811820579,3.02442279661389,94.0700005888939,9.68000030517578,31.2600005865097,138.875910509716,3.5004544691606,67.5263637087562,113.892727423798,21.665454398502,92.6259097240188,17.6332864915171,23.975117955889,20.6644157743121,20.1236557979185,19.9706746014682,19.3914948420091,18.1452765645095,15.9853371552059,14.6282023681807,18.7451610872822,26.3114280700684,27.8489884616612,28.128934173179,28.2027271444147,29.1450453844937,29.1677900132707,27.9556494110074,27.0773909331999,7.95032263571216,11.6942855290004,16.3181792235504,16.1060653765268,16.8522730957378,18.3487275210294,18.5888960498719,17.5028462595754,15.0384101224085,7.67710047192516,11.916890154154,14.2428837792982,14.4184555008251,14.6852160398404,15.7994255976279,15.9329094047117,14.9223815108922,13.5173469210224,0.85264976315784,1,1,1,1,1,1,0.996102814098973,40.4787595,-86.98982,2016,"INH1",13
"B37/OH43","IAH3_2019",24.1,678.9902108928,0.5,2.5,238,115,65,64,2.87967741873956,8.32583327094714,8.51498268664919,3.93025379619713,0.537380945114862,2.30548409999363,2.30643291365225,9.35084180503475,5.38576807027222,89.2699999809265,99.9099992513657,122.184284857341,140.485713907651,1.61214283534459,22.5078568799155,97.5699995500701,77.3099997895105,164.0414292046,18.1142603966498,18.1443339188894,18.3413321123021,20.201027617392,20.300838129861,21.1054272636535,19.1415173112962,15.0396348400181,12.8306827393911,16.6003224618973,18.1858332951864,22.2454307275236,27.0961160085109,28.6041666212536,30.1634999048142,27.5966134857582,25.6273498156714,23.1327250613961,3.49709678080774,6.01583334803581,10.9452180639278,15.708069757536,18.1813099157243,18.4487380724105,15.5540504778692,14.1479336357171,12.0451344325606,5.80312239518703,7.04880735416509,9.97752924339372,13.7421048026589,15.4370156630591,16.3669887817759,13.8976006035477,12.4340048497443,10.9470109781651,0.634539169100572,0.718095231978666,0.92633768065977,1,1,1,0.993248299575176,0.897879883262644,41.97593131,-92.24310603,2019,"IAH3",22
"TX714/PHZ51","DEH1_2015",19.9,734.33917595136,0,0,291.5,164,66,63.5,2.877187483944,6.84800000190735,1.65812227065002,2.89981113868033,0.533124998211861,6.39805544084973,4.54206526084818,4.66633341695581,5.69481861783612,92.069999486208,68.4800000190735,26.8631244525313,94.403749205172,0.778750002384186,57.5824989676476,115.858124211431,26.7362504601479,176.53937715292,18.0978914797306,17.2013893604279,20.1115188355204,21.0089776981854,21.5349248051643,19.2473051614232,17.7019111319721,15.0562807784194,15.1484673523134,16.8265626430511,19.2440000534058,20.7237695406926,27.6889034218542,31.5665628314018,31.8635417355431,32.09465687106,30.4336400264785,29.0939515059994,6.26593750482425,9.85899999141693,10.7453803031313,17.6787637613727,20.387500166893,21.3565970261892,22.772206074744,22.282508844421,20.5664716151453,6.52196032901766,8.41291476735724,9.22995774812798,14.8599372331721,17.9770314991474,18.5817073937474,19.3617069706047,18.3580744354498,16.8673674529789,0.750435272946821,0.870857151065554,0.962682183853112,1,1,1,1,1,38.62935675,-75.4656925,2015,"DEH1",8
"LH195/PHZ51","TXH1_2020",17.7,731.12121286656,0,2,208.28,68.58,65,64,2.28433333331098,0,4.61353044432774,2.94980638849668,1.36294118095847,6.7410564637935,2.84486909263784,3.82908822368173,2.301094230755,68.5299999993294,0,55.9705880389494,110.798823826453,1.36294118095847,71.5223531162038,82.3205902821877,18.9735293598736,69.2911760666791,13.9134384314219,13.3863348007202,15.088164375906,19.7933785915297,19.4813054589664,19.2417072595335,19.7711375744947,20.7945973003612,17.9149533192166,20.0226665178935,27.1799999237061,26.6081594159341,26.5247929322772,29.3961763568953,29.1298912438196,32.2266945953012,33.0307648490457,34.5951133136882,6.79433329502742,17.2040002822876,15.2455437040242,13.6535979675367,17.2968629762238,16.6133713076813,20.7334833408845,20.0616762385649,24.2403706907095,7.90124714145222,14.2729251500305,13.3803758475957,12.7673898940848,15.580090070985,15.1112637437017,18.3989215931754,18.5370137273102,20.5020201130472,0.821357143209094,1,0.992435039560276,0.993791593664641,1,1,1,0.999042533455884,30.53781575,-96.4283715,2020,"TXH1",14
"B73/MO17","NEH4_2017",14.5,776.81628867072,8.5,2.5,190.5,75,65,64,4.59032254834329,9.02400010824204,0.479867887087711,3.81196387431756,0.538484847906864,1.68492423765587,2.26785004737447,4.65714278971994,3.86350145999521,142.299998998642,90.2400010824204,5.1100001335144,117.465453971516,1.61545454372059,15.1345454129306,79.631816983223,32.5999995280396,117.425454340198,19.4391373357465,17.2153170108795,24.1724838998111,20.9591997537085,19.5087172190348,19.2150816303311,18.9073912886805,17.6974393903435,15.3998570417962,20.6222579863764,19.5259998321533,28.5942012750084,30.0674228663154,31.2254544460412,32.427121184089,28.6164972680056,28.4793340540552,26.8324867737025,7.51935482409693,9.5090000629425,13.5708453749115,16.7542414705589,19.4418183529016,20.4097727645527,17.1637547198432,15.7475164269472,13.7100762172769,8.50655754019973,8.45038905221992,13.6268597566258,15.5881735310777,17.3431474848323,18.3684917818816,14.9784288099449,14.344579744287,12.8768287854953,0.797626728973081,0.881249991485051,1,1,1,1,1,0.994264068992333,41.162,-96.409,2017,"NEH4",17
"TX714/PHZ51","KSH1_2016",15.5,782.60862222336,0,2,225,130,95,95,0.381562503054738,5.59374988079071,9.0311369591709,3.98190999396102,0,0.897724768782806,5.01142138710802,3.32242425282796,5.67007326271352,12.2100000977516,44.7499990463257,140.950907804749,148.509091756561,0,8.37409110773693,139.43863695589,19.9345455169678,175.772271144119,18.4331542551517,14.0458284318447,18.3461373797249,20.8844651238299,22.7032874280756,20.5944180136979,18.3498667163808,18.1537938724865,17.325101912546,19.1512499600649,21.7012498378754,22.3390124406673,27.1937706264094,36.3127268877896,35.1754003625928,32.0107843193833,33.8563335245306,30.7689589111686,2.13062504353002,11.4649999141693,9.56823857872411,14.2621367966756,21.5872724706476,22.0435392319554,20.7806130140041,22.7113486636769,19.4913931130664,6.31585730010902,9.66729101728267,9.62689037894436,13.3541884288908,19.5659910681005,19.143975364632,18.068246454854,19.1205473197881,17.0374461461811,0.741573662447211,1,0.9212797776386,0.98604226771574,0.991287871402522,0.998977630941292,0.993550001780192,1,39.14480675,-96.62898225,2016,"KSH1",9
"PHW52/PHM49","DEH1_2017",20.9,716.31858267648,0,2,238,108.5,65.5,65,2.91718745790422,6.20142868586949,3.00780289028715,3.51798387630548,1.21142852117145,1.63275129076034,5.21425936785246,11.3193468755605,4.88273070798553,93.349998652935,43.4100008010864,45.3457148869832,126.779048942384,1.26857137680054,15.4833330313365,157.85333279201,69.2480949220203,151.3147630578,17.0564796179533,17.7322864532471,20.7109648054357,19.5738604252989,19.1555669421241,20.8859280858721,18.2123717552112,18.1575605574108,16.5860739368814,20.2662499845028,24.6614287240165,21.7224504345482,26.8229896455589,30.3507143656413,30.3114816221611,30.695552993145,28.4309092143225,27.2970235560896,9.32593758031726,14.1957142693656,10.687522006195,16.7585521273381,19.9063490004767,19.8815078785811,21.2169032219805,18.721444546014,17.9144449122429,8.6904799528833,12.0840231421066,9.78793426930988,14.1243186804428,17.1548256791078,17.1405073545012,17.9479055635566,15.6354630937149,14.7461382337137,0.907287955683257,1,0.959736116003801,1,1,1,1,1,38.67025825,-75.4333645,2017,"DEH1",31
"LH74/PHN82","OHH1_2016",15.35,754.29054707712,0,5.5,235,112,65,64,4.32806446475368,1.77600002288818,3.91514520817277,2.58074065911205,3.89075762575323,4.1704949600528,5.07906928910772,3.9577419347548,3.61459481407063,134.169998407364,8.88000011444092,44.703636136922,85.9177285974676,9.33045467463407,39.9481819326227,160.185453747484,27.6977266587994,110.118636226112,18.3437643974058,22.2428304672241,20.7314695601022,20.3598251803728,19.1523341554584,18.8282464220066,16.7204849062197,17.9873095465335,14.717978926255,19.6358064528435,29.6320003509521,26.5695358893096,28.5926358759461,29.5910605517301,30.6928383605649,29.2168918167121,28.2718868666116,26.3058832172308,8.12096774674231,16.8959997177124,14.973912901117,16.7052856168403,18.3031819083474,19.7444342603587,18.9160148979259,15.4450083848343,13.402624611054,8.11765705231608,15.3272200928741,13.170280569172,14.8167815407942,15.9685705423992,17.2330323566172,16.1171316077875,14.2150247381021,12.5845870964483,0.859331788177589,1,1,1,1,1,0.999172077691259,0.989049277132183,39.860924,-83.6755995,2016,"OHH1",17
"PHB47/PHZ51","NEH2_2015",13.6666666666667,766.30427592704,0,1.33333333333333,229,110,93.3333333333333,93.3333333333333,1.35875000804663,3.75599999427795,3.0312642160566,1.28609090161586,0.286666671435038,1.65718752741814,3.75175936234048,0.157499998807907,0.616713690613547,43.4800002574921,37.5599999427795,66.2900002598763,43.4999997615814,0.860000014305115,16.5718752741814,117.643123269081,0.944999992847443,18.9906244128942,19.5378324687481,19.9865628242493,18.8528682006309,23.6515267445892,23.2123234272003,22.7312117993832,19.6276781342462,21.6194818473998,18.2072823920237,15.038749919855,23.1520002365112,18.6692758285186,30.1456176773453,32.3751038511594,32.6086250662804,30.3648981920793,32.3132081599463,28.3144870604238,-2.42656248784624,5.23099999427795,5.26405106663817,13.5723423028142,16.5714581012726,16.1308747947216,15.9646130974384,15.5681904724666,11.1963467507293,4.19248534704874,8.47829673153606,6.89490435408322,14.3761050844018,16.560327995662,16.4700800876987,15.3434088039049,16.0526129070914,12.8317300494645,0.519497764022422,0.976535719633102,0.809891264926545,1,1,1,1,0.92202169835659,41.0514495,-100.7471915,2015,"NEH2",9
"B97/PHB47","ILH1_2016",16.2,729.19043501568,0,1.5,292,167.5,73.5,71.5,2.97690523692196,4.38840902691538,2.26653606655233,5.61207630954248,2.38484847184383,3.5965513070917,3.31235071929027,4.35749997459836,4.79379031928375,93.7199998497963,46.3549993336201,33.4606812819839,180.417726646093,4.62886360558597,41.7338635867292,104.141365719112,28.3243180147626,148.202045347203,18.8248824135911,16.772414523905,21.3206123477011,20.186536070862,20.742345383673,18.0798104173881,18.8666988996862,17.8581825314146,16.0768072129811,18.0508114395122,19.2020452456041,23.0422996986406,29.4229266243166,27.9030872836257,26.9731781198959,29.6021857332558,29.1593882944677,28.1759287739546,4.96004029539143,8.5312726020813,10.4507586023432,17.100495052534,15.9971779440389,16.8488147764823,19.4105485847029,18.8438310752183,17.0974068698762,6.7812351246955,7.96926780707668,10.1711916616246,15.4161417086623,14.2957979847463,14.1538489170388,16.5199597663553,16.0495125310087,14.8445893652738,0.666766271376172,0.897956158588459,0.946860721270467,1,1,1,1,0.999883116813965,40.0607245,-88.2338815,2016,"ILH1",11
"LH74/PHN82","ILH1_2018",12.95,745.92384305664,0,2,204,88.5,57,56,4.93870967001684,7.67700002193451,2.58810625382629,5.60511757065286,0.281428575515747,3.4563491632068,4.20265659322352,1.00454338428115,2.18382485822507,153.099999770522,76.7700002193451,33.4678575992584,176.772143542767,0.281428575515747,32.7364281586238,135.704285430057,6.58642866568906,67.2342848969357,18.9181233375303,19.3164752960205,20.1027853053364,22.1202895707154,18.9159298624311,20.1629787846217,19.1198064922904,19.09856314132,16.2127272024682,15.9958065248305,18.503999710083,25.3262512285507,29.1945312656031,30.8553567613874,31.8374047082568,28.203585576956,28.8612423911387,26.4387764670699,3.61838711702055,7.57300008535385,14.9470090715762,16.7521197434433,20.4650004250663,20.0205478009723,17.1498215530873,16.7182278762058,13.9524853939102,5.62945699299873,7.5879362052237,12.6448673886302,15.1726399321935,17.6601785932268,17.94105006945,14.8288951872955,14.9738288636256,12.8582392781629,0.640783420648031,0.72660712982927,1,1,1,1,1,0.984431123105036,40.06300125,-88.2291765,2018,"ILH1",18
"TX714/PHZ51","GAH1_2017",12.45,703.44673033728,7.5,4,190,95,60,60,1.92968747392297,5.73000001907349,0.343252103133586,3.44928658477499,2.10761896769206,4.58677246557972,5.88411512674098,3.46279361891368,5.79033786946544,61.749999165535,45.8400001525879,4.18523797534761,115.462857757296,3.16142845153809,44.2476188795907,164.396192306564,18.0028569698334,179.500473953429,16.8024901300669,20.1373232603073,20.1734204678472,19.2707622430691,21.2048014383467,16.6798162969963,18.1585808485972,19.3751740168011,17.7370458682012,23.5584374964237,24.7612497806549,28.7388454609341,29.029321913538,29.7903175656758,30.1182594269041,30.8846873649595,33.0415872604128,32.3946695928383,8.65499997884035,9.07374995946884,13.8160128648753,15.9456908272656,16.8514287131173,20.0705928338268,21.0580026966177,22.2436510176886,22.0341169412967,9.93516597929203,10.3201673994425,13.6844889022653,14.8136399848139,15.5596332003494,17.1078969773464,17.9595982908683,19.6134998817186,19.1980031961101,0.883437499936138,1,1,1,1,1,1,1,31.50794425,-83.55854475,2017,"GAH1",10
"TX777/LH195","MOH1_2015",14.15,731.12121286656,0,1,227.5,115,77,77,3.91483872167526,3.00272724845193,2.70388340007172,5.64622626815722,2.26875001192093,1.18333334392971,4.73674408601423,1.74040179593222,3.6664919433214,121.360000371933,33.0299997329712,34.4199993312359,178.871247828007,5.86875003576279,10.6500000953674,140.261874556541,11.8831250667572,113.661250242963,18.8184669402338,18.8870315551758,16.929197347905,21.705914807588,15.7215426564217,19.9453006850349,18.4742217908113,20.1287302806264,17.0265389219407,18.2845160884242,18.0018183101307,23.7780545636798,28.9302828526302,29.8559374809265,31.7611801889208,30.4214076278912,28.5805001264527,28.4314314703788,5.85709682707825,7.50000006502325,15.2148777665246,17.6487962035776,21.6728123426437,21.4597915940815,20.2818253816477,17.0989999456065,17.2866936922073,7.06854431480445,7.30219313947649,11.971425794578,15.3979636076336,17.7643749117851,18.6104858915011,17.38069400277,14.991826945877,15.0531743909791,0.723283405334169,0.814935085835395,1,1,1,1,1,1,38.8965375,-92.20800417,2015,"MOH1",12
"B14A/MO17","TXH1-Late_2018",15.3,753.0033618432,0,2,231,85,67,65,3.5793750025332,7.22999986012777,0.880950212466032,3.39399650565147,5.74642871958869,3.61914694878968,3.45560049644284,0.428285707746233,2.2787097211807,114.540000081062,43.3799991607666,11.7107142976352,109.309285019125,11.4928574391774,35.4171440643924,87.1585709388767,2.14142853873117,70.6400013566017,15.1890550404787,16.9814987182617,20.4111461997292,19.9987621572639,15.8160833404178,20.1152116011059,19.5823012089101,16.3941785948617,18.6152318413906,25.4215626120567,25.4816667238871,24.9240564974382,29.8609676759365,30.5592857315427,31.1110338370005,33.471735544548,33.678570665632,35.6292394646851,13.7340625077486,14.7233331998189,12.1417448389526,16.9768337518894,21.1738096872966,19.9290791380973,21.6003019523645,24.8844285964966,24.5352535247803,12.2487610557836,12.9546326020938,11.4732109690061,15.6369768953886,17.8686949252443,17.4931939916305,19.3485664524142,20.6305847067263,20.9047458821383,0.995234378746578,0.961607143992469,1,1,1,0.999944235746723,0.999152383350191,0.99903341174675,30.546318,-96.4329965,2018,"TXH1-Late",17
"F42/H95","INH1_2019",22.62,903.92583052032,0,2,222,118.75,63,61.5,4.63812497258186,1.29166666666667,4.25488335645363,1.87300270719002,7.54214310646057,0.579848492816413,2.74560841827104,1.19420918378295,2.03783408368833,148.41999912262,7.75,53.1171433925629,53.8378578254155,14.6478576319558,6.66928580829075,98.2221447612558,12.4578571830477,61.5871423291309,19.8238796144724,19.1838219960531,19.3356551277525,20.5079361978704,16.6485685848054,22.3093103598723,17.461135568403,15.7933039524117,12.4354276578181,23.3468750417233,26.1500002543132,24.4413160843143,31.0645804159602,27.968213898795,28.4362554880448,27.6094113062845,25.5934081145695,22.9142281496534,11.290937460959,15.8816663424174,14.2715915146539,19.4056910916555,18.2715474991571,15.118939298572,15.6989562867023,13.3868571526114,10.3300522585216,10.6262671811697,13.2428988950862,11.8663839826665,17.2797126565803,15.2640629745711,14.0935941613426,13.930277368943,12.2365302547241,10.4676142624311,0.918526784383825,1,1,1,1,0.999060374100971,0.966691326792114,0.862528610255524,40.477063,-87.00020175,2019,"INH1",18
"LH74/PHN82","IAH4_2017",17.7,731.12121286656,0,2,229,110,65,64,3.05419361206793,4.63857133047921,5.65428284440315,2.35614602206887,0.14500000260093,0.823262633699359,3.0299399841441,2.50648539721385,3.02203274721158,94.6800019741058,32.4699993133545,92.5500001907349,79.8100001811981,0.29000000520186,7.93136371265758,110.043181820349,17.6581818705255,91.7922727492723,19.6043462753296,22.3785518918719,18.8162880805234,21.4694011437152,22.4233230460774,21.2695237410189,19.151369503563,15.9420575880557,15.341385783443,17.8393548227126,25.2142854418073,21.7675578492375,28.8834045222006,30.8898489258506,30.9933841088806,28.3060990673118,26.2662246385522,25.9343880588008,4.95258065529408,10.1399999346052,10.2470841328658,15.0215020746586,17.4712879585497,18.0760807755018,15.8066246452854,13.8702660153955,12.5135465144736,6.57524394811711,10.823012742074,9.64996062135486,14.3656457039619,16.2281010402398,16.5739815495123,14.3659785216558,12.5754656563723,12.0621406847053,0.727396317478698,1,0.91008219867215,1,1,1,1,0.9871688305106,41.99455432,-93.69030947,2017,"IAH4",19
"CG119/CG108","WIH2_2019",22.4,683.17356290304,0,22.5,189.58333325,82.916666675,58,57.5,5.08468752354383,1.18666664759318,3.6826903842319,5.86844075059536,0.695238090696789,4.73009736972414,4.31577464825363,4.39550227859553,4.5479470677731,162.710000753403,7.11999988555908,58.0892852885382,183.800716136183,1.22285713468279,55.0542853304318,207.543570097004,59.5300005589213,136.879287609032,20.5184082686901,23.1025533676147,19.8462265884652,19.5497870934029,22.1357431638808,19.0482196356906,14.9081708567355,12.9839793672648,9.3378728905398,18.934687525034,26.8550001780192,22.8072941633611,28.9284112862702,27.8675001462301,27.5314296675729,23.3386479941843,22.3078561940146,12.1954661551983,7.17343750596046,12.7983331680298,11.759633151741,17.3057566963452,14.6784524122874,15.4249876302121,12.5616155530279,11.349939856886,2.68747308500535,7.56817394253405,12.4405435406301,10.3208419077868,15.2441985143731,13.6357406598178,13.7824031844248,10.8770867954482,10.5509228774816,4.71357086510305,0.80854910452451,1,0.995612407809644,1,1,0.966295589443794,0.875965565851245,0.450550637737248,43.320768,-89.33189475,2019,"WIH2",21
"TX714/PHZ51","TXH1_2020",17.7,731.12121286656,0,2,223.52,82.55,65,64,2.28433333331098,0,4.61353044432774,2.94980638849668,1.36294118095847,6.7410564637935,2.84486909263784,3.82908822368173,2.301094230755,68.5299999993294,0,55.9705880389494,110.798823826453,1.36294118095847,71.5223531162038,82.3205902821877,18.9735293598736,69.2911760666791,13.9134384314219,13.3863348007202,15.088164375906,19.7933785915297,19.4813054589664,19.2417072595335,19.7711375744947,20.7945973003612,17.9149533192166,20.0226665178935,27.1799999237061,26.6081594159341,26.5247929322772,29.3961763568953,29.1298912438196,32.2266945953012,33.0307648490457,34.5951133136882,6.79433329502742,17.2040002822876,15.2455437040242,13.6535979675367,17.2968629762238,16.6133713076813,20.7334833408845,20.0616762385649,24.2403706907095,7.90124714145222,14.2729251500305,13.3803758475957,12.7673898940848,15.580090070985,15.1112637437017,18.3989215931754,18.5370137273102,20.5020201130472,0.821357143209094,1,0.992435039560276,0.993791593664641,1,1,1,0.999042533455884,30.53781575,-96.4283715,2020,"TXH1",11
"PHW52/PHN82","ARH1_2018",23.25,547.118083677696,0,2,200,101,65,61,6.80749994516373,4.70999993596758,2.62777637512911,4.73591215777578,3.61916664668492,6.96017852632536,4.33043756926438,0.796285740818296,3.37467743449497,217.839998245239,32.9699995517731,35.4892859118325,145.294284343719,5.83142852783203,62.5142853089741,109.797857735838,4.00357156140464,104.615000469344,17.9970670938492,21.7022604261126,20.0594998235876,19.526801115197,21.5939762251718,17.9926481322637,18.0574776027005,19.3321502186003,18.3042435536187,21.0706250667572,24.3185710906982,24.0216893355052,29.4527985731761,31.7309522401719,30.7069242303334,32.5717108049104,33.2952144259498,31.8374196285476,10.2671874910593,12.0357142857143,12.7020508751037,18.6741208320572,19.9915478343055,20.6467757206115,22.9033521317947,23.2358570643834,21.2883410212082,9.22327753419032,11.0103677478877,11.2783232173313,16.1126744540351,17.8620654597657,17.6775747954964,19.7277038225499,20.1946927088828,18.5436880911809,0.945725440979004,1,1,1,1,1,1,1,34.729679,-90.7603455,2018,"ARH1",17
"W10005_0107/PHB47","KSH1_2015",13.8,767.16239941632,0,2,229,110,85,82,0.688124985434115,3.51874988526106,2.53723953629,4.63432691532959,6.34078425052119,4.01351628490523,5.7530108742313,3.9555966203954,1.81791271000705,22.0199995338917,28.1499990820885,47.4017647645053,147.170588188312,9.16588230694042,38.1823524166556,161.646473025574,23.7470587141374,56.3552940102185,19.4891082793474,20.3406240940094,19.219587906801,21.3066410822441,18.0035172630759,18.8081848331526,18.6006693160364,17.8671807769968,18.7825362153026,17.6940625309944,22.9675002098083,19.8522148456821,29.3189279151369,29.1170587726668,31.416705766067,31.167606554856,30.5050588602445,29.9620492345242,3.2971874922514,8.93874996900558,8.79256136460572,16.998742995872,18.0970592872769,19.8498956119313,20.1377743985527,20.0328234533636,17.0683681091728,6.18473854158211,9.47623015774604,8.38152018909972,15.3881661623318,15.6169766258551,17.6554751493738,17.6555626478954,17.3245865439199,15.7567018294421,0.677812499559617,1,0.850138809291572,1,1,1,1,0.983045539709894,39.21641775,-96.60482225,2015,"KSH1",15
"PHW52/PHN82","NYH2_2020",16.3,712.45702697472,0,2.5,225.5,89,68.5,68,4.4222579925291,0,1.39173123579944,3.18235724693344,6.17088877360026,3.50790104135118,2.28349072361197,1.42691866419926,2.17217563357404,137.089997768402,0,18.6826673050721,113.270666055878,12.6093331019084,36.9826669931412,88.4693336625894,18.1466666658719,65.6160001913706,20.9426754428494,21.7824497138129,21.5566608507285,20.6432143634654,19.2778644667731,18.9298452936519,17.7688209270759,13.7796892350961,11.7049053949951,14.5544730601772,27.9497778235541,23.6293392760458,27.8654129678972,27.8868889702691,28.7867253702337,26.5330294770505,21.5667549297366,18.2050767358379,2.61195698992539,15.6643110571967,11.3557305522714,15.510257551595,16.3110002305773,17.4820829176662,14.5382635461397,10.8637773380053,6.87917712598825,4.97941532358752,14.0269723819236,10.7080110498196,14.0939234463352,14.2287908501232,15.2006731147438,13.0497103701591,9.74952242691145,7.38768080178657,0.470065284751573,1,0.969822941036728,0.995242037142797,1,0.988859641207354,0.904446401273676,0.765938607634747,42.73230075,-76.65036275,2020,"NYH2",18
"B14A/MO17","MOH1_2_2018",17.7,731.12121286656,0,2,204,99.6666666666667,61,57.3333333333333,4.41903226221761,0.120000000510897,6.56660791995818,4.99591372633306,0,0.865952385796441,4.86790862322567,7.31814540619296,3.6292411527306,136.990000128746,0.840000003576279,71.6014266695295,150.62857072694,0,7.79357147216797,145.615713886518,39.8592857306025,112.015713835268,18.3939577687171,18.4656530107771,20.1607480990468,20.7059322149744,19.8732600893293,21.9774913485088,18.0698285783682,17.4646894327232,16.3191407620449,19.5254839005009,22.7671429770333,27.1655427269033,29.6093682189896,31.6271427018302,32.3242057770018,29.5162818466631,29.853759335174,27.0484316483804,7.99741943036356,14.1471428189959,16.4373297396251,18.8117261232584,21.7996424947466,20.7100794050429,19.443161886798,19.2115569948339,15.9181414362839,7.99298649242084,11.1555315984476,14.0053567257346,16.2635961901413,18.7133925982884,18.5171425910223,16.5469966366495,16.6004405943066,13.8667043099972,0.872361757925578,1,1,1,1,1,1,0.995607143802708,38.89555425,-92.20964575,2018,"MOH1",18
"PHG29/PHG47","MNH1_2020",15.85,781.32143698944,0,0,249.5,127.5,65,64,0.94300509867826,6.54607305060729,4.14035912753596,4.70748763912835,0.452236840599462,2.54351275702983,5.92890111667188,4.27061504377344,2.50108778318406,29.2331580590261,64.9010543540904,50.6168419938338,155.384736988105,0.714736844363965,28.6173683906856,219.299474794614,34.3447376494541,76.9310546087983,20.8351621174448,15.7339994616729,19.7482846720118,20.9752267105361,19.7857435502504,20.2008613357514,18.410630506817,15.8353278990905,12.8477663152691,15.7084550036336,18.5315520479183,25.8284042289769,28.495260522451,29.9249994378341,28.2199240924829,26.5218522585541,25.9398792816591,19.7406792160144,2.26123937792406,9.18620770652177,13.9924403556009,16.6828678833046,19.344474052128,16.9052831803402,15.0937764647406,14.3091431196277,8.59321732280189,5.3706805778496,7.95338430636633,12.4659637890829,14.7786587119029,16.6623657697956,14.7511618456846,13.2528818768791,13.0175246736152,8.66613029209796,0.62261399417653,0.838417993402521,1,1,1,0.988450437108742,0.930664219656181,0.78075899295554,44.06907839,-93.53263028,2020,"MNH1",6
"LH212HT/LH195","IAH3_2015",22.4,691.21847061504,1.5,0.5,267,131,65,64,1.88812499120831,2.91357139178685,3.78481399490418,6.97192884345098,0,3.25750006437302,1.48738522759636,2.54144646929843,4.50744494696458,60.4199997186661,40.7899994850159,55.4399998188019,241.660000324249,0,32.5750006437302,50.3143747076392,24.6850003898144,138.775626681745,19.8017279356718,20.0399833406721,15.9141292010857,20.6828349141208,21.6913648645083,21.2442863583565,20.6378456393082,18.6830175797854,14.9219848873154,14.6418750584126,16.6814285005842,21.6371087993342,27.6137224668604,30.8788542747498,30.3035624980927,28.5962540049038,28.5165626687663,24.3338990757542,0.832500039599836,3.60071423649788,12.2454287241307,16.0517815224708,19.4736456473668,18.1100625455379,15.9931958270939,14.3037321656942,10.6490121472687,4.60513154837493,5.78749983119766,10.114657753447,14.1164012039241,17.1762499610583,16.2539166939567,14.5767076625307,13.9758338636144,10.8754278827313,0.501462055137381,0.634540812549542,0.981270752987184,1,1,1,0.968879462565695,0.933929792194543,41.97585629,-92.24291804,2015,"IAH3",16
"B14A/OH43","ILH1_2019",22.05,753.64695446016,0,0,256.5,144,61.5,59.5,3.92290326087706,5.48166660467784,1.00366755026978,4.24469195298614,0.864761891819182,1.28937734611451,1.22741108088123,2.86464707421608,2.11607064787419,121.610001087189,32.889999628067,10.0178568235465,147.038572290114,1.34571427958352,11.7742857251848,45.424286284617,20.7057140384402,64.4999996210848,18.8014538057389,19.6532208124797,22.6739207193184,19.8427488119022,20.6112506503151,20.0231267023568,19.2803285422626,15.593443452501,14.9705618824278,19.7877418764176,27.4949998855591,27.6677106167,28.391751748966,31.9042863845825,30.8675330402875,28.5386960574539,27.7513351862122,26.642996194359,8.82258073745235,16.1166664759318,15.7380163212624,17.4414067467824,20.6435711043222,19.8174946769835,16.7183759585253,16.7475935139624,14.3837349186112,8.3928973982344,14.0110710173232,13.9335870022067,15.0880410930982,18.2842317301039,17.4039330210807,14.7898098558346,14.4511626176183,13.1086534994412,0.871382484238269,1,1,1,1,1,1,0.979387754708731,40.0587105,-88.2298385,2019,"ILH1",20
"PHP02/PHB47","GAH2_2017",17.35,686.06972967936,30,2,220.5,119.5,52.5,53.5,5.21580650729518,2.5900000504085,0.877047008250183,6.97642455518673,36.6657152743567,11.6899047257408,2.7666341943209,6.71771433921087,5.23728113098445,161.690001726151,18.1300003528595,10.9880953289214,219.498574256897,69.630001999083,116.642856779553,77.5566674754733,33.5885716960544,162.355715060518,18.5937584292504,20.9798694338117,21.9819358919917,18.5456761912278,14.3399090085711,17.7663424007476,19.7852386843795,18.8635498507493,17.5761632626324,25.9351613444667,24.1757144927979,30.4733941834677,29.3125237180294,29.5290477389381,29.7298041853324,32.7260150193597,32.1051154233971,30.7678495222522,12.1722579925291,9.93857138497489,16.1532482752429,18.0635315609615,20.4347616377331,19.5111429658516,21.2099278742435,20.8635237298044,19.9554377788772,11.9095461609865,10.3853811467122,15.4565539701251,15.7524985099092,16.9819046883356,16.6341283702326,18.9016913140486,18.4715566451785,17.4124163797098,0.999631334559709,0.985714284741149,1,1,1,1,1,1,33.727145,-83.29821525,2017,"GAH2",9
"B73/TX779","NYH2_2020",16.1,630.07717200384,0.5,5,249.5,123,77,74,4.4222579925291,0,1.39173123579944,3.18235724693344,6.17088877360026,3.50790104135118,2.28349072361197,1.42691866419926,2.17217563357404,137.089997768402,0,18.6826673050721,113.270666055878,12.6093331019084,36.9826669931412,88.4693336625894,18.1466666658719,65.6160001913706,20.9426754428494,21.7824497138129,21.5566608507285,20.6432143634654,19.2778644667731,18.9298452936519,17.7688209270759,13.7796892350961,11.7049053949951,14.5544730601772,27.9497778235541,23.6293392760458,27.8654129678972,27.8868889702691,28.7867253702337,26.5330294770505,21.5667549297366,18.2050767358379,2.61195698992539,15.6643110571967,11.3557305522714,15.510257551595,16.3110002305773,17.4820829176662,14.5382635461397,10.8637773380053,6.87917712598825,4.97941532358752,14.0269723819236,10.7080110498196,14.0939234463352,14.2287908501232,15.2006731147438,13.0497103701591,9.74952242691145,7.38768080178657,0.470065284751573,1,0.969822941036728,0.995242037142797,1,0.988859641207354,0.904446401273676,0.765938607634747,42.73230075,-76.65036275,2020,"NYH2",9
"B37/H95","MOH1_2017",18.05,731.12121286656,6,3.5,264,129.5,65,63,8.9377417372119,9.40166687965393,2.5122307210309,3.31803000298191,5.03571436897157,1.79449076217318,1.99698652419733,1.22007939712801,1.67255760975148,277.069993853569,56.4100012779236,33.266191187359,103.90142990152,11.9309525943938,15.8776192438035,65.301428034192,7.33476209640503,51.2547620932261,18.7248205369519,18.0883291562398,22.6242269395262,21.0080017307694,18.7751449554686,19.9343814805702,19.7053313769018,19.3664612148354,17.3432911467809,21.9203225412676,25.3299999237061,25.4749503644893,29.3008720310805,30.4665072910369,32.2541201606629,29.9202677395283,28.2214596385048,28.0482789753525,10.0600000504524,15.2766664822896,12.998270884804,17.3976861805709,19.7822220514691,21.2135912224098,18.704048814453,16.3385714299284,14.9717184025754,9.61284732078703,12.7690302394973,11.9492820630245,15.4976191875118,17.12130987162,18.6727738376249,16.2046370134919,14.4820857755482,13.9285000836298,0.915472352559665,1,1,1,1,1,1,0.999239795872954,38.89264,-92.2057525,2017,"MOH1",23
"TX714/TX779","ARH1_2017",12.25,686.06972967936,0,2,199.4,117.5,73,71,3.05812502466142,3.53285707746233,9.87168867799627,6.40516052792204,0.516363615339453,5.98817166776368,5.1192324932667,3.10231815251437,5.34158355959,97.8600007891655,24.7299995422363,132.032728541981,211.621818423271,0.569545431570573,54.3681813803586,136.891365343874,16.0827271288091,165.58909034729,17.1397498100996,16.5534388678415,20.3842401109389,18.762255266809,22.8136479348847,19.0696450768095,19.5355347466332,19.7719311078389,17.1297293478443,24.6090626120567,23.9600004468645,24.7705700575015,28.0660565234123,30.3546969095866,31.5146664012562,31.305776363096,32.7845913251241,30.9158799263739,11.9174999967217,14.1785715648106,11.8445801043321,17.6085024623292,18.9724999485594,21.3061564166136,21.3997927531552,22.5053331635215,21.6223753764133,11.1639708952952,11.7757805455927,11.2265518633486,14.9753735417966,16.7435951634837,18.4104114089349,18.3304942572969,19.547681258962,18.2245760771495,1,1,1,1,1,1,1,1,34.7272515,-90.76032575,2017,"ARH1",5
"B73/PHM49","NYH1_2019",27.1,658.39524715008,1,0.5,248.16666665,137,72,72,3.74249998852611,3.13750004023314,5.75382418421519,3.19318469405372,5.05499997505775,4.67964498742798,3.14173431505368,2.11561926224602,4.09564599909039,119.759999632835,25.1000003218651,83.0561534670683,110.787691554198,10.5969229478102,60.8353848365637,169.678460007677,49.6684614184957,126.198460106666,19.3120462298393,22.906525015831,19.4055643197987,20.0954846191366,19.5441625057123,18.4327194563736,14.7868750412398,11.8266811133142,8.21836269058601,18.6993749439716,22.8587503433228,22.9010546045212,27.5168322059324,28.2501282325158,26.2428401066707,22.0298851708133,19.800822747137,11.0057352093984,7.84562503546476,10.0637499690056,12.2881303876188,16.102631765372,16.0733334345695,14.3993490828565,10.6740678622988,8.35750533580157,1.63569085205791,7.63952840037155,9.77521380841136,10.4905594472129,14.0585405915596,14.3930059612616,12.7382854892206,9.76289549498727,8.6764710214225,3.98046667720391,0.838560268548982,0.991875007748604,1,1,1,0.934962265626692,0.800347461722585,0.399612351739001,42.7288875,-76.65152084,2019,"NYH1",22
"B14A/H95","WIH2_2018",25.35,739.48791688704,0,2,253.666666666667,129.333333333333,68.6666666666667,66.8333333333333,3.14419357238277,1.76857142789023,3.7850711937244,5.16484622721252,1.71595238503956,3.40222404942368,3.04494882245682,9.61559933750402,3.37177261638065,97.470000743866,12.3799999952316,46.2814290182931,179.869998318808,4.56071427890233,37.7064288343702,131.482145317963,73.4771447862898,101.717141609107,19.2573341092756,21.1210829871041,21.4752587688556,21.2745392970238,18.3171726181394,18.5302155637122,18.6607088369069,13.625803150659,11.3718547526592,15.5287096115851,24.665714263916,26.0917028350164,28.2348686412978,27.8659524917603,27.6583875546724,26.7064113625472,24.9215236168329,17.9686743887339,3.195161296956,12.9500000817435,13.8890289352891,15.1338539459878,17.4050001189822,17.0648214997667,13.7709706188762,13.5657747038241,6.88716511658397,5.28984108241052,11.5719513224068,12.6458491000419,14.0894685781005,14.7169908688233,14.5010708096508,12.893566291538,12.2339728232487,7.2792037808306,0.580092163387394,1,1,1,1,0.981419112725804,0.932006969360863,0.738663650155215,43.38075,-89.38645,2018,"WIH2",20
"PHW52/PHN82","NYH3_2019",23.8,682.2081739776,0,3.5,240,106.5,76.5,76,3.72258061843534,3.87333340446154,3.76955400809287,3.75795896571508,6.56821410996573,3.88506864038579,3.60460358533742,1.92985849242725,3.70969433207682,115.399999171495,34.8600006401539,61.0485710842269,135.223571415458,13.1364282199315,47.6607138003622,172.531427594168,35.2749997771212,112.091428233044,17.9818517008135,20.7904033660889,20.5345835557134,20.2058653140992,15.5610718727112,20.4766564495834,15.7702462009656,13.4294513617228,8.80235229894496,16.2129032073482,21.9111109839545,21.5613081952495,26.8770007968465,26.2792857942127,27.1986309888162,23.3375417451935,19.773083545106,13.3983490204822,5.32225806866923,10.3000000317891,10.3160979176523,15.509271738716,17.6248807452974,14.9270009474877,12.0004128155567,8.02753882145729,3.37833070208652,6.13441130849994,9.41403374570844,9.31851776692003,13.5297047939764,14.1150331062229,13.4089788898699,10.6913410862683,8.32722055380148,5.10908243250187,0.665391704453851,1,0.983452188949599,1,1,0.970435943491675,0.837841688793101,0.510564167879573,42.7321756,-76.65345463,2019,"NYH3",19
"PHG29/PHG47","ARH1_2017",14.1,742.70587997184,0,2,153,101.6,65,60,3.05812502466142,3.53285707746233,9.87168867799627,6.40516052792204,0.516363615339453,5.98817166776368,5.1192324932667,3.10231815251437,5.34158355959,97.8600007891655,24.7299995422363,132.032728541981,211.621818423271,0.569545431570573,54.3681813803586,136.891365343874,16.0827271288091,165.58909034729,17.1397498100996,16.5534388678415,20.3842401109389,18.762255266809,22.8136479348847,19.0696450768095,19.5355347466332,19.7719311078389,17.1297293478443,24.6090626120567,23.9600004468645,24.7705700575015,28.0660565234123,30.3546969095866,31.5146664012562,31.305776363096,32.7845913251241,30.9158799263739,11.9174999967217,14.1785715648106,11.8445801043321,17.6085024623292,18.9724999485594,21.3061564166136,21.3997927531552,22.5053331635215,21.6223753764133,11.1639708952952,11.7757805455927,11.2265518633486,14.9753735417966,16.7435951634837,18.4104114089349,18.3304942572969,19.547681258962,18.2245760771495,1,1,1,1,1,1,1,1,34.7272515,-90.76032575,2017,"ARH1",7
"B73/TX779","ONH1_2017",17.7,731.12121286656,0,2,229,110,65,64,4.42290318973603,4.90499987602234,1.54517322055995,3.42043524389027,1.69537500639757,2.59470000425975,1.85553477411666,1.54565171024702,2.38311134809945,137.109998881817,49.0499987602234,23.5260000944138,140.803499376774,5.37800000905991,36.4615000605583,95.2335010707378,29.8530000910163,72.442500063777,18.6566223482932,17.085453414917,23.1081316370623,20.1258676762395,18.1123231848081,19.448199154763,16.3365299663776,11.6220921499278,7.95773399619337,13.9432257683046,18.2070002555847,22.3568953625361,24.8004575461006,25.1718332052231,25.2296929018838,22.7939628290416,22.1395736741961,13.2953202319795,3.57838706624123,9.70699996948242,10.1038785092604,14.1218529553715,14.8234999100367,13.6326119545528,10.3904861973293,9.84747559454018,3.16628943898447,4.95821241247301,8.02589456270986,9.65909793089355,11.970962334223,12.3574061250221,11.983111058727,9.95345599460199,10.065401602519,5.27337575174164,0.439723497986244,0.877642858028412,1,1,1,0.972410901067044,0.840292505181159,0.515578472813697,43.49546,-80.42596875,2017,"ONH1",10
"TX777/LH195","TXH1-Late_2018",11.4,756.221324928,0,2,261.5,103,66,66,3.5793750025332,7.22999986012777,0.880950212466032,3.39399650565147,5.74642871958869,3.61914694878968,3.45560049644284,0.428285707746233,2.2787097211807,114.540000081062,43.3799991607666,11.7107142976352,109.309285019125,11.4928574391774,35.4171440643924,87.1585709388767,2.14142853873117,70.6400013566017,15.1890550404787,16.9814987182617,20.4111461997292,19.9987621572639,15.8160833404178,20.1152116011059,19.5823012089101,16.3941785948617,18.6152318413906,25.4215626120567,25.4816667238871,24.9240564974382,29.8609676759365,30.5592857315427,31.1110338370005,33.471735544548,33.678570665632,35.6292394646851,13.7340625077486,14.7233331998189,12.1417448389526,16.9768337518894,21.1738096872966,19.9290791380973,21.6003019523645,24.8844285964966,24.5352535247803,12.2487610557836,12.9546326020938,11.4732109690061,15.6369768953886,17.8686949252443,17.4931939916305,19.3485664524142,20.6305847067263,20.9047458821383,0.995234378746578,0.961607143992469,1,1,1,0.999944235746723,0.999152383350191,0.99903341174675,30.546318,-96.4329965,2018,"TXH1-Late",13
"PHW52/PHN82","NCH1_2017",18.675,731.12121286656,0,2,195.75,86.75,65,64,5.92935477918194,4.0971428326198,0.297958701828474,3.8605887218635,6.67380964188349,5.43709003925323,2.5136726855367,1.67758050992105,4.1404608350745,183.80999815464,28.6799998283386,4.0233332543146,115.819522829283,10.9095240093413,51.8457151651382,65.1576194422586,9.6885714899926,128.354285887309,16.8479611796717,19.660787991115,22.200774141109,19.2039608935909,15.7724910842048,20.5483989412822,18.7994722996277,19.2660637939868,16.4083516821151,26.0700000639885,23.5785715920585,28.1701127560743,29.7261436573129,31.0140472896515,30.4881481291756,32.5472167507523,31.9569590380403,30.4313824649231,13.6406452425065,11.251428263528,15.697578023226,18.8753639802544,22.5767457295978,19.8479362164856,22.2803962481536,21.2748593008167,20.8135023424702,12.5644242151493,10.4878498696085,14.2666594933888,16.3604491100229,18.7994083488786,17.2114406625619,19.3855749588707,18.573365725773,17.6526987585521,0.998329492208595,1,1,1,1,1,1,1,35.29663725,-77.5668065,2017,"NCH1",20
"F42/H95","GAH1_2017",13.65,763.30084371456,0,2,190,75,62,61,1.92968747392297,5.73000001907349,0.343252103133586,3.44928658477499,2.10761896769206,4.58677246557972,5.88411512674098,3.46279361891368,5.79033786946544,61.749999165535,45.8400001525879,4.18523797534761,115.462857757296,3.16142845153809,44.2476188795907,164.396192306564,18.0028569698334,179.500473953429,16.8024901300669,20.1373232603073,20.1734204678472,19.2707622430691,21.2048014383467,16.6798162969963,18.1585808485972,19.3751740168011,17.7370458682012,23.5584374964237,24.7612497806549,28.7388454609341,29.029321913538,29.7903175656758,30.1182594269041,30.8846873649595,33.0415872604128,32.3946695928383,8.65499997884035,9.07374995946884,13.8160128648753,15.9456908272656,16.8514287131173,20.0705928338268,21.0580026966177,22.2436510176886,22.0341169412967,9.93516597929203,10.3201673994425,13.6844889022653,14.8136399848139,15.5596332003494,17.1078969773464,17.9595982908683,19.6134998817186,19.1980031961101,0.883437499936138,1,1,1,1,1,1,1,31.50794425,-83.55854475,2017,"GAH1",19
"B37/OH43","IAH3_2015",21.3,668.04913640448,0,22,254,130,65,64,1.88812499120831,2.91357139178685,3.78481399490418,6.97192884345098,0,3.25750006437302,1.48738522759636,2.54144646929843,4.50744494696458,60.4199997186661,40.7899994850159,55.4399998188019,241.660000324249,0,32.5750006437302,50.3143747076392,24.6850003898144,138.775626681745,19.8017279356718,20.0399833406721,15.9141292010857,20.6828349141208,21.6913648645083,21.2442863583565,20.6378456393082,18.6830175797854,14.9219848873154,14.6418750584126,16.6814285005842,21.6371087993342,27.6137224668604,30.8788542747498,30.3035624980927,28.5962540049038,28.5165626687663,24.3338990757542,0.832500039599836,3.60071423649788,12.2454287241307,16.0517815224708,19.4736456473668,18.1100625455379,15.9931958270939,14.3037321656942,10.6490121472687,4.60513154837493,5.78749983119766,10.114657753447,14.1164012039241,17.1762499610583,16.2539166939567,14.5767076625307,13.9758338636144,10.8754278827313,0.501462055137381,0.634540812549542,0.981270752987184,1,1,1,0.968879462565695,0.933929792194543,41.97585629,-92.24291804,2015,"IAH3",23
"CG119/CG108","TXH1_2019",8.73,792.108049249689,0,0,162.5,43,62,60.5,1.71448274965173,0.072857141494751,3.656594302147,9.09543456371003,0.409285715648106,1.20767857134342,5.35585078307965,1.24614285230637,1.57441934339828,49.7199997399002,0.509999990463257,52.0078563094139,328.212138780526,0.592857139451163,9.66142857074738,146.447857277734,6.531428532941,47.5149996536119,15.4280570457722,20.5213113512312,18.768988344457,18.5703255916766,21.4234965869359,18.852815253394,20.148813605732,21.0307275136312,19.8408923398148,18.4500000723477,25.7642857687814,24.4325494379212,27.2758673216928,31.0900000163487,32.3786609854017,32.7243520483546,34.0447144826253,34.9820077594341,6.8262069143098,10.3500000408718,10.6796315414328,14.7876673923985,18.6585717882429,21.8507142748152,21.0244273483534,21.7961428233555,22.6049738996772,7.4578164675981,11.1589152046898,10.8511947929525,13.4663040330347,16.9119367665064,19.1141210544432,18.8476531392514,19.7780710195599,20.0141955883191,0.749667494461454,1,0.945308164445992,1,1,1,1,0.999698925164804,30.546318,-96.4329965,2019,"TXH1",22
"B73/PHM49","IAH2_2017",17.7,731.12121286656,0,2,229,110,65,64,2.99193547618005,4.00374990701675,5.59415436127969,1.82415974193672,2.96590905297886,1.13861617337574,3.54439579705404,5.52586092903759,3.22496434239523,92.7499997615814,32.029999256134,86.8399996757507,64.743636071682,5.88090901483189,11.0354546579448,133.685001557524,39.366364874623,98.0227279554714,18.9181115088924,22.0308394432068,18.3906703843513,21.9130098121916,21.5970702604814,21.0005855088282,18.7624625632021,16.5013675579605,14.5633697451035,16.7025806211656,25.2537500858307,21.1644402920874,28.7879280313535,31.3429540287365,31.038908986371,27.7923067917653,26.5413899369054,25.0180860311055,3.83612903808394,9.06000000238419,9.83648406203406,14.7235259390494,17.1804546009411,18.0048533863491,15.618900018401,13.9478747019692,12.2571085666223,5.88435640664124,10.5205817772981,9.32555658634035,14.1961143177765,16.2939337097197,16.5715003347332,14.0580127584531,12.7380351430824,11.5799250069021,0.659274194561254,1,0.882113053044242,1,1,1,1,0.976890028652541,42.06582876,-94.72050129,2017,"IAH2",23
"B73/PHN82","IAH2_2017",15.6,768.44958465024,4,7.5,209,101,65,64,2.99193547618005,4.00374990701675,5.59415436127969,1.82415974193672,2.96590905297886,1.13861617337574,3.54439579705404,5.52586092903759,3.22496434239523,92.7499997615814,32.029999256134,86.8399996757507,64.743636071682,5.88090901483189,11.0354546579448,133.685001557524,39.366364874623,98.0227279554714,18.9181115088924,22.0308394432068,18.3906703843513,21.9130098121916,21.5970702604814,21.0005855088282,18.7624625632021,16.5013675579605,14.5633697451035,16.7025806211656,25.2537500858307,21.1644402920874,28.7879280313535,31.3429540287365,31.038908986371,27.7923067917653,26.5413899369054,25.0180860311055,3.83612903808394,9.06000000238419,9.83648406203406,14.7235259390494,17.1804546009411,18.0048533863491,15.618900018401,13.9478747019692,12.2571085666223,5.88435640664124,10.5205817772981,9.32555658634035,14.1961143177765,16.2939337097197,16.5715003347332,14.0580127584531,12.7380351430824,11.5799250069021,0.659274194561254,1,0.882113053044242,1,1,1,1,0.976890028652541,42.06582876,-94.72050129,2017,"IAH2",33
"B37/OH43","GAH2_2018",15.15,733.6955833344,1,2,232.5,98.5,53.5,53,4.84967745888618,0.472857134682792,6.38984283527144,2.50728712962131,2.62500000283832,3.79519841145901,2.49966845428401,2.8287857288406,3.72412446731796,150.340001225471,3.30999994277954,84.9085696467331,76.9578574214663,5.38785717317036,33.8478571346828,66.1414286494255,15.0642858062472,115.447858486857,20.4955881180302,21.8851153509957,20.3329850251172,19.1599877182245,23.5162671634129,19.7079079832349,20.0248900302085,19.4201906385876,16.0079359810473,23.574838699833,25.8042855943952,25.0982466928002,29.4338754995983,32.5767859504336,32.3044644802336,33.9553133770799,34.1288569904509,31.9958754816363,8.78774203408149,10.5771427835737,11.2078081937334,18.18961495413,18.4690478188651,20.5788887871636,21.2528475332136,21.0849286215646,21.0162903284697,9.71754329526851,11.3392147010659,11.2342556626861,15.8911321098361,17.5337695363242,18.4416766336986,19.3188239485151,19.4729093337791,18.4928476713494,0.993778801184096,1,1,1,1,1,1,1,33.71560925,-83.30894675,2018,"GAH2",24
"F42/OH43","ONH2_2017",17.7,731.12121286656,0,2,229,110,65,64,3.5667742529223,5.81600005626678,0.640467161488946,2.60285034576314,0.27619046824319,0.553043346265297,1.77415042468807,1.8322193505358,2.40528059047854,110.570001840591,58.1600005626678,8.99904758589608,96.0257148231779,0.55238093648638,6.91857143810817,78.7085716128349,24.0661906514849,72.9814284727687,18.8542372026751,16.7486707210541,24.2129103871374,19.3709418074881,21.1971578446646,20.8470523735834,17.6115175917995,14.25368499546,9.92782470727663,15.7532256957023,18.6889998435974,23.4026282865202,26.349749969441,26.5938094911121,26.8606501324273,24.5722531696102,22.9174861617247,20.0059681545616,5.76483872628981,10.960000038147,12.0335911848343,16.1800782706558,16.6330158142816,15.9192033646599,13.1457407086605,11.2717777505092,10.1065058561854,6.14192830243868,8.3866030604193,10.6839465453898,13.5252167119854,13.7753985037319,13.6499871813553,11.5882146496872,10.4155272324174,9.10741430426533,0.598502302774086,0.966571422985622,1,1,1,0.999084662263501,0.956230826192702,0.830002500100802,42.45293025,-81.8827315,2017,"ONH2",27
"PHG39/PHN82","NCH1_2015",18.55,731.12121286656,0,0,212.5,113,65,64,3.01406249962747,9.69285692487444,3.04330832410036,7.00027835031834,0,3.41134798604678,2.88671641131125,10.3153333224502,6.56176467005171,96.4499999880791,67.8499984741211,47.4647058125804,233.853526101393,0,30.1217642391429,80.4405882078059,53.9476469544803,203.414704771603,18.5664188563824,18.5514960970197,20.3873328310438,17.1836904295842,24.3925100214341,21.0362960372875,20.3018930406527,17.2717840606091,15.5850313791061,22.3831250071526,24.9499999455043,23.1803462918337,27.4024498932643,31.8211766411276,31.7674348182928,33.3084592700098,33.2296859142827,31.1603984543223,8.59218750149012,12.5099998201643,10.485350050131,18.4028683148743,19.9205883250517,21.4626141077553,22.3400113714156,22.6128236359241,21.9246869403904,9.28512769721026,11.4677352876307,10.1580144688938,14.9923900224101,17.8708824830897,18.6065247653655,19.7182694534911,19.8442286940319,18.5353187927943,0.955334819055029,1,0.995809597891475,1,1,1,1,1,35.29657708,-77.5664625,2015,"NCH1",23
"B73/MO17","NCH1_2020",17.1,721.46732361216,8.5,0,235.3125,115.3125,65,64,3.81125003128545,6.58374977111816,1.87015070111794,7.59338454735375,0.884285699753534,2.63668646698906,3.33071338060501,6.12114287103925,7.32343316943415,121.960001001135,52.6699981689453,29.2835704556533,255.940713865416,2.6528570992606,23.4857139246804,94.0314286180905,30.3285714898791,227.026428252459,17.7931001186371,18.2030313014984,21.9031161387958,16.624104256889,22.7344187781924,20.9765385862381,20.5430953276098,18.1598880904061,15.6514139856611,21.6678124964237,23.2199997901917,23.3487043310554,27.0496421427954,28.21738079616,30.9563497626592,33.0704321677563,33.2972858973912,31.2465668471727,8.08281250484288,11.5312500596046,9.51933213031121,18.0966886080901,18.1914290927705,20.5856052201892,22.1124512970464,22.8580000468663,21.9105529499493,8.88590596036503,10.345445976376,9.896418392683,14.6940439801602,15.2496249982652,17.7688184726376,19.5031272394627,19.9903569790644,18.562087597318,0.935200902566846,1,0.995619772597503,1,1,1,1,1,35.30009892,-77.57131746,2020,"NCH1",18
"TX714/PHZ51","INH1_2020",21.725,764.781106733568,0,2,253,138,68.5,66,2.63064515013849,6.09222216076321,2.38090554163418,2.63802878915032,0.629411795560051,2.97723527796128,3.34980336859539,1.09505251642703,1.57514418927949,81.5499996542931,54.8299994468689,26.3500001711004,86.9017637687571,0.755294154672062,29.7723527796128,114.917647417854,7.60117643019732,48.4147051677984,19.1204067507098,14.4686205122206,21.683403471156,21.7538997697412,20.2483905343448,19.6695943495807,18.7818895809529,18.0082829882238,15.450766363346,15.2067741424807,20.6899998982747,27.1104927022189,29.4265010732643,32.0752935970531,30.3638822218951,28.1583408143781,28.6678223609317,25.4133379392123,2.93419356355744,11.5155556201935,15.1781191785852,16.469441937157,19.3758825414321,18.2375294629265,16.6673405457507,16.5683672047159,12.5233751913666,5.19370579464667,9.33766425162009,13.5421990121603,15.1602616547628,17.7314612721144,16.3694037021206,14.6116717912345,14.8394952945466,11.9009549885014,0.576025337581673,0.994801586582547,1,1,1,1,1,0.975702380729156,40.4787965,-86.9895995,2020,"INH1",12
"PHW52/PHN82","GAH1_2020",18.995,721.660401397248,0,0,167.5,62.5,68,65,4.27968756295741,0,6.08243138020408,3.81142053665399,2.26797622726077,2.53000005464705,3.98378478018425,1.74183334594681,2.91020735672542,136.950002014637,0,84.3757133483887,135.927856496402,4.83357150214059,22.7700004918235,107.937856589045,9.11500006914139,90.216428058488,16.61263859272,21.597287495931,19.1063623666566,20.7228669323379,14.5468794504801,18.1558473072355,20.0860545342815,19.6863488855816,18.2778173152203,25.3734375238419,26.7716668446859,25.9414437889232,27.7782461895112,29.5535711560931,30.6518254961286,31.7819527581035,33.481785315559,33.5632257461548,12.4387500640005,10.556666692098,12.1903592865197,13.8072078123191,20.5805949710664,20.2611109718444,20.573869922599,21.9683809507461,22.2545622197164,11.8050821453841,11.6911327448693,11.8898952454891,13.3543297450153,17.0670830635797,17.4564682339865,18.1799652092781,19.6703232683732,19.801667626888,0.988537947248135,1,1,1,1,1,1,1,31.5079775,-83.558517,2020,"GAH1",21
"F42/MO17","IAH1_2020",15.1,731.12121286656,6.83333333333333,1.83333333333333,229,110,65,64,1.68806450597702,6.19600019454956,3.07937370009497,6.53305792599394,1.27142855099269,2.67326977555714,1.85421064008438,0.708456623919156,3.75561601346081,52.3299996852875,61.9600019454956,37.2349991798401,213.622142757688,2.19857137543815,25.9085708005088,60.1178565110479,6.01214278170041,115.372858315706,19.46953176683,15.0466018676758,20.6424708637148,20.3159834913117,21.992077418736,21.0955225202772,19.7297913964658,19.804555562767,15.1169259092225,15.8729031931969,18.7070004463196,25.7217689451961,28.5067430861476,31.9299994877407,30.8792140748766,28.6114739112471,29.3732770515948,24.6307950130622,3.3483870948755,9.75300015211105,14.6592933360598,17.3863334611218,19.8571428571429,19.2884919363355,17.2726116483618,15.4681903785589,11.8318310619754,5.55848579964145,8.12545645677116,12.6575733793141,15.0980196558132,17.8935711724418,17.0907883427003,15.1212185598445,14.7539709043416,11.4769448256727,0.621440085247674,0.927035726393972,1,1,1,0.99851414246496,0.992713008729779,0.918334154475424,41.19774214,-91.48767072,2020,"IAH1",22
"B14A/OH43","MNH1_2020",28.25,675.772247808,15,1.5,252.5,134.5,67,63,0.94300509867826,6.54607305060729,4.14035912753596,4.70748763912835,0.452236840599462,2.54351275702983,5.92890111667188,4.27061504377344,2.50108778318406,29.2331580590261,64.9010543540904,50.6168419938338,155.384736988105,0.714736844363965,28.6173683906856,219.299474794614,34.3447376494541,76.9310546087983,20.8351621174448,15.7339994616729,19.7482846720118,20.9752267105361,19.7857435502504,20.2008613357514,18.410630506817,15.8353278990905,12.8477663152691,15.7084550036336,18.5315520479183,25.8284042289769,28.495260522451,29.9249994378341,28.2199240924829,26.5218522585541,25.9398792816591,19.7406792160144,2.26123937792406,9.18620770652177,13.9924403556009,16.6828678833046,19.344474052128,16.9052831803402,15.0937764647406,14.3091431196277,8.59321732280189,5.3706805778496,7.95338430636633,12.4659637890829,14.7786587119029,16.6623657697956,14.7511618456846,13.2528818768791,13.0175246736152,8.66613029209796,0.62261399417653,0.838417993402521,1,1,1,0.988450437108742,0.930664219656181,0.78075899295554,44.06907839,-93.53263028,2020,"MNH1",21
"B73/MO17","GAH2_2017",17.3,726.61606454784,34,2,238.5,104,56,55.5,5.21580650729518,2.5900000504085,0.877047008250183,6.97642455518673,36.6657152743567,11.6899047257408,2.7666341943209,6.71771433921087,5.23728113098445,161.690001726151,18.1300003528595,10.9880953289214,219.498574256897,69.630001999083,116.642856779553,77.5566674754733,33.5885716960544,162.355715060518,18.5937584292504,20.9798694338117,21.9819358919917,18.5456761912278,14.3399090085711,17.7663424007476,19.7852386843795,18.8635498507493,17.5761632626324,25.9351613444667,24.1757144927979,30.4733941834677,29.3125237180294,29.5290477389381,29.7298041853324,32.7260150193597,32.1051154233971,30.7678495222522,12.1722579925291,9.93857138497489,16.1532482752429,18.0635315609615,20.4347616377331,19.5111429658516,21.2099278742435,20.8635237298044,19.9554377788772,11.9095461609865,10.3853811467122,15.4565539701251,15.7524985099092,16.9819046883356,16.6341283702326,18.9016913140486,18.4715566451785,17.4124163797098,0.999631334559709,0.985714284741149,1,1,1,1,1,1,33.727145,-83.29821525,2017,"GAH2",19
"WF9/H95","IAH1_2017",17.7,731.12121286656,0,2,229,110,65,64,3.40562492981553,4.9653845842068,4.75627611908435,1.83360658706262,3.81409099607757,2.22148488699788,3.67080832802223,1.81325483980117,2.34747311753145,108.979997754097,64.5499995946884,71.2827261577953,63.7872725833546,4.17772737416354,22.8386367667805,118.906818606637,13.7622724988244,72.0368181575428,16.1986516714096,17.4117801372822,18.8419865113308,22.0772261853777,19.5709462599321,20.6423577019663,19.6533487855188,19.1238258402757,16.8780910515948,17.1134373545647,15.3784616176899,22.9595167923024,28.098072667094,26.507423805468,30.2796059126806,29.7994892260695,26.9283494144291,26.376740509697,5.4131250269711,4.92307697809659,11.465490162608,14.1696252786347,11.6175757754933,16.6577523703527,16.6650409071547,13.3875722172112,12.4151066155028,6.53077833948335,5.76856381165309,10.4537021498713,13.7196511279626,11.9478337828281,15.6426259768559,15.399646170179,12.7123989246095,12.1737806011652,0.629988832066634,0.555054952155103,0.946458761983939,1,1,1,1,0.998130952344312,41.19924609,-91.49402296,2017,"IAH1",14
"B73/PHZ51","WIH1_2016",18.5,817.3626235392,0,3.5,272.5,136.5,73,72.5,2.07612901829904,1.94750002026558,4.43029129058702,4.06837717818273,0.606590926647186,8.20447110085448,6.520888551421,7.2858018260261,4.4131911117893,64.3599995672703,23.370000243187,50.6681830666282,153.97863580422,1.01772730458866,87.4172730174932,222.460452949459,58.9559095664458,134.926818408749,19.9280546249882,20.9108026027679,19.5354633918175,20.656900418312,18.9729677330364,19.7636050157311,17.5087671369867,15.2137091671578,12.2388305592514,16.7025806211656,17.5758331219355,27.0818272779223,26.4913085721608,27.2215908223932,28.3583387540392,27.670006898165,25.1458900986296,22.9867464155046,3.3274193627219,4.99083332717419,14.0472380898586,14.4742379762581,17.5863633372567,16.7186735984708,17.173991451041,14.3205114663249,12.5735533033509,5.87586661218575,6.41950897413704,12.98865397587,12.9292428934718,14.50224274263,14.726515337733,14.5565806693068,12.2392458124565,10.7486023953999,0.621198160548089,0.765386900199311,1,1,1,0.999967802990051,0.998306276607307,0.970976554260314,43.05632525,-89.53194975,2016,"WIH1",9
"LH195/LH82","MOH2_2015",14.85,731.12121286656,0,1.5,172.5,65,73,70.5,3.91483872167526,3.53454542160034,2.89167602876837,5.44662396781396,2.50588237538057,1.11372550016914,5.06858646461217,0.980448185896673,4.0111195383597,121.360000371933,38.8799996376038,35.2317639782148,173.692939155242,5.01176475076114,10.0235295015223,148.922352524365,6.48705886392032,124.344705689151,19.0870114757169,18.1253494782881,17.1671785847115,21.5962912871016,16.8894541123334,20.3451615751179,18.3289543491586,19.9060889353605,16.9549438623142,18.7561290033402,18.2472727515481,23.8732290384998,29.0283650683656,30.5917647866642,31.9324831869088,30.2728559915889,28.7322074708484,28.3406261827733,6.1525806919221,8.05909102613276,15.301299728071,17.8011435243455,21.9470590703628,21.3926142773597,20.1702312736422,17.4051933128293,17.2094118925381,7.28819699270824,7.58478922996184,12.0589106387454,15.5177509064803,18.2694119285135,18.6625487321343,17.2518738973888,15.2135918237946,14.9707890115806,0.755541469850298,0.814935085835395,1,1,1,1,1,1,38.89807917,-92.2079,2015,"MOH2",6
"PHN11_PHW65_0323/LH195","GAH2_2018",14.3666666666667,747.42555916288,0,2,227,93.6666666666667,56,56.6666666666667,4.84967745888618,0.472857134682792,6.38984283527144,2.50728712962131,2.62500000283832,3.79519841145901,2.49966845428401,2.8287857288406,3.72412446731796,150.340001225471,3.30999994277954,84.9085696467331,76.9578574214663,5.38785717317036,33.8478571346828,66.1414286494255,15.0642858062472,115.447858486857,20.4955881180302,21.8851153509957,20.3329850251172,19.1599877182245,23.5162671634129,19.7079079832349,20.0248900302085,19.4201906385876,16.0079359810473,23.574838699833,25.8042855943952,25.0982466928002,29.4338754995983,32.5767859504336,32.3044644802336,33.9553133770799,34.1288569904509,31.9958754816363,8.78774203408149,10.5771427835737,11.2078081937334,18.18961495413,18.4690478188651,20.5788887871636,21.2528475332136,21.0849286215646,21.0162903284697,9.71754329526851,11.3392147010659,11.2342556626861,15.8911321098361,17.5337695363242,18.4416766336986,19.3188239485151,19.4729093337791,18.4928476713494,0.993778801184096,1,1,1,1,1,1,1,33.71560925,-83.30894675,2018,"GAH2",19
"F42/OH43","ILH1_2019",19.45,785.82658530816,0,0,245.5,106.5,62,60.5,3.92290326087706,5.48166660467784,1.00366755026978,4.24469195298614,0.864761891819182,1.28937734611451,1.22741108088123,2.86464707421608,2.11607064787419,121.610001087189,32.889999628067,10.0178568235465,147.038572290114,1.34571427958352,11.7742857251848,45.424286284617,20.7057140384402,64.4999996210848,18.8014538057389,19.6532208124797,22.6739207193184,19.8427488119022,20.6112506503151,20.0231267023568,19.2803285422626,15.593443452501,14.9705618824278,19.7877418764176,27.4949998855591,27.6677106167,28.391751748966,31.9042863845825,30.8675330402875,28.5386960574539,27.7513351862122,26.642996194359,8.82258073745235,16.1166664759318,15.7380163212624,17.4414067467824,20.6435711043222,19.8174946769835,16.7183759585253,16.7475935139624,14.3837349186112,8.3928973982344,14.0110710173232,13.9335870022067,15.0880410930982,18.2842317301039,17.4039330210807,14.7898098558346,14.4511626176183,13.1086534994412,0.871382484238269,1,1,1,1,1,1,0.979387754708731,40.0587105,-88.2298385,2019,"ILH1",28
"F42/MO17","KSH1_2016",12.6,795.48047456256,0,1,170,60,91,91,0.381562503054738,5.59374988079071,9.0311369591709,3.98190999396102,0,0.897724768782806,5.01142138710802,3.32242425282796,5.67007326271352,12.2100000977516,44.7499990463257,140.950907804749,148.509091756561,0,8.37409110773693,139.43863695589,19.9345455169678,175.772271144119,18.4331542551517,14.0458284318447,18.3461373797249,20.8844651238299,22.7032874280756,20.5944180136979,18.3498667163808,18.1537938724865,17.325101912546,19.1512499600649,21.7012498378754,22.3390124406673,27.1937706264094,36.3127268877896,35.1754003625928,32.0107843193833,33.8563335245306,30.7689589111686,2.13062504353002,11.4649999141693,9.56823857872411,14.2621367966756,21.5872724706476,22.0435392319554,20.7806130140041,22.7113486636769,19.4913931130664,6.31585730010902,9.66729101728267,9.62689037894436,13.3541884288908,19.5659910681005,19.143975364632,18.068246454854,19.1205473197881,17.0374461461811,0.741573662447211,1,0.9212797776386,0.98604226771574,0.991287871402522,0.998977630941292,0.993550001780192,1,39.14480675,-96.62898225,2016,"KSH1",23
"PHB47/PHZ51","COH1_2017",22.0666666666667,646.91784548096,0.75,6.58333333333333,231.166666666667,94.1666666666667,70.5833333333333,70,3.39312494290061,0,0.00170868351345971,0.360843908083864,0.891428553868854,3.56038209699924,1.42287894970366,1.56567067457265,1.77087045139264,108.57999817282,0,0.029047619728815,12.2947617719571,1.60047616277422,43.7852383255959,56.4828571748166,21.0252381148083,53.2028570139692,22.2680299282074,25.656948362078,25.993106298919,24.2875628049184,21.2698285844591,19.3765266793928,19.6563178718538,15.9259101156787,11.9913693493718,20.3862498551607,26.2785715375628,29.0099024905478,30.9575008483351,32.8439676496718,29.2459773876014,27.8707551629923,24.4981203104176,17.6400496374322,4.67625003145076,9.95571436200823,11.4416630470283,13.3349225420512,15.6419047401065,14.2894836037956,11.5599296846894,8.65086998417367,2.50572452632776,7.38781388850004,11.2215251258146,12.9782738928515,14.5313666366823,16.2303242626942,14.1158650824494,12.5801561869845,10.4056817622244,6.00700011612576,0.85979910066817,1,1,1,1,0.978368119236658,0.88222033244958,0.65364973214317,40.64850025,-104.9997825,2017,"COH1",10
"WF9/H95","GAH2_2017",15.85,747.85462090752,21,2,225,107.5,55,53.5,5.21580650729518,2.5900000504085,0.877047008250183,6.97642455518673,36.6657152743567,11.6899047257408,2.7666341943209,6.71771433921087,5.23728113098445,161.690001726151,18.1300003528595,10.9880953289214,219.498574256897,69.630001999083,116.642856779553,77.5566674754733,33.5885716960544,162.355715060518,18.5937584292504,20.9798694338117,21.9819358919917,18.5456761912278,14.3399090085711,17.7663424007476,19.7852386843795,18.8635498507493,17.5761632626324,25.9351613444667,24.1757144927979,30.4733941834677,29.3125237180294,29.5290477389381,29.7298041853324,32.7260150193597,32.1051154233971,30.7678495222522,12.1722579925291,9.93857138497489,16.1532482752429,18.0635315609615,20.4347616377331,19.5111429658516,21.2099278742435,20.8635237298044,19.9554377788772,11.9095461609865,10.3853811467122,15.4565539701251,15.7524985099092,16.9819046883356,16.6341283702326,18.9016913140486,18.4715566451785,17.4124163797098,0.999631334559709,0.985714284741149,1,1,1,1,1,1,33.727145,-83.29821525,2017,"GAH2",15
"B14A/H95","GAH2_2018",13.9,798.69843764736,0.5,2,245,125.5,54.5,54.5,4.84967745888618,0.472857134682792,6.38984283527144,2.50728712962131,2.62500000283832,3.79519841145901,2.49966845428401,2.8287857288406,3.72412446731796,150.340001225471,3.30999994277954,84.9085696467331,76.9578574214663,5.38785717317036,33.8478571346828,66.1414286494255,15.0642858062472,115.447858486857,20.4955881180302,21.8851153509957,20.3329850251172,19.1599877182245,23.5162671634129,19.7079079832349,20.0248900302085,19.4201906385876,16.0079359810473,23.574838699833,25.8042855943952,25.0982466928002,29.4338754995983,32.5767859504336,32.3044644802336,33.9553133770799,34.1288569904509,31.9958754816363,8.78774203408149,10.5771427835737,11.2078081937334,18.18961495413,18.4690478188651,20.5788887871636,21.2528475332136,21.0849286215646,21.0162903284697,9.71754329526851,11.3392147010659,11.2342556626861,15.8911321098361,17.5337695363242,18.4416766336986,19.3188239485151,19.4729093337791,18.4928476713494,0.993778801184096,1,1,1,1,1,1,1,33.71560925,-83.30894675,2018,"GAH2",21
"PHW52/PHN82","MIH1_2020",26.4,694.43643369984,0,13.5,225.25,103,64,62.5,4.98483870923519,2.44714290755136,2.78018427009266,2.64718347009905,5.50687503814697,1.47688446110397,2.68871709191529,6.006552647497,2.65185956958561,154.529999986291,17.1300003528595,30.4349994659424,89.0756237506866,6.05375003814697,16.1737499088049,112.214375276119,49.723750218749,79.8756258003414,20.4058846196821,19.2874285834176,24.3268306442503,21.0696464608904,18.4752662777901,19.4080278884281,18.0526796650652,13.1805551271503,11.863256798973,17.7548387435175,24.1285716465541,28.1873650077177,29.2573483428402,30.4718749523163,29.1245189395818,27.1972088196306,23.6594714909683,18.5364556646876,5.910322619542,13.1857141767229,13.3644935122433,15.8775388488027,17.5762503743172,17.4043921524828,14.2199518023274,12.0943050066264,6.60396104622783,6.8868715678645,11.6421850150292,13.333055631482,14.8654457194695,16.0410496696027,15.3373797335684,13.2580116996543,11.1781078521307,7.34910041504178,0.705645170045613,0.993469381818966,1,1,1,0.99098153775779,0.929873564470905,0.775463757102006,42.7085775,-84.4705825,2020,"MIH1",22
"W10005_0107/PHB47","IAH4_2017",17.9,742.06228735488,0,2,207,90,66.5,65,3.05419361206793,4.63857133047921,5.65428284440315,2.35614602206887,0.14500000260093,0.823262633699359,3.0299399841441,2.50648539721385,3.02203274721158,94.6800019741058,32.4699993133545,92.5500001907349,79.8100001811981,0.29000000520186,7.93136371265758,110.043181820349,17.6581818705255,91.7922727492723,19.6043462753296,22.3785518918719,18.8162880805234,21.4694011437152,22.4233230460774,21.2695237410189,19.151369503563,15.9420575880557,15.341385783443,17.8393548227126,25.2142854418073,21.7675578492375,28.8834045222006,30.8898489258506,30.9933841088806,28.3060990673118,26.2662246385522,25.9343880588008,4.95258065529408,10.1399999346052,10.2470841328658,15.0215020746586,17.4712879585497,18.0760807755018,15.8066246452854,13.8702660153955,12.5135465144736,6.57524394811711,10.823012742074,9.64996062135486,14.3656457039619,16.2281010402398,16.5739815495123,14.3659785216558,12.5754656563723,12.0621406847053,0.727396317478698,1,0.91008219867215,1,1,1,1,0.9871688305106,41.99455432,-93.69030947,2017,"IAH4",16
"PHW52/PHN82","WIH1_2016",24.925,813.50106783744,0,2.5,241,118.25,74.25,74,2.07612901829904,1.94750002026558,4.43029129058702,4.06837717818273,0.606590926647186,8.20447110085448,6.520888551421,7.2858018260261,4.4131911117893,64.3599995672703,23.370000243187,50.6681830666282,153.97863580422,1.01772730458866,87.4172730174932,222.460452949459,58.9559095664458,134.926818408749,19.9280546249882,20.9108026027679,19.5354633918175,20.656900418312,18.9729677330364,19.7636050157311,17.5087671369867,15.2137091671578,12.2388305592514,16.7025806211656,17.5758331219355,27.0818272779223,26.4913085721608,27.2215908223932,28.3583387540392,27.670006898165,25.1458900986296,22.9867464155046,3.3274193627219,4.99083332717419,14.0472380898586,14.4742379762581,17.5863633372567,16.7186735984708,17.173991451041,14.3205114663249,12.5735533033509,5.87586661218575,6.41950897413704,12.98865397587,12.9292428934718,14.50224274263,14.726515337733,14.5565806693068,12.2392458124565,10.7486023953999,0.621198160548089,0.765386900199311,1,1,1,0.999967802990051,0.998306276607307,0.970976554260314,43.05632525,-89.53194975,2016,"WIH1",23
"PHG80/PHZ51","NEH4_2017",13.65,814.78825307136,6.5,3,193,59.5,65,64,4.59032254834329,9.02400010824204,0.479867887087711,3.81196387431756,0.538484847906864,1.68492423765587,2.26785004737447,4.65714278971994,3.86350145999521,142.299998998642,90.2400010824204,5.1100001335144,117.465453971516,1.61545454372059,15.1345454129306,79.631816983223,32.5999995280396,117.425454340198,19.4391373357465,17.2153170108795,24.1724838998111,20.9591997537085,19.5087172190348,19.2150816303311,18.9073912886805,17.6974393903435,15.3998570417962,20.6222579863764,19.5259998321533,28.5942012750084,30.0674228663154,31.2254544460412,32.427121184089,28.6164972680056,28.4793340540552,26.8324867737025,7.51935482409693,9.5090000629425,13.5708453749115,16.7542414705589,19.4418183529016,20.4097727645527,17.1637547198432,15.7475164269472,13.7100762172769,8.50655754019973,8.45038905221992,13.6268597566258,15.5881735310777,17.3431474848323,18.3684917818816,14.9784288099449,14.344579744287,12.8768287854953,0.797626728973081,0.881249991485051,1,1,1,1,1,0.994264068992333,41.162,-96.409,2017,"NEH4",12
"LH195/PHN37","OHH1_2016",19.3,743.99306520576,0,1,274,122,65,64,4.32806446475368,1.77600002288818,3.91514520817277,2.58074065911205,3.89075762575323,4.1704949600528,5.07906928910772,3.9577419347548,3.61459481407063,134.169998407364,8.88000011444092,44.703636136922,85.9177285974676,9.33045467463407,39.9481819326227,160.185453747484,27.6977266587994,110.118636226112,18.3437643974058,22.2428304672241,20.7314695601022,20.3598251803728,19.1523341554584,18.8282464220066,16.7204849062197,17.9873095465335,14.717978926255,19.6358064528435,29.6320003509521,26.5695358893096,28.5926358759461,29.5910605517301,30.6928383605649,29.2168918167121,28.2718868666116,26.3058832172308,8.12096774674231,16.8959997177124,14.973912901117,16.7052856168403,18.3031819083474,19.7444342603587,18.9160148979259,15.4450083848343,13.402624611054,8.11765705231608,15.3272200928741,13.170280569172,14.8167815407942,15.9685705423992,17.2330323566172,16.1171316077875,14.2150247381021,12.5845870964483,0.859331788177589,1,1,1,1,1,0.999172077691259,0.989049277132183,39.860924,-83.6755995,2016,"OHH1",7
"PHP02/PHB47","NCH1_2015",17,731.12121286656,0,0,219,108,65,64,3.01406249962747,9.69285692487444,3.04330832410036,7.00027835031834,0,3.41134798604678,2.88671641131125,10.3153333224502,6.56176467005171,96.4499999880791,67.8499984741211,47.4647058125804,233.853526101393,0,30.1217642391429,80.4405882078059,53.9476469544803,203.414704771603,18.5664188563824,18.5514960970197,20.3873328310438,17.1836904295842,24.3925100214341,21.0362960372875,20.3018930406527,17.2717840606091,15.5850313791061,22.3831250071526,24.9499999455043,23.1803462918337,27.4024498932643,31.8211766411276,31.7674348182928,33.3084592700098,33.2296859142827,31.1603984543223,8.59218750149012,12.5099998201643,10.485350050131,18.4028683148743,19.9205883250517,21.4626141077553,22.3400113714156,22.6128236359241,21.9246869403904,9.28512769721026,11.4677352876307,10.1580144688938,14.9923900224101,17.8708824830897,18.6065247653655,19.7182694534911,19.8442286940319,18.5353187927943,0.955334819055029,1,0.995809597891475,1,1,1,1,1,35.29657708,-77.5664625,2015,"NCH1",10
"PHW52/PHM49","MNH1_2016",25.15,731.12121286656,0,2,229,110,73.5,70.5,2.89322576407463,0.170000008174351,5.03042527209908,6.12170522401334,6.43858322699865,6.21095447112214,8.17923871751135,7.61717088871532,9.39474284643768,89.6899986863136,1.19000005722046,67.7949996709824,212.853000384569,13.6799997210503,65.1149991810322,295.599999034405,62.2075004458427,287.315494990349,17.8967360373466,26.286114011492,18.122651996026,20.2994832360595,15.8094130674998,17.8757813947851,16.9356863757804,15.2931511149142,12.1500887665185,17.5148386032351,25.4542857578823,24.5326991112838,27.6333701421214,28.1445000648499,28.7026912923293,27.1588718316529,24.8505404014058,22.530326319715,6.33838710765685,9.82428567750113,13.6815540208608,15.8141053471531,17.8242501338323,18.4263501505418,16.9297657858623,13.571238894951,11.5045660662643,6.87113486692201,10.9020425096258,11.6566452042554,13.9836924770311,15.0551188632125,15.6807639131871,14.2208678743316,11.8615305728452,10.2698260241427,0.73452764457684,1,1,1,1,0.999952476900843,0.987298810035877,0.93609264544991,44.06646925,-93.533648,2016,"MNH1",32
"B73/PHN82","MOH1_2_2018",18.1,731.12121286656,0,2,218.333333333333,100.666666666667,54,51.3333333333333,4.41903226221761,0.120000000510897,6.56660791995818,4.99591372633306,0,0.865952385796441,4.86790862322567,7.31814540619296,3.6292411527306,136.990000128746,0.840000003576279,71.6014266695295,150.62857072694,0,7.79357147216797,145.615713886518,39.8592857306025,112.015713835268,18.3939577687171,18.4656530107771,20.1607480990468,20.7059322149744,19.8732600893293,21.9774913485088,18.0698285783682,17.4646894327232,16.3191407620449,19.5254839005009,22.7671429770333,27.1655427269033,29.6093682189896,31.6271427018302,32.3242057770018,29.5162818466631,29.853759335174,27.0484316483804,7.99741943036356,14.1471428189959,16.4373297396251,18.8117261232584,21.7996424947466,20.7100794050429,19.443161886798,19.2115569948339,15.9181414362839,7.99298649242084,11.1555315984476,14.0053567257346,16.2635961901413,18.7133925982884,18.5171425910223,16.5469966366495,16.6004405943066,13.8667043099972,0.872361757925578,1,1,1,1,1,1,0.995607143802708,38.89555425,-92.20964575,2018,"MOH1",34
"B14A/OH43","ONH1_2015",34.3,691.862063232,0,0,242.5,130,88,88.5,1.60562500171363,2.29631582059358,1.4114260910993,1.97329795371468,0.512941168803795,3.43676916784781,2.64103540530206,1.79995381645545,2.36057120934647,51.3800000548363,43.6300005912781,20.3011770318536,73.5029410351725,0.818823519875022,40.7335294695461,103.936472787577,19.5847062696429,71.148825086215,18.0216946154833,20.4737019036946,23.3400709093662,22.6454399715782,20.2406537486058,18.0725441178749,18.6044729913646,14.2275523091565,12.219208949974,9.77156253159046,12.6347369143837,23.7578119012338,26.8344168593777,29.9094126084272,27.4692824860095,26.1197207542336,22.8220175470625,18.3525084633076,-0.327500017825514,2.04526315237346,11.0134760611429,13.3191988703222,17.4331371830959,16.5032930170151,14.0677575161805,11.6957219533643,7.01371468782571,2.85121172458945,4.201400589021,10.6771310509359,12.7739998184956,15.7658975270033,14.1503260638498,12.635773860967,10.4824980569175,7.37915990096047,0.167098218209243,0.403345873929504,0.957007130525896,0.991950294097347,1,0.994472793880519,0.939113043318717,0.77236656111447,43.49741975,-80.44806025,2015,"ONH1",22
"PHG39/PHN82","WIH1_2019",22.25,689.93128538112,0,0,255,142.5,75,77,3.10419357784333,4.99090914292769,3.98920662549874,5.06363266413622,7.17410234304575,5.65778887364623,3.97949085463652,4.11797166752897,7.04355999802981,96.2300009131432,54.9000005722046,56.4653849074474,184.967692155104,7.65615360553448,56.9199983019095,170.604614062951,43.341538381118,211.846154779196,19.3280051139093,20.4798962853172,21.1458576062267,19.9408146892547,20.4834896967961,19.0017179792578,17.7048067848719,14.7075956148864,11.1326062354694,14.4303226009492,19.6027271964333,23.7118626418456,26.5439932262088,29.1737174987793,29.5182899630709,25.9977532118412,22.1012555477932,19.2220794107448,3.04419357449778,6.37545462088151,11.9064976497962,15.0265328184469,17.4678201919947,18.4264638023777,14.7831372601031,11.2484903147107,9.42963116005236,4.97487523770926,7.49736964439653,10.7580109567202,13.2666390890037,15.4222728670387,16.0334344717331,12.801516016577,10.1287512075045,8.73034007736801,0.520449311090505,0.882272728851863,0.994529142515775,0.999440504080004,1,0.998245341608072,0.929327890439505,0.792629622344668,43.060857,-89.494068,2019,"WIH1",24
"PHG39/PHN82","IAH1_2015",21,709.23906388992,0.5,9.5,208,136,65,64,1.56645163797563,2.21307695370454,8.40241855686024,1.32346369240836,0.084411761339973,2.29735939798791,2.93999255048908,2.37101190956701,2.73279376330065,48.5600007772446,28.770000398159,122.139999866486,43.5299997925758,0.168823522679946,22.8235286263859,100.118234865806,16.6700000342201,83.8129400085,20.4321490257017,18.8581149761493,14.6331772809511,22.3127675938035,19.1422725845786,22.2080652261871,19.8386258824345,18.3376315823456,15.0581957022198,16.087741913334,16.6453845684345,21.8469785316973,28.7334183023463,30.2685291065889,31.3074705248565,29.0510553070878,29.396362715275,24.6694635680625,1.83903228419442,4.86538466123434,13.1289285435553,16.8676896249547,20.0594113854801,18.0570519634322,16.3929613969702,15.4374991619954,11.1722985517151,5.44712973145307,6.09818857737345,10.4824096365253,14.9963247305916,17.1663926633043,16.728841860151,14.9692492703924,14.7713722092671,11.3064436073178,0.593087559179639,0.682994502258825,0.988452544600181,1,1,0.997626800819033,1,0.896934673983109,41.9980952,-93.69336973,2015,"IAH1",25
"PHP02/PHB47","MNH1_2015",15.75,742.70587997184,2.5,8,198.5,122,71,69.5,2.67645166525918,6.10285712991442,1.58721610445111,4.7077263256623,2.09382353109472,4.68577535931227,5.9350156688025,2.22326150676053,2.19878814463244,82.9700016230345,42.7199999094009,19.590000131551,155.007059007883,3.96529412269592,52.2323524741565,227.094708481256,20.9011769756017,67.401177584358,19.816934616335,15.8754692077637,21.6281845751118,20.6523619261065,17.2143456515144,21.1212332316686,17.7408483022691,14.5374503953005,12.0629753461599,17.4338709308255,22.6300002506801,27.2892179925706,28.4642367103754,28.3652941759895,28.0789971632116,26.1408952283773,24.7325950747879,17.9009570518097,4.56741930688581,13.7342856270926,14.30007362468,16.8971689663296,18.654117640327,16.1974599531415,14.7564351113732,13.5728072906729,6.63464769243789,6.28381609962703,10.8743797711898,13.2690560805916,14.8702380832727,15.6411451436446,14.3539204313244,12.9900637188381,12.4683668720892,7.55733067966644,0.72298386648366,1,1,1,1,0.97770300313998,0.878626049359361,0.7212296457923,44.07038575,-93.53519625,2015,"MNH1",11
"B14A/MO17","NYH3_2020",17.95,988.55825965056,0,7.5,245.5,132,67,67,4.4222579925291,0,1.37386568296554,3.20351506445815,6.16145822405815,3.57865722875929,2.24761977590812,1.33999586306569,2.27076882341055,137.089997768402,0,18.6900006383657,113.673124372959,12.197499781847,37.861250333488,87.7481253221631,17.0418749991804,68.5456251874566,20.9456095618586,21.7823342720668,21.5526742482692,20.638256507124,19.1814768413703,18.8769039277326,17.7563308502435,13.9394394653537,11.5316013952257,14.5922580053729,27.9772917191188,23.6094541075767,27.8984202440962,28.1795833905538,28.768293680928,26.516173468598,21.4748904446212,18.1299052705588,2.6447177418778,15.6826666156451,11.35088710046,15.5391201375773,16.4328127304713,17.5001345563116,14.5301081821732,10.5292143371087,6.89141605607189,5.00043499535027,14.0475345921311,10.7003564597798,14.1169770595808,14.4279289196063,15.1988637606132,13.0350936703975,9.60472782060815,7.3561018093545,0.471947005181681,1,0.969562211391627,0.995539409821372,1,0.989555913631894,0.903066166148159,0.764418635028781,42.73227475,-76.6513705,2020,"NYH3",19
"LH195/PHN37","DEH1_2017",21.675,713.74421220864,0.25,1.75,244.5,114.25,66,65.25,2.91718745790422,6.20142868586949,3.00780289028715,3.51798387630548,1.21142852117145,1.63275129076034,5.21425936785246,11.3193468755605,4.88273070798553,93.349998652935,43.4100008010864,45.3457148869832,126.779048942384,1.26857137680054,15.4833330313365,157.85333279201,69.2480949220203,151.3147630578,17.0564796179533,17.7322864532471,20.7109648054357,19.5738604252989,19.1555669421241,20.8859280858721,18.2123717552112,18.1575605574108,16.5860739368814,20.2662499845028,24.6614287240165,21.7224504345482,26.8229896455589,30.3507143656413,30.3114816221611,30.695552993145,28.4309092143225,27.2970235560896,9.32593758031726,14.1957142693656,10.687522006195,16.7585521273381,19.9063490004767,19.8815078785811,21.2169032219805,18.721444546014,17.9144449122429,8.6904799528833,12.0840231421066,9.78793426930988,14.1243186804428,17.1548256791078,17.1405073545012,17.9479055635566,15.6354630937149,14.7461382337137,0.907287955683257,1,0.959736116003801,1,1,1,1,1,38.67025825,-75.4333645,2017,"DEH1",8
"F42/H95","DEH1_2020",21.8375,718.4102586816,0.625,3.125,233.125,119,65.125,63.75,3.88483868875811,2.91874992847443,0.484801505503061,3.71268255549857,3.96392849513463,10.5487894544762,3.68050884933542,4.08975176026626,5.319973187453,120.429999351501,23.3499994277954,5.74999997019768,113.1935703797,6.56571415492467,94.9292836615017,102.593572867768,23.166428906577,164.612859283175,19.3438995884311,17.33862388134,21.2312624647651,20.3726220481303,20.8446989627112,18.1338016267807,16.8296419143509,15.5006431469301,15.1408180300907,17.434838879493,21.1624999046326,25.0214381114927,29.0102466521478,32.2544050670805,31.3041766938709,31.9504815386958,29.3682823985612,28.2151496441866,6.79290319402372,12.8525000810623,15.4018443361914,18.8679049092236,21.2860713232131,21.9305357119394,22.8433926389509,21.0652513572148,19.3078685858649,6.86665098039301,10.0448246591535,12.6407234275317,16.020283469814,18.7216176458005,18.6039745498917,19.328040061196,17.2231380052054,15.9100314441845,0.793629040417995,0.982098209006446,1,1,1,1,1,1,38.628981,-75.46566025,2020,"DEH1",20
"LH74/PHN82","ILH1_2015",11.6,736.9135464192,0,0,230,110,68,67,4.34343749051914,1.29615384340286,7.654899738758,5.34311294988612,3.67499995231628,2.46729163328807,4.64726805078788,0.712819956420433,1.9519079085119,138.989999696612,16.8499999642372,99.8675005473197,177.342500980943,7.34999990463257,22.2056246995926,144.025624632835,5.03937511332333,60.0618743356317,19.4076893031597,20.2182017839872,17.5801237771363,22.592317287411,17.3577569425106,20.1224286291334,18.7955131537028,20.3716592643233,16.8099873810686,15.693750217557,16.2761536378127,23.8148397458069,28.7742831748073,30.2824996709824,31.917013724645,28.6589959642683,28.4854071997461,27.0987701069283,2.91687501082197,4.60230773228865,13.9338979229276,16.2604470887104,20.4774998426437,20.4138195912043,17.7954354684494,15.771967322202,14.6267217462101,5.33980004312561,5.92163564241169,11.5310566581626,14.7484368961231,17.379999756813,18.1717816417615,15.315695861998,14.446488469174,13.3642133617155,0.599162963767802,0.63684064575604,1,1,1,1,1,0.998281250042575,40.05982425,-88.23397575,2015,"ILH1",20
"WF9/H95","MNH1_2015",18.55,740.131509504,15,4,248,132,78,77.5,2.67645166525918,6.10285712991442,1.58721610445111,4.7077263256623,2.09382353109472,4.68577535931227,5.9350156688025,2.22326150676053,2.19878814463244,82.9700016230345,42.7199999094009,19.590000131551,155.007059007883,3.96529412269592,52.2323524741565,227.094708481256,20.9011769756017,67.401177584358,19.816934616335,15.8754692077637,21.6281845751118,20.6523619261065,17.2143456515144,21.1212332316686,17.7408483022691,14.5374503953005,12.0629753461599,17.4338709308255,22.6300002506801,27.2892179925706,28.4642367103754,28.3652941759895,28.0789971632116,26.1408952283773,24.7325950747879,17.9009570518097,4.56741930688581,13.7342856270926,14.30007362468,16.8971689663296,18.654117640327,16.1974599531415,14.7564351113732,13.5728072906729,6.63464769243789,6.28381609962703,10.8743797711898,13.2690560805916,14.8702380832727,15.6411451436446,14.3539204313244,12.9900637188381,12.4683668720892,7.55733067966644,0.72298386648366,1,1,1,1,0.97770300313998,0.878626049359361,0.7212296457923,44.07038575,-93.53519625,2015,"MNH1",16
"PHN11_PHG47_0251/PHB47","NYH3_2015",17.4,731.12121286656,0,1,234.5,110,71.5,72.5,4.26838707539343,0,1.23480362862861,3.31548590496468,3.74470586428309,3.70874331928192,2.03473858875296,2.09190753286542,2.16016066343177,132.319999337196,0,17.669999435544,111.464706651428,9.84352939345819,38.4235294566435,75.3511776310556,21.4923532237025,65.3723531067371,20.9588571671517,21.7616018295288,22.010031667843,20.4765439063008,19.3750716377707,18.8480084862939,18.0995458235427,14.2586651794525,12.1716549346147,15.2151612850928,28.4139999389648,23.9726607996166,27.9485215330969,28.2241176156437,29.0064544300345,26.8861269088758,22.6542903882269,19.0203909387172,3.20645156502724,16.0079999923706,11.6223586733296,15.6103262901363,16.7502940963296,17.7263369351147,14.8880444255661,11.6083206558939,7.35658823269703,5.34962666660979,14.3873497094372,10.9577344850549,14.1718313559719,14.6193748893675,15.4121399843839,13.3167035418842,10.3456969793581,7.70771127893227,0.504331792142534,1,0.972673749990107,0.996219796126396,1,0.995345527139322,0.95775528025916,0.812032548066487,42.7233625,-76.6555945,2015,"NYH3",10
"B14A/MO17","ARH2_2018",11.48,731.12121286656,0,2,160.5,80.5,71,66.5,4.52312493696809,5.87777773539225,3.20221045546513,3.22538419759111,0.461428574153355,5.07039669960264,1.70725153730848,1.54697617831684,1.91550691130524,144.739997982979,52.8999996185303,46.3228566646576,103.499284437725,0.461428574153355,45.6335702964238,42.6871420655932,7.34642852629934,59.3807142504624,17.754108697176,19.645527097914,19.5209714731691,20.0568442813419,23.807372706277,19.9782345332797,19.1297214036176,18.2548979571076,18.0559728640016,19.6187500059605,21.9200000762939,22.773456222744,28.907182961616,31.9800004959106,30.9839679929945,32.8413090722368,33.5659560339791,31.9039170577229,8.73406261950731,10.3477777904934,11.2877129581977,17.8543030688035,18.7064290046692,19.7554763460916,22.4826605422564,23.260513297879,21.2522349467475,8.30560135863556,9.42321555433479,10.2210790341996,15.520093271009,17.3523251398544,17.3798448246148,19.6186100549221,20.2782541977247,18.5368977813659,0.857433027720877,1,0.994106716733556,0.995975764430299,1,1,1,1,35.674241,-90.0749725,2018,"ARH2",20
"B14A/MO17","MNH1_2016",24.7,731.12121286656,0,2,229,110,69.5,67.5,2.89322576407463,0.170000008174351,5.03042527209908,6.12170522401334,6.43858322699865,6.21095447112214,8.17923871751135,7.61717088871532,9.39474284643768,89.6899986863136,1.19000005722046,67.7949996709824,212.853000384569,13.6799997210503,65.1149991810322,295.599999034405,62.2075004458427,287.315494990349,17.8967360373466,26.286114011492,18.122651996026,20.2994832360595,15.8094130674998,17.8757813947851,16.9356863757804,15.2931511149142,12.1500887665185,17.5148386032351,25.4542857578823,24.5326991112838,27.6333701421214,28.1445000648499,28.7026912923293,27.1588718316529,24.8505404014058,22.530326319715,6.33838710765685,9.82428567750113,13.6815540208608,15.8141053471531,17.8242501338323,18.4263501505418,16.9297657858623,13.571238894951,11.5045660662643,6.87113486692201,10.9020425096258,11.6566452042554,13.9836924770311,15.0551188632125,15.6807639131871,14.2208678743316,11.8615305728452,10.2698260241427,0.73452764457684,1,1,1,1,0.999952476900843,0.987298810035877,0.93609264544991,44.06646925,-93.533648,2016,"MNH1",21
"TX714/PHZ51","ONH2_2016",18.1,669.97991425536,0,2,262.5,132,75.5,73.5,1.4354838748132,1.74083332717419,1.46380271581139,3.02268752387098,0.150999999046326,1.134659085057,3.04644667291448,1.69350377760537,2.7651166654242,44.5000001192093,20.8899999260902,18.8460003852844,117.159000921249,0.150999999046326,12.2534999370575,101.044499832392,13.1614999294281,84.2689999639988,19.7256392663525,22.197474638621,21.6895404820885,21.7736589642688,18.986648273468,19.926783043688,16.6990616557451,15.6815267119186,12.907202899033,14.1074193523776,17.5808333555857,26.0075868502758,26.0489445105545,27.7809998512268,28.7928724592382,28.2480381953381,25.9224786042651,23.7534801354972,4.25741936266422,7.13166666030884,15.038288106176,14.1477788974648,17.7269997119904,17.3392411925576,18.2467210190433,15.9549466693556,14.1752601318334,5.1313461369791,6.98684124280148,12.8511639495985,12.6517199671275,14.842964971112,15.2602720524723,15.3178202053561,13.2653460605469,11.6762118863421,0.511244241010895,0.799851208925247,1,1,1,1,1,0.97582928193879,42.4530035,-81.88279875,2016,"ONH2",13
"B73/MO17","GAH2_2016",11.8,731.12121286656,0,2,275.5,231,54,52.5,1.48612904548645,0,7.31639282646724,2.07978285641698,1.71842106392509,1.26467104491435,2.43256313956764,4.61773679005472,3.23545616822656,46.0700004100799,0,60.5099992752075,55.9721047376332,3.43684212785018,10.1173683593148,67.3173680117256,23.1589471101761,100.284737706184,20.2118938661391,22.8758346557617,19.1011230160256,21.3403657539832,17.8587609090303,19.8381845135438,18.504799453929,15.9975397963273,17.296879826121,27.806774262459,30.5040000915527,32.0601081155143,34.2138268998867,34.9384203459087,34.8628289574071,34.6245511355174,33.3337369617663,32.8000339166958,13.8351613013975,16.5560001373291,19.3590630480755,20.3201968396974,22.9621053996839,21.7643420821742,22.0498494210966,22.2967018729762,20.1464993783425,13.3256687060676,15.6030228291554,17.7253179345392,18.7837254612071,20.3663812460935,19.8919083811276,19.9091667022268,19.7008010464687,18.4234032944344,1,1,1,1,1,1,1,1,33.717295,-83.3110275,2016,"GAH2",20
"WF9/H95","WIH2_2016",20.25,765.23162156544,0,40,287,148.5,66,65,2.18548383155177,6.56333343187968,3.44709445848626,4.12469378805335,6.70715902429638,6.1588801108116,5.9452931370305,1.65427351296643,4.75874244467604,67.7499987781048,39.3800005912781,44.4554541761225,149.271818908778,18.9127270525152,63.8631812875921,228.761364199898,17.1177273826166,143.160909706896,20.0716181416665,17.6468149820964,20.4812055398289,20.037160747392,21.0009714148261,18.7397162859105,16.3191195187663,14.9467084400859,10.3303758997605,18.3467741935484,27.6566664377848,25.5962674903388,27.3504729025317,29.4464014732476,29.1534918075751,26.7093807853849,24.2132901889739,20.3726808053147,4.8400000141513,15.2516667048136,12.4366041874811,15.2184635103349,16.1839015628352,17.8104753683421,15.2982692422456,12.0891496999401,9.53777032181792,6.76617685026666,13.679230162364,11.7742945200385,13.6256578041453,15.0809804038395,15.5695050800475,13.3573766462884,11.1053684800171,8.84996703908283,0.729688938724281,1,1,1,1,0.998061417783429,0.979766621647087,0.886131911688794,43.32649075,-89.33882925,2016,"WIH2",17
"TX777/LH195","NCH1_2019",14.925,783.25221484032,0,0.5,214.75,102.8125,61.25,60,2.19112902687442,0,0.107342030975845,4.77507323258167,0.466011907373156,4.53366071837289,6.24100047954245,2.370892843746,2.94129567493308,67.924999833107,0,1.3471428326198,143.414641141891,0.941785710198539,36.2692857469831,165.010000262942,13.542499933924,91.0282135435513,18.6945283182206,25.3012667338053,21.7738242823774,19.078931758161,22.5687620866866,20.7892764977046,19.2290380742896,18.9667955189335,16.7108737708237,25.6958062879501,28.7666660944621,32.2989134582725,30.0829447266695,33.3002377010527,33.8308033858027,32.7574178138121,32.0492754949193,30.7969182892695,13.3427419508657,12.1913332621257,19.0628058780323,18.6108973402873,20.5685118834178,21.2355805294854,21.0813141387738,19.9046463969613,19.7783264509544,12.1843668285043,13.3359738524393,17.6421634826888,16.3912677221001,18.883427458337,19.4407548098431,18.824781095651,17.9808021159142,17.3116109306789,1,1,1,1,1,1,1,1,35.67010175,-78.510504,2019,"NCH1",14
"PHG39/PHN82","INH1_2016",18.1,712.45702697472,0,7.5,257.5,121.5,64.5,64,3.03451614802883,1.38285718645368,3.10656882285516,3.96627025574623,3.5004544691606,6.75263637087562,3.45117264331826,3.19852811820579,3.02442279661389,94.0700005888939,9.68000030517578,31.2600005865097,138.875910509716,3.5004544691606,67.5263637087562,113.892727423798,21.665454398502,92.6259097240188,17.6332864915171,23.975117955889,20.6644157743121,20.1236557979185,19.9706746014682,19.3914948420091,18.1452765645095,15.9853371552059,14.6282023681807,18.7451610872822,26.3114280700684,27.8489884616612,28.128934173179,28.2027271444147,29.1450453844937,29.1677900132707,27.9556494110074,27.0773909331999,7.95032263571216,11.6942855290004,16.3181792235504,16.1060653765268,16.8522730957378,18.3487275210294,18.5888960498719,17.5028462595754,15.0384101224085,7.67710047192516,11.916890154154,14.2428837792982,14.4184555008251,14.6852160398404,15.7994255976279,15.9329094047117,14.9223815108922,13.5173469210224,0.85264976315784,1,1,1,1,1,1,0.996102814098973,40.4787595,-86.98982,2016,"INH1",26
"PHG39/PHN82","MIH1_2019",24.05,734.98276856832,0.5,19,262.5,133.75,70,68.5,3.72032261471594,6.18999987840652,7.08189690006846,2.96191688400863,8.70871785970835,0.913986012652204,1.81721631743115,4.46805386621966,4.01325090748622,115.330001056194,49.5199990272522,106.890000159924,93.8269234987406,16.8199998415433,10.8061538292811,84.3607687308238,63.3192304020318,120.886153043033,19.3198693644616,19.659396648407,18.5197910648149,21.0044455619677,17.0154062173305,20.0474262743285,16.9686392658752,12.0289328686849,10.8756886384412,17.6070966566763,21.672500371933,22.6907490026934,28.9340565953721,30.5653851582454,27.9492195425056,26.0065468645292,21.5026069405808,17.4653024474005,6.21032255887985,10.3187500834465,12.2184779380965,16.8660470129547,18.7433329973465,15.8530651856136,14.0059099463102,11.3257615513,7.16116346403536,6.87677389559506,9.31438263555815,10.3976173052964,15.104532747528,16.8626129686687,14.1939107322347,12.5855318269076,10.0060636582943,7.51165680343827,0.696382483441709,1,0.995173883167682,1,1,0.988904737193903,0.895422602144151,0.709438731296917,42.70789125,-84.4706665,2019,"MIH1",27
"B37/H95","NYH1_2018",21.8,731.12121286656,38,2,256.5,121.5,68,67.5,4.39451605658377,1.63714293071202,0.546464292223061,3.46126588411801,6.06226183686938,4.33806171800409,2.06754098122778,1.17745675837538,2.35952765513126,136.229997754097,11.4600005149841,7.34000012278557,113.544999405742,14.9578569275992,45.2728574531419,83.6371432329927,15.502142767821,71.2850001624652,21.1490579728157,19.519095829555,22.5001219716587,20.4901431167549,17.3790955884116,18.6235723626046,17.5443773478498,14.4230900554,11.1133368383172,16.4383870170962,24.3471430369786,24.4808438545453,28.4079325010235,28.4709526243664,28.8555878403899,26.2557771614117,21.2173011281591,17.5372396540769,4.18161290259131,13.1842857769557,11.788045655175,16.0297059635046,18.1516667661213,17.5342846802303,14.3751012744368,9.64963466711058,6.53251005449173,6.04617210207382,11.820705170323,11.1899352886346,14.5077669174471,15.3522370327055,15.2644147770615,12.8637381038892,9.17978873289114,7.08420156946025,0.564688940665552,0.946581643454882,0.988804239637421,0.998335459706735,1,0.984010820924294,0.898581806826226,0.740508559242307,42.72940418,-76.65161667,2018,"NYH1",24
"TX714/TX779","TXH1_2019",14.145,796.194862367385,0,0,186.5,52,70,68.5,1.71448274965173,0.072857141494751,3.656594302147,9.09543456371003,0.409285715648106,1.20767857134342,5.35585078307965,1.24614285230637,1.57441934339828,49.7199997399002,0.509999990463257,52.0078563094139,328.212138780526,0.592857139451163,9.66142857074738,146.447857277734,6.531428532941,47.5149996536119,15.4280570457722,20.5213113512312,18.768988344457,18.5703255916766,21.4234965869359,18.852815253394,20.148813605732,21.0307275136312,19.8408923398148,18.4500000723477,25.7642857687814,24.4325494379212,27.2758673216928,31.0900000163487,32.3786609854017,32.7243520483546,34.0447144826253,34.9820077594341,6.8262069143098,10.3500000408718,10.6796315414328,14.7876673923985,18.6585717882429,21.8507142748152,21.0244273483534,21.7961428233555,22.6049738996772,7.4578164675981,11.1589152046898,10.8511947929525,13.4663040330347,16.9119367665064,19.1141210544432,18.8476531392514,19.7780710195599,20.0141955883191,0.749667494461454,1,0.945308164445992,1,1,1,1,0.999698925164804,30.546318,-96.4329965,2019,"TXH1",6
"LH74/PHN82","WIH2_2016",19.1,804.4907712,0,2,243.5,124.5,64,64,2.18548383155177,6.56333343187968,3.44709445848626,4.12469378805335,6.70715902429638,6.1588801108116,5.9452931370305,1.65427351296643,4.75874244467604,67.7499987781048,39.3800005912781,44.4554541761225,149.271818908778,18.9127270525152,63.8631812875921,228.761364199898,17.1177273826166,143.160909706896,20.0716181416665,17.6468149820964,20.4812055398289,20.037160747392,21.0009714148261,18.7397162859105,16.3191195187663,14.9467084400859,10.3303758997605,18.3467741935484,27.6566664377848,25.5962674903388,27.3504729025317,29.4464014732476,29.1534918075751,26.7093807853849,24.2132901889739,20.3726808053147,4.8400000141513,15.2516667048136,12.4366041874811,15.2184635103349,16.1839015628352,17.8104753683421,15.2982692422456,12.0891496999401,9.53777032181792,6.76617685026666,13.679230162364,11.7742945200385,13.6256578041453,15.0809804038395,15.5695050800475,13.3573766462884,11.1053684800171,8.84996703908283,0.729688938724281,1,1,1,1,0.998061417783429,0.979766621647087,0.886131911688794,43.32649075,-89.33882925,2016,"WIH2",21
"TX714/PHZ51","WIH1_2017",18.7,758.15210277888,0,2,275,143.5,77,80,3.89483860231215,1.69400000274181,3.49156577965838,6.2519143171591,26.2978026361176,12.3515148027377,1.78262104808487,1.03121945111417,2.01941396652895,120.739996671677,16.9400000274181,60.7700004577637,238.208635676991,55.4840900247747,148.218177632852,77.271818082441,11.1354542618448,60.745454186743,17.960097635946,21.5698625564575,18.7158230082745,20.7331612703905,19.6944010185473,19.5872614094705,19.1692292014325,15.6915139185436,12.2199858597646,16.0345162114789,20.211999797821,20.2299808812544,26.7106026620157,27.0055303284616,27.1642803278836,24.808088372499,24.0364187930535,21.8450449974554,3.37838715026456,6.26000000238419,9.26856570777133,14.6662764981358,15.355757669969,16.2110985698122,13.1758958125295,11.5252111876034,9.50942962348574,5.50743496208047,7.7204112419547,8.66460263667967,13.1489127920754,13.4606804243422,13.904384596596,11.6785635653614,10.9014606457238,9.60826542273389,0.606900931675039,0.87353569992951,0.867893568108202,1,1,0.99822024159571,0.971647402783493,0.89569217047159,43.05668125,-89.5308135,2017,"WIH1",14
"LH198/PHZ51","DEH1_2016",19.75,748.176417216,0.25,1.25,267.75,132.25,78,77.5,2.70187503471971,7.43181821432981,3.8913443672194,3.01543568987816,5.35810598460111,2.45305554595861,7.02803129397506,2.62431810561455,3.19686020007931,86.4600011110306,81.7500003576279,66.3949995338917,101.616362200542,13.3345452438701,24.0222726382992,188.323178079995,15.0527268241752,98.5804540785876,18.330474331975,10.1000462011857,19.4097170760173,21.0293855949914,18.2505545182662,17.6465201137042,18.9446848277627,17.7865102970239,16.4444979187331,18.0900000035763,16.6009089730003,19.9020842077776,27.6764673780698,27.7968177506418,28.9030859032063,31.9137982464639,31.2181211240364,30.5716960682314,5.52968750568107,9.93090907010165,10.1128978635646,16.858989299231,18.0210605245648,19.7880051766983,21.9088104518459,21.6295759258848,20.1612733062994,6.82557737843557,7.64560586528393,8.60663778636783,14.4360322816611,14.984016447316,16.3761010057792,18.8554137385462,18.377489564845,17.3477874995971,0.726328134087713,0.729318175997053,0.99092985905268,1,1,1,1,1,38.6482025,-75.44606,2016,"DEH1",11
"PHG39/PHN82","MOH2_2015",15.1,731.12121286656,0,0,217.5,102.5,73.5,71.5,3.91483872167526,3.53454542160034,2.89167602876837,5.44662396781396,2.50588237538057,1.11372550016914,5.06858646461217,0.980448185896673,4.0111195383597,121.360000371933,38.8799996376038,35.2317639782148,173.692939155242,5.01176475076114,10.0235295015223,148.922352524365,6.48705886392032,124.344705689151,19.0870114757169,18.1253494782881,17.1671785847115,21.5962912871016,16.8894541123334,20.3451615751179,18.3289543491586,19.9060889353605,16.9549438623142,18.7561290033402,18.2472727515481,23.8732290384998,29.0283650683656,30.5917647866642,31.9324831869088,30.2728559915889,28.7322074708484,28.3406261827733,6.1525806919221,8.05909102613276,15.301299728071,17.8011435243455,21.9470590703628,21.3926142773597,20.1702312736422,17.4051933128293,17.2094118925381,7.28819699270824,7.58478922996184,12.0589106387454,15.5177509064803,18.2694119285135,18.6625487321343,17.2518738973888,15.2135918237946,14.9707890115806,0.755541469850298,0.814935085835395,1,1,1,1,1,1,38.89807917,-92.2079,2015,"MOH2",28
"PHW52/PHN82","TXH1-Early_2018",10.6,750.42899137536,0,2,220,77.5,72,70.5,2.44233329544465,0.878333330154419,4.91741256001052,2.91095925044977,1.11232141086033,5.98734766325737,3.09403364827696,2.44530950245403,2.57365667705529,73.2699988633394,5.26999998092651,55.2178573012352,113.372142612934,4.44928564344134,64.3635703495571,86.7278586477041,13.6771427350385,77.3578569974218,13.4988632996877,14.4915455182393,13.9248534838171,19.6618496048866,19.3908269973028,19.6418435904543,19.3841029346057,21.21373351415,18.0125832346727,19.6893333117167,26.9583333333333,25.6661437272963,26.5699684543749,30.2423808461144,29.1437299615549,31.9180543268285,33.2644761993771,34.5116055384576,6.35766667922338,15.039999961853,15.1375581486321,13.6905545931612,18.240714152654,16.4484343575537,20.6307032285911,20.5015473865327,23.9749401441184,7.6135705722337,13.4071560355566,12.8752807062941,12.7953613694417,16.3441020747261,15.0664778975255,18.2123343788981,18.7591973934278,20.4060627549583,0.821476193552925,1,0.991620594691275,0.994086429913331,1,1,1,0.999013392447937,30.546318,-96.4329965,2018,"TXH1-Early",24
"PHG29/PHG47","NYH2_2017",14.65,668.69272902144,0,2,242.5,110.5,68.5,68.5,4.98580635363056,2.59333333704207,3.45371500532324,5.89688957038573,0.94807019150048,3.20841810925976,2.37965572681416,2.69433302149013,3.3979729822606,154.559996962547,23.3400000333786,55.2357888974641,222.98894784325,1.76315789473684,41.8126309106224,117.779474443511,23.6378949959027,104.191053542652,18.9189640937313,18.2290218141344,21.6231091311596,19.2816943373654,21.2024165956598,18.916781590673,16.9740698632348,13.8804367561403,9.43949481778822,16.549032380504,19.8011112213135,22.3488199715029,25.6546189886677,27.1610527540508,25.3148987975818,23.2880304669988,24.2514658183566,18.2446084072576,5.23967740420372,10.2422222031487,10.5593938701109,15.2177031552253,15.8735966682434,14.8450433481215,11.5614248973978,11.1539849421825,7.35242725274508,6.26789810278045,8.57074783107705,9.79388514165009,12.8009794426063,13.6890467322532,12.4613839915646,10.5515557799113,10.876639235376,7.68889693415974,0.638917053418775,1,1,1,1,0.981507474576186,0.966916282342149,0.722284214210263,42.73248125,-76.65275025,2017,"NYH2",8
"PHG29/PHG47","ARH2_2017",15.9,731.12121286656,0,2,149.5,66,62,60,2.78999999538064,15.8328568594796,4.77601641275428,2.85394902786212,1.14250000317891,5.6518181520279,3.90594825537953,2.44303250003171,4.68862172454333,89.2799998521805,110.829998016357,61.6427268981934,88.9586376927116,3.00318182598461,52.4286360849034,105.244998791001,13.3377274599942,145.347273460843,17.1448929607868,19.0943690708705,20.93439510552,19.6567025811074,19.8440968123349,19.121190304708,18.8117640717936,19.6525999680226,17.5468659967271,23.6565626561642,24.5514286586217,25.3854145473792,28.9612549027647,32.4009845762542,30.8456569180344,31.842414729907,32.8362724886312,30.2008795304732,12.0734375119209,12.1614287240165,12.7110645043048,18.0477898004787,21.7873485449589,20.244100979121,21.8778156646752,22.2563917395356,20.2611290842207,10.8387815822115,11.2209416506324,11.8857993828006,15.6258454685709,19.0941665606065,17.5448789485777,18.8103181039231,19.2769367120475,17.252651155063,0.991674107100282,1,0.973153680072931,1,1,1,1,1,35.67418125,-90.0752695,2017,"ARH2",9
"B14A/MO17","MNH1_2018",17.326,687.871789006848,0,2,226.7,111,68,65.8,2.7938710316535,5.66428569384984,1.88138350844846,4.66962568011348,0.280777778890398,5.314848416261,5.50309775567603,4.90259317369494,1.74449034129874,86.6100019812584,39.6499998569489,19.6633331219355,156.026667060455,0.653333338101705,61.1846658706665,207.324669293563,42.5680015007655,52.6160005594293,18.6861717470231,18.6483766010829,23.2219031340296,20.2349813747085,21.884095509847,21.2045387879767,17.4384910052928,14.0280589904444,11.4776368163264,18.2458064786849,23.5114288330078,30.4956820770299,28.4029569689886,27.6728887134128,27.8828838203893,26.244249248564,23.4899370002514,17.2954946981698,6.62290317012418,13.3528570447649,16.1020055964721,17.0711162868408,16.2537779596117,15.7901464996916,14.8351560856314,12.4297014384783,6.3474709751724,7.12789266978397,11.1508268377611,15.4213678280709,14.9171949913789,14.1582048951777,14.1049189391121,13.0806653562654,11.2032413303021,7.12656051864639,0.79756912012254,1,1,1,1,0.978734696021031,0.910102722236681,0.699884152136365,44.07044721,-93.53494127,2018,"MNH1",22
"W10001_0022/PHB47","NEH3_2015",15.7,758.15210277888,0,0,229,110,62,62,3.23125005699694,0.918000030517578,0.565093977294324,1.28669219481814,3.19749999046326,1.39113635366613,0.258061220527439,1.47466718299048,0.155891338361218,103.400001823902,4.59000015258789,6.15000009536743,39.0474997758865,4.72000002861023,15.3024998903275,11.1799998283386,14.5287498533726,4.64812502264977,21.7912757396698,25.6944263458252,22.867254847038,21.8227166540337,15.2631763219833,20.5907900008288,20.0641284227863,16.2796896759308,13.5386177646183,24.2875001728535,32.6459999084473,30.5877144724061,32.6773132882273,28.9159377217293,29.872386563908,30.8070712705365,25.3903164518473,21.3201827481664,9.27874993439764,13.0079998016357,13.882863304929,15.7826582019676,17.055312037468,14.6271022883329,13.1831330674245,8.87540479026961,3.33401708582752,10.4625782483436,15.2833069114413,14.4546585187703,16.2200567809637,15.0938879027355,14.4964540010227,14.5302013640258,10.9003956474841,7.85174739566555,0.909587052451181,1,1,1,1,0.965712824155829,0.862507779461642,0.809539309558486,41.15824525,-101.9872958,2015,"NEH3",10
"B37/OH43","NCH1_2015",18.7,731.12121286656,0,0,240,113,65,64,3.01406249962747,9.69285692487444,3.04330832410036,7.00027835031834,0,3.41134798604678,2.88671641131125,10.3153333224502,6.56176467005171,96.4499999880791,67.8499984741211,47.4647058125804,233.853526101393,0,30.1217642391429,80.4405882078059,53.9476469544803,203.414704771603,18.5664188563824,18.5514960970197,20.3873328310438,17.1836904295842,24.3925100214341,21.0362960372875,20.3018930406527,17.2717840606091,15.5850313791061,22.3831250071526,24.9499999455043,23.1803462918337,27.4024498932643,31.8211766411276,31.7674348182928,33.3084592700098,33.2296859142827,31.1603984543223,8.59218750149012,12.5099998201643,10.485350050131,18.4028683148743,19.9205883250517,21.4626141077553,22.3400113714156,22.6128236359241,21.9246869403904,9.28512769721026,11.4677352876307,10.1580144688938,14.9923900224101,17.8708824830897,18.6065247653655,19.7182694534911,19.8442286940319,18.5353187927943,0.955334819055029,1,0.995809597891475,1,1,1,1,1,35.29657708,-77.5664625,2015,"NCH1",25
"B73/PHN82","MNH1_2020",22.3666666666667,751.07258399232,1.33333333333333,1.33333333333333,248.333333333333,135.166666666667,68,65.3333333333333,0.94300509867826,6.54607305060729,4.14035912753596,4.70748763912835,0.452236840599462,2.54351275702983,5.92890111667188,4.27061504377344,2.50108778318406,29.2331580590261,64.9010543540904,50.6168419938338,155.384736988105,0.714736844363965,28.6173683906856,219.299474794614,34.3447376494541,76.9310546087983,20.8351621174448,15.7339994616729,19.7482846720118,20.9752267105361,19.7857435502504,20.2008613357514,18.410630506817,15.8353278990905,12.8477663152691,15.7084550036336,18.5315520479183,25.8284042289769,28.495260522451,29.9249994378341,28.2199240924829,26.5218522585541,25.9398792816591,19.7406792160144,2.26123937792406,9.18620770652177,13.9924403556009,16.6828678833046,19.344474052128,16.9052831803402,15.0937764647406,14.3091431196277,8.59321732280189,5.3706805778496,7.95338430636633,12.4659637890829,14.7786587119029,16.6623657697956,14.7511618456846,13.2528818768791,13.0175246736152,8.66613029209796,0.62261399417653,0.838417993402521,1,1,1,0.988450437108742,0.930664219656181,0.78075899295554,44.06907839,-93.53263028,2020,"MNH1",35
"TX714/PHZ51","NEH3_2015",17.9,724.68528669696,0,2,229,110,65,64,3.23125005699694,0.918000030517578,0.565093977294324,1.28669219481814,3.19749999046326,1.39113635366613,0.258061220527439,1.47466718299048,0.155891338361218,103.400001823902,4.59000015258789,6.15000009536743,39.0474997758865,4.72000002861023,15.3024998903275,11.1799998283386,14.5287498533726,4.64812502264977,21.7912757396698,25.6944263458252,22.867254847038,21.8227166540337,15.2631763219833,20.5907900008288,20.0641284227863,16.2796896759308,13.5386177646183,24.2875001728535,32.6459999084473,30.5877144724061,32.6773132882273,28.9159377217293,29.872386563908,30.8070712705365,25.3903164518473,21.3201827481664,9.27874993439764,13.0079998016357,13.882863304929,15.7826582019676,17.055312037468,14.6271022883329,13.1831330674245,8.87540479026961,3.33401708582752,10.4625782483436,15.2833069114413,14.4546585187703,16.2200567809637,15.0938879027355,14.4964540010227,14.5302013640258,10.9003956474841,7.85174739566555,0.909587052451181,1,1,1,1,0.965712824155829,0.862507779461642,0.809539309558486,41.15824525,-101.9872958,2015,"NEH3",15
"PHG80/PHZ51","WIH1_2015",26.45,775.5291034368,0,0,289,170,65,64,4.73000005912036,9.05999978383382,2.43061068168386,6.19005986556151,3.24281251430511,1.73931090915814,2.56322206766969,2.5826045268506,2.06486223506671,151.360001891851,54.3599987030029,32.300625488162,198.088750079274,6.48562502861023,21.1143751442432,113.252501126379,35.4293755665421,62.4800001233816,19.3236754387617,22.1910498936971,23.8972514964953,19.0410510068734,21.6280432442824,20.7255365879108,16.0925579709474,13.722787601418,9.59556191513936,19.9571875482798,28.1500002543132,26.0532609907049,28.8593200589564,29.0738543669383,26.5105607723578,24.8273939882814,20.1808902607393,14.5154980836536,8.51718754309695,15.3049998283386,11.8280294384883,17.4878351835719,16.4801037510236,14.4961537795189,12.3150913731169,8.58194562556843,2.68044018258631,8.55835087322049,13.98301753897,11.81015597229,15.2618382755968,14.9558189846116,12.9875354191,11.6812346906955,8.628108427747,5.08755073101082,0.777276777234095,1,1,1,1,0.929186389078322,0.833919484023419,0.505939954463764,43.05511725,-89.528525,2015,"WIH1",13
"B14A/H95","IAH3_2015",18.2,713.10061959168,0,4,265,125,65,64,1.88812499120831,2.91357139178685,3.78481399490418,6.97192884345098,0,3.25750006437302,1.48738522759636,2.54144646929843,4.50744494696458,60.4199997186661,40.7899994850159,55.4399998188019,241.660000324249,0,32.5750006437302,50.3143747076392,24.6850003898144,138.775626681745,19.8017279356718,20.0399833406721,15.9141292010857,20.6828349141208,21.6913648645083,21.2442863583565,20.6378456393082,18.6830175797854,14.9219848873154,14.6418750584126,16.6814285005842,21.6371087993342,27.6137224668604,30.8788542747498,30.3035624980927,28.5962540049038,28.5165626687663,24.3338990757542,0.832500039599836,3.60071423649788,12.2454287241307,16.0517815224708,19.4736456473668,18.1100625455379,15.9931958270939,14.3037321656942,10.6490121472687,4.60513154837493,5.78749983119766,10.114657753447,14.1164012039241,17.1762499610583,16.2539166939567,14.5767076625307,13.9758338636144,10.8754278827313,0.501462055137381,0.634540812549542,0.981270752987184,1,1,1,0.968879462565695,0.933929792194543,41.97585629,-92.24291804,2015,"IAH3",22
"LH82/PHB47","DEH1_2015",17.7,731.12121286656,0,0,213,79,61,60,2.877187483944,6.84800000190735,1.65812227065002,2.89981113868033,0.533124998211861,6.39805544084973,4.54206526084818,4.66633341695581,5.69481861783612,92.069999486208,68.4800000190735,26.8631244525313,94.403749205172,0.778750002384186,57.5824989676476,115.858124211431,26.7362504601479,176.53937715292,18.0978914797306,17.2013893604279,20.1115188355204,21.0089776981854,21.5349248051643,19.2473051614232,17.7019111319721,15.0562807784194,15.1484673523134,16.8265626430511,19.2440000534058,20.7237695406926,27.6889034218542,31.5665628314018,31.8635417355431,32.09465687106,30.4336400264785,29.0939515059994,6.26593750482425,9.85899999141693,10.7453803031313,17.6787637613727,20.387500166893,21.3565970261892,22.772206074744,22.282508844421,20.5664716151453,6.52196032901766,8.41291476735724,9.22995774812798,14.8599372331721,17.9770314991474,18.5817073937474,19.3617069706047,18.3580744354498,16.8673674529789,0.750435272946821,0.870857151065554,0.962682183853112,1,1,1,1,1,38.62935675,-75.4656925,2015,"DEH1",8
"W10005_0107/PHB47","OHH1_2016",14.9,743.3494725888,0,6.5,240,107,65,64,4.32806446475368,1.77600002288818,3.91514520817277,2.58074065911205,3.89075762575323,4.1704949600528,5.07906928910772,3.9577419347548,3.61459481407063,134.169998407364,8.88000011444092,44.703636136922,85.9177285974676,9.33045467463407,39.9481819326227,160.185453747484,27.6977266587994,110.118636226112,18.3437643974058,22.2428304672241,20.7314695601022,20.3598251803728,19.1523341554584,18.8282464220066,16.7204849062197,17.9873095465335,14.717978926255,19.6358064528435,29.6320003509521,26.5695358893096,28.5926358759461,29.5910605517301,30.6928383605649,29.2168918167121,28.2718868666116,26.3058832172308,8.12096774674231,16.8959997177124,14.973912901117,16.7052856168403,18.3031819083474,19.7444342603587,18.9160148979259,15.4450083848343,13.402624611054,8.11765705231608,15.3272200928741,13.170280569172,14.8167815407942,15.9685705423992,17.2330323566172,16.1171316077875,14.2150247381021,12.5845870964483,0.859331788177589,1,1,1,1,1,0.999172077691259,0.989049277132183,39.860924,-83.6755995,2016,"OHH1",17
"PHG80/PHZ51","GAH2_2016",10.9,731.12121286656,0,2,275.5,236,52,50,1.48612904548645,0,7.31639282646724,2.07978285641698,1.71842106392509,1.26467104491435,2.43256313956764,4.61773679005472,3.23545616822656,46.0700004100799,0,60.5099992752075,55.9721047376332,3.43684212785018,10.1173683593148,67.3173680117256,23.1589471101761,100.284737706184,20.2118938661391,22.8758346557617,19.1011230160256,21.3403657539832,17.8587609090303,19.8381845135438,18.504799453929,15.9975397963273,17.296879826121,27.806774262459,30.5040000915527,32.0601081155143,34.2138268998867,34.9384203459087,34.8628289574071,34.6245511355174,33.3337369617663,32.8000339166958,13.8351613013975,16.5560001373291,19.3590630480755,20.3201968396974,22.9621053996839,21.7643420821742,22.0498494210966,22.2967018729762,20.1464993783425,13.3256687060676,15.6030228291554,17.7253179345392,18.7837254612071,20.3663812460935,19.8919083811276,19.9091667022268,19.7008010464687,18.4234032944344,1,1,1,1,1,1,1,1,33.717295,-83.3110275,2016,"GAH2",14
"B14A/MO17","ONH2_2016",22.6,672.5542847232,2,22.5,246.5,126.5,76,73,1.4354838748132,1.74083332717419,1.46380271581139,3.02268752387098,0.150999999046326,1.134659085057,3.04644667291448,1.69350377760537,2.7651166654242,44.5000001192093,20.8899999260902,18.8460003852844,117.159000921249,0.150999999046326,12.2534999370575,101.044499832392,13.1614999294281,84.2689999639988,19.7256392663525,22.197474638621,21.6895404820885,21.7736589642688,18.986648273468,19.926783043688,16.6990616557451,15.6815267119186,12.907202899033,14.1074193523776,17.5808333555857,26.0075868502758,26.0489445105545,27.7809998512268,28.7928724592382,28.2480381953381,25.9224786042651,23.7534801354972,4.25741936266422,7.13166666030884,15.038288106176,14.1477788974648,17.7269997119904,17.3392411925576,18.2467210190433,15.9549466693556,14.1752601318334,5.1313461369791,6.98684124280148,12.8511639495985,12.6517199671275,14.842964971112,15.2602720524723,15.3178202053561,13.2653460605469,11.6762118863421,0.511244241010895,0.799851208925247,1,1,1,1,1,0.97582928193879,42.4530035,-81.88279875,2016,"ONH2",23
"TX777/LH195","GAH1_2019",16.045,717.219612340224,3.5,4.5,185,97.5,59.5,59.5,4.2248276430985,1.98000000582801,1.90823678359521,2.10647248574171,0,0.0907142843518938,5.69186592379183,1.47342855930328,3.0456205472785,122.520001649857,17.8200000524521,22.3799997738429,72.0499995776585,0,0.725714274815151,156.552854708263,7.36714279651642,92.869284595762,16.4500470983571,17.4863393571642,17.4025938464352,20.9384505981452,22.5114740644182,21.8443094832557,17.6671443571744,19.7649144172668,19.7113921770486,21.2065516504748,22.5866669548882,26.8157474524398,29.5228407044518,35.0427381424677,35.7019644635064,32.622701984341,33.6281431470598,33.3689372225291,7.21482760176576,8.5955556233724,14.0449841602638,14.4754341124517,19.2165478297642,20.5846430063248,20.896611150629,21.7801428658622,21.253149004759,8.37062868121402,9.27422007508131,12.9164221771526,14.4004499916871,18.6772654256278,19.2831320721806,18.6339539837863,19.6355556785611,19.1804902073846,0.902167480218734,0.984365084814647,1,1,1,1,1,1,31.50582525,-83.55515025,2019,"GAH1",15
"B73/PHN82","WIH1_2019",22.8,700.22876725248,0,0,243.335,132.5,80,74.5,3.10419357784333,4.99090914292769,3.98920662549874,5.06363266413622,7.17410234304575,5.65778887364623,3.97949085463652,4.11797166752897,7.04355999802981,96.2300009131432,54.9000005722046,56.4653849074474,184.967692155104,7.65615360553448,56.9199983019095,170.604614062951,43.341538381118,211.846154779196,19.3280051139093,20.4798962853172,21.1458576062267,19.9408146892547,20.4834896967961,19.0017179792578,17.7048067848719,14.7075956148864,11.1326062354694,14.4303226009492,19.6027271964333,23.7118626418456,26.5439932262088,29.1737174987793,29.5182899630709,25.9977532118412,22.1012555477932,19.2220794107448,3.04419357449778,6.37545462088151,11.9064976497962,15.0265328184469,17.4678201919947,18.4264638023777,14.7831372601031,11.2484903147107,9.42963116005236,4.97487523770926,7.49736964439653,10.7580109567202,13.2666390890037,15.4222728670387,16.0334344717331,12.801516016577,10.1287512075045,8.73034007736801,0.520449311090505,0.882272728851863,0.994529142515775,0.999440504080004,1,0.998245341608072,0.929327890439505,0.792629622344668,43.060857,-89.494068,2019,"WIH1",36
"F42/OH43","MOH2_2015",15.7,731.12121286656,2.5,0.5,232.5,90,74,71.5,3.91483872167526,3.53454542160034,2.89167602876837,5.44662396781396,2.50588237538057,1.11372550016914,5.06858646461217,0.980448185896673,4.0111195383597,121.360000371933,38.8799996376038,35.2317639782148,173.692939155242,5.01176475076114,10.0235295015223,148.922352524365,6.48705886392032,124.344705689151,19.0870114757169,18.1253494782881,17.1671785847115,21.5962912871016,16.8894541123334,20.3451615751179,18.3289543491586,19.9060889353605,16.9549438623142,18.7561290033402,18.2472727515481,23.8732290384998,29.0283650683656,30.5917647866642,31.9324831869088,30.2728559915889,28.7322074708484,28.3406261827733,6.1525806919221,8.05909102613276,15.301299728071,17.8011435243455,21.9470590703628,21.3926142773597,20.1702312736422,17.4051933128293,17.2094118925381,7.28819699270824,7.58478922996184,12.0589106387454,15.5177509064803,18.2694119285135,18.6625487321343,17.2518738973888,15.2135918237946,14.9707890115806,0.755541469850298,0.814935085835395,1,1,1,1,1,1,38.89807917,-92.2079,2015,"MOH2",29
"PHN11_PHG47_0251/PHB47","IAH3_2017",16,728.54684239872,0,2,229,110,65,64,4.15375001356006,4.4766666730245,3.4047203572685,2.20734772714641,0.783636364069852,2.62827690366871,1.89268759309194,2.32887627154288,1.79425708641638,132.920000433922,67.1500000953674,54.0395462729714,78.3386354229667,1.5672727281397,28.0268186547539,71.8554548783736,19.050454611128,54.6954545270313,16.1449318900704,17.7512798945109,18.8930383212172,22.0798596418591,20.5492319916234,20.9938448555213,19.8185231453598,17.2291948925967,15.6432695544943,15.8431249856949,15.5066665013631,21.4265257838852,27.7149819965626,28.4552275339762,29.9007438281351,27.6545797965623,25.6472085203787,25.1376095450402,4.41906251013279,4.14133334358533,9.7822950630621,13.5652693310904,16.0590146888386,16.6123347960228,14.8096001989659,12.7460062737417,11.2819135157885,5.81888047108444,5.62230390959762,9.38713007160935,13.2881535043606,14.425618602213,15.384310503314,13.6587126105144,11.8979604849715,11.2922363413291,0.568604913274092,0.570380948412986,0.879734313174242,1,1,1,1,0.979205627165315,41.9758706,-92.24318881,2017,"IAH3",11
"PHW52/PHN82","NYH3_2017",22.45,715.03139744256,0,6,264.5,112,78,76,4.98580635363056,2.59333333704207,3.4402922444776,5.9245534070043,1.05166665712992,3.38114006522593,2.2324385401157,2.79862502887845,4.01837100812825,154.559996962547,23.3400000333786,54.1374994516373,222.242500424385,2.04999995231628,44.4449994266033,102.857500582933,24.5575002506375,123.662501238286,18.9189640937313,18.2290218141344,21.600702212488,19.423770573439,18.7574106454849,18.6598477415986,17.2884684616096,13.4743607759476,9.52887015240167,16.549032380504,19.8011112213135,22.3479983508587,25.7161786980239,25.8875002861023,25.2532692400964,23.4987706805266,24.2957499265671,19.1539193195681,5.23967740420372,10.2422222031487,10.5661832437504,15.2041484381282,15.9916667938232,14.888186783581,11.7096748409168,11.1405000209808,8.07706999143045,6.26789810278045,8.57074783107705,9.8009436942741,12.8252190591825,13.147223213623,12.447155484198,10.6753052079461,10.8600266816938,8.09342402838055,0.638917053418775,1,1,1,1,0.987943118304987,0.977741071156093,0.791930494543462,42.73339625,-76.652747,2017,"NYH3",25
"PHG39/PHN82","ILH1_2018",15.35,757.50851016192,0,2,229,93.5,59.5,57.5,4.93870967001684,7.67700002193451,2.58810625382629,5.60511757065286,0.281428575515747,3.4563491632068,4.20265659322352,1.00454338428115,2.18382485822507,153.099999770522,76.7700002193451,33.4678575992584,176.772143542767,0.281428575515747,32.7364281586238,135.704285430057,6.58642866568906,67.2342848969357,18.9181233375303,19.3164752960205,20.1027853053364,22.1202895707154,18.9159298624311,20.1629787846217,19.1198064922904,19.09856314132,16.2127272024682,15.9958065248305,18.503999710083,25.3262512285507,29.1945312656031,30.8553567613874,31.8374047082568,28.203585576956,28.8612423911387,26.4387764670699,3.61838711702055,7.57300008535385,14.9470090715762,16.7521197434433,20.4650004250663,20.0205478009723,17.1498215530873,16.7182278762058,13.9524853939102,5.62945699299873,7.5879362052237,12.6448673886302,15.1726399321935,17.6601785932268,17.94105006945,14.8288951872955,14.9738288636256,12.8582392781629,0.640783420648031,0.72660712982927,1,1,1,1,1,0.984431123105036,40.06300125,-88.2291765,2018,"ILH1",29
"F42/H95","ARH1_2018",22.3,536.820601806336,0,2,199,107,66.5,59.5,6.80749994516373,4.70999993596758,2.62777637512911,4.73591215777578,3.61916664668492,6.96017852632536,4.33043756926438,0.796285740818296,3.37467743449497,217.839998245239,32.9699995517731,35.4892859118325,145.294284343719,5.83142852783203,62.5142853089741,109.797857735838,4.00357156140464,104.615000469344,17.9970670938492,21.7022604261126,20.0594998235876,19.526801115197,21.5939762251718,17.9926481322637,18.0574776027005,19.3321502186003,18.3042435536187,21.0706250667572,24.3185710906982,24.0216893355052,29.4527985731761,31.7309522401719,30.7069242303334,32.5717108049104,33.2952144259498,31.8374196285476,10.2671874910593,12.0357142857143,12.7020508751037,18.6741208320572,19.9915478343055,20.6467757206115,22.9033521317947,23.2358570643834,21.2883410212082,9.22327753419032,11.0103677478877,11.2783232173313,16.1126744540351,17.8620654597657,17.6775747954964,19.7277038225499,20.1946927088828,18.5436880911809,0.945725440979004,1,1,1,1,1,1,1,34.729679,-90.7603455,2018,"ARH1",21
"B14A/H95","NCH1_2019",17.7,731.12121286656,0,2,229,110,65,64,2.19112902687442,0,0.107342030975845,4.77507323258167,0.466011907373156,4.53366071837289,6.24100047954245,2.370892843746,2.94129567493308,67.924999833107,0,1.3471428326198,143.414641141891,0.941785710198539,36.2692857469831,165.010000262942,13.542499933924,91.0282135435513,18.6945283182206,25.3012667338053,21.7738242823774,19.078931758161,22.5687620866866,20.7892764977046,19.2290380742896,18.9667955189335,16.7108737708237,25.6958062879501,28.7666660944621,32.2989134582725,30.0829447266695,33.3002377010527,33.8308033858027,32.7574178138121,32.0492754949193,30.7969182892695,13.3427419508657,12.1913332621257,19.0628058780323,18.6108973402873,20.5685118834178,21.2355805294854,21.0813141387738,19.9046463969613,19.7783264509544,12.1843668285043,13.3359738524393,17.6421634826888,16.3912677221001,18.883427458337,19.4407548098431,18.824781095651,17.9808021159142,17.3116109306789,1,1,1,1,1,1,1,1,35.67010175,-78.510504,2019,"NCH1",23
"PHN11_PHW65_0323/LH195","IAH1_2015",23.05,684.78254444544,1,0,267.5,135,65,64,1.56645163797563,2.21307695370454,8.40241855686024,1.32346369240836,0.084411761339973,2.29735939798791,2.93999255048908,2.37101190956701,2.73279376330065,48.5600007772446,28.770000398159,122.139999866486,43.5299997925758,0.168823522679946,22.8235286263859,100.118234865806,16.6700000342201,83.8129400085,20.4321490257017,18.8581149761493,14.6331772809511,22.3127675938035,19.1422725845786,22.2080652261871,19.8386258824345,18.3376315823456,15.0581957022198,16.087741913334,16.6453845684345,21.8469785316973,28.7334183023463,30.2685291065889,31.3074705248565,29.0510553070878,29.396362715275,24.6694635680625,1.83903228419442,4.86538466123434,13.1289285435553,16.8676896249547,20.0594113854801,18.0570519634322,16.3929613969702,15.4374991619954,11.1722985517151,5.44712973145307,6.09818857737345,10.4824096365253,14.9963247305916,17.1663926633043,16.728841860151,14.9692492703924,14.7713722092671,11.3064436073178,0.593087559179639,0.682994502258825,0.988452544600181,1,1,0.997626800819033,1,0.896934673983109,41.9980952,-93.69336973,2015,"IAH1",20
"LH74/PHN82","TXH1-Dry_2018",10.05,732.40839810048,0,2,219.5,72.5,69.5,70,2.44233329544465,0.878333330154419,4.91741256001052,2.91095925044977,1.11232141086033,5.98734766325737,3.09403364827696,2.44530950245403,2.57365667705529,73.2699988633394,5.26999998092651,55.2178573012352,113.372142612934,4.44928564344134,64.3635703495571,86.7278586477041,13.6771427350385,77.3578569974218,13.4988632996877,14.4915455182393,13.9248534838171,19.6618496048866,19.3908269973028,19.6418435904543,19.3841029346057,21.21373351415,18.0125832346727,19.6893333117167,26.9583333333333,25.6661437272963,26.5699684543749,30.2423808461144,29.1437299615549,31.9180543268285,33.2644761993771,34.5116055384576,6.35766667922338,15.039999961853,15.1375581486321,13.6905545931612,18.240714152654,16.4484343575537,20.6307032285911,20.5015473865327,23.9749401441184,7.6135705722337,13.4071560355566,12.8752807062941,12.7953613694417,16.3441020747261,15.0664778975255,18.2123343788981,18.7591973934278,20.4060627549583,0.821476193552925,1,0.991620594691275,0.994086429913331,1,1,1,0.999013392447937,30.546318,-96.4329965,2018,"TXH1-Dry",22
"W10005_0107/PHB47","GAH1_2016",14.35,770.38036250112,2,3,165,75,56.5,55,6.46625005081296,4.39500004053116,0.56642149156447,2.54962756812163,3.17469698010069,5.85994313642232,4.09696701425995,2.3309999964454,2.47626100694679,206.920001626015,35.1600003242493,6.21000005982139,86.0200002979148,9.52409094030207,52.4272723306309,105.673179734837,11.654999982227,76.7640912153504,15.956961274147,18.253856420517,20.331000534978,20.7402420911881,20.0106486840682,19.5430273528051,19.3819876920889,19.2695335214788,18.2145192224609,23.6268749833107,22.9824998378754,28.5613493699125,29.4983659035312,33.3707563804858,32.6271904538376,33.2502690735618,34.5149995457042,33.9492812618133,11.2974999733269,10.4700000882149,15.6474472778231,16.2846205025457,20.7828786156394,20.6126955145537,21.5692710707406,22.5180909243497,22.4046772791843,10.5397142233966,9.96244043830302,14.3648116302111,15.1131347489154,19.0295292381209,18.5685926456766,19.2666819522424,20.3439096349474,19.9941584099477,0.993928568703788,1,1,1,1,1,1,1,31.5079175,-83.55854775,2016,"GAH1",18
"F42/H95","WIH1_2019",22.5,721.46732361216,0,0,255,139.165,80,80,3.10419357784333,4.99090914292769,3.98920662549874,5.06363266413622,7.17410234304575,5.65778887364623,3.97949085463652,4.11797166752897,7.04355999802981,96.2300009131432,54.9000005722046,56.4653849074474,184.967692155104,7.65615360553448,56.9199983019095,170.604614062951,43.341538381118,211.846154779196,19.3280051139093,20.4798962853172,21.1458576062267,19.9408146892547,20.4834896967961,19.0017179792578,17.7048067848719,14.7075956148864,11.1326062354694,14.4303226009492,19.6027271964333,23.7118626418456,26.5439932262088,29.1737174987793,29.5182899630709,25.9977532118412,22.1012555477932,19.2220794107448,3.04419357449778,6.37545462088151,11.9064976497962,15.0265328184469,17.4678201919947,18.4264638023777,14.7831372601031,11.2484903147107,9.42963116005236,4.97487523770926,7.49736964439653,10.7580109567202,13.2666390890037,15.4222728670387,16.0334344717331,12.801516016577,10.1287512075045,8.73034007736801,0.520449311090505,0.882272728851863,0.994529142515775,0.999440504080004,1,0.998245341608072,0.929327890439505,0.792629622344668,43.060857,-89.494068,2019,"WIH1",22
"PHP02/PHB47","NYH2_2016",16.5,731.12121286656,5,2,184,94,70,69,2.03451613264699,1.03000000119209,1.88805842038864,0.867300395588696,1.14095236573901,2.3264502044364,3.37645110879505,4.28774657460297,3.20857245139568,63.0700001120567,12.3600000143051,22.4085715952374,34.4438095036007,2.62285709381103,25.5909522488004,116.656190026374,31.7580950827826,97.8257142560823,19.2124098193261,23.3558462460836,23.4055682219574,22.1788358644049,23.9445644560314,21.2536164940178,17.188970918256,16.172458164546,13.3590641317158,14.0493548300958,18.6874999205271,27.5085128267558,26.2363372785012,28.7807143075126,29.3169266424138,28.4163855529889,26.4450086476851,23.1529754740241,1.68677417501327,4.43999998768171,12.9269903570741,12.8553450425452,13.8947619256519,15.6558873601806,16.8638179961093,13.5881803360115,10.5576226536427,4.5112983091881,6.60715549716729,12.8876567633635,12.3333042748845,13.7996271971815,14.74166699264,14.8229567266396,12.6605081320414,10.2684241420574,0.447315666670074,0.804761906110105,0.9994000377118,0.994542932132847,1,0.999880087618925,0.994843293976969,0.949842164673799,42.726117,-76.655339,2016,"NYH2",12
"B14A/MO17","ARH2_2016",12.05,731.12121286656,0,2,220.5,135.5,64,63.5,5.78093742206693,12.265000184377,3.71212020820834,7.02228860006285,1.10500001907349,0.295568184419112,1.93128791351543,1.45469692692612,6.28083569178483,184.989997506142,73.5900011062622,50.6740907539021,233.205909837376,2.21000003814697,2.36454547535289,51.2972726388411,7.65681795640425,194.70590644533,17.7645711898804,17.2271962165833,20.1405853736324,19.8064448117891,18.8826211727027,19.79738723148,18.6944065441324,19.8885487758752,15.607143551723,21.0278125703335,25.6983334223429,24.8822470662624,27.5574788870291,33.1628784988866,33.3801704536785,32.4072806330723,33.7124844464389,31.3768475300406,8.51718754693866,14.1383333206177,13.2669300286413,16.7583488235741,22.7915153503418,23.2152275497263,22.5635331248055,22.9502423373136,22.3752492012516,8.62630812400512,12.3761800663264,11.7581879605187,14.4664485465038,19.8918990278765,20.2426308826887,19.4302420192383,20.2373530270853,18.8112695233672,0.958649555088154,1,1,1,1,1,1,1,35.838614,-90.66530155,2016,"ARH2",24
"B14A/H95","NYH3_2015",22.4,731.12121286656,0,0,229,125,83,82,4.26838707539343,0,1.23480362862861,3.31548590496468,3.74470586428309,3.70874331928192,2.03473858875296,2.09190753286542,2.16016066343177,132.319999337196,0,17.669999435544,111.464706651428,9.84352939345819,38.4235294566435,75.3511776310556,21.4923532237025,65.3723531067371,20.9588571671517,21.7616018295288,22.010031667843,20.4765439063008,19.3750716377707,18.8480084862939,18.0995458235427,14.2586651794525,12.1716549346147,15.2151612850928,28.4139999389648,23.9726607996166,27.9485215330969,28.2241176156437,29.0064544300345,26.8861269088758,22.6542903882269,19.0203909387172,3.20645156502724,16.0079999923706,11.6223586733296,15.6103262901363,16.7502940963296,17.7263369351147,14.8880444255661,11.6083206558939,7.35658823269703,5.34962666660979,14.3873497094372,10.9577344850549,14.1718313559719,14.6193748893675,15.4121399843839,13.3167035418842,10.3456969793581,7.70771127893227,0.504331792142534,1,0.972673749990107,0.996219796126396,1,0.995345527139322,0.95775528025916,0.812032548066487,42.7233625,-76.6555945,2015,"NYH3",24
"PHG29/PHG47","OHH1_2016",14.75,752.35976922624,0,5.5,241.5,119.5,65,64,4.32806446475368,1.77600002288818,3.91514520817277,2.58074065911205,3.89075762575323,4.1704949600528,5.07906928910772,3.9577419347548,3.61459481407063,134.169998407364,8.88000011444092,44.703636136922,85.9177285974676,9.33045467463407,39.9481819326227,160.185453747484,27.6977266587994,110.118636226112,18.3437643974058,22.2428304672241,20.7314695601022,20.3598251803728,19.1523341554584,18.8282464220066,16.7204849062197,17.9873095465335,14.717978926255,19.6358064528435,29.6320003509521,26.5695358893096,28.5926358759461,29.5910605517301,30.6928383605649,29.2168918167121,28.2718868666116,26.3058832172308,8.12096774674231,16.8959997177124,14.973912901117,16.7052856168403,18.3031819083474,19.7444342603587,18.9160148979259,15.4450083848343,13.402624611054,8.11765705231608,15.3272200928741,13.170280569172,14.8167815407942,15.9685705423992,17.2330323566172,16.1171316077875,14.2150247381021,12.5845870964483,0.859331788177589,1,1,1,1,1,0.999172077691259,0.989049277132183,39.860924,-83.6755995,2016,"OHH1",10
"F42/OH43","ARH1_2016",17.75,778.7470665216,0,1,188.5,117,71,68,12.6265622600913,6.05222214592828,7.85959392181908,4.41103236837171,3.76999992132187,0.095833331948579,1.83491350889616,2.95036352764476,2.93171556272115,404.049992322922,54.4699993133545,101.143181920052,160.496816039085,7.53999984264374,0.824999988079071,46.8663639642976,14.7518176382238,90.8831824443557,16.4075767695904,14.4028924306234,17.4133262481418,19.3139989097208,17.4816541382761,22.1591818079804,19.7781726024698,18.2520895112645,17.225964043497,20.37124979496,20.0866667429606,25.2525350665633,26.3044541539922,29.5068177887888,32.2701959152414,33.2207471683232,33.1760686831041,32.7599998597176,8.5396875902079,10.0499999258253,14.8465505392494,15.675688928556,20.1031818389893,20.9033523737782,23.0132003928172,23.4658411589536,23.3566423203589,8.37657913218764,8.62389009177744,12.4075180997134,13.3856810078906,16.804999813889,18.5700508727667,20.093843133889,20.2460302688536,19.8980815100491,0.93219865730498,0.999841266208225,1,1,1,1,1,1,34.72952,-90.7603555,2016,"ARH1",30
"CG119/CG108","ILH1_2018",12.25,691.862063232,0,2,193,90.5,52,51,4.93870967001684,7.67700002193451,2.58810625382629,5.60511757065286,0.281428575515747,3.4563491632068,4.20265659322352,1.00454338428115,2.18382485822507,153.099999770522,76.7700002193451,33.4678575992584,176.772143542767,0.281428575515747,32.7364281586238,135.704285430057,6.58642866568906,67.2342848969357,18.9181233375303,19.3164752960205,20.1027853053364,22.1202895707154,18.9159298624311,20.1629787846217,19.1198064922904,19.09856314132,16.2127272024682,15.9958065248305,18.503999710083,25.3262512285507,29.1945312656031,30.8553567613874,31.8374047082568,28.203585576956,28.8612423911387,26.4387764670699,3.61838711702055,7.57300008535385,14.9470090715762,16.7521197434433,20.4650004250663,20.0205478009723,17.1498215530873,16.7182278762058,13.9524853939102,5.62945699299873,7.5879362052237,12.6448673886302,15.1726399321935,17.6601785932268,17.94105006945,14.8288951872955,14.9738288636256,12.8582392781629,0.640783420648031,0.72660712982927,1,1,1,1,1,0.984431123105036,40.06300125,-88.2291765,2018,"ILH1",23
"F42/MO17","ILH1_2018",16.35,718.89295314432,0,2,244.5,120.5,59.5,57.5,4.93870967001684,7.67700002193451,2.58810625382629,5.60511757065286,0.281428575515747,3.4563491632068,4.20265659322352,1.00454338428115,2.18382485822507,153.099999770522,76.7700002193451,33.4678575992584,176.772143542767,0.281428575515747,32.7364281586238,135.704285430057,6.58642866568906,67.2342848969357,18.9181233375303,19.3164752960205,20.1027853053364,22.1202895707154,18.9159298624311,20.1629787846217,19.1198064922904,19.09856314132,16.2127272024682,15.9958065248305,18.503999710083,25.3262512285507,29.1945312656031,30.8553567613874,31.8374047082568,28.203585576956,28.8612423911387,26.4387764670699,3.61838711702055,7.57300008535385,14.9470090715762,16.7521197434433,20.4650004250663,20.0205478009723,17.1498215530873,16.7182278762058,13.9524853939102,5.62945699299873,7.5879362052237,12.6448673886302,15.1726399321935,17.6601785932268,17.94105006945,14.8288951872955,14.9738288636256,12.8582392781629,0.640783420648031,0.72660712982927,1,1,1,1,1,0.984431123105036,40.06300125,-88.2291765,2018,"ILH1",24
"CG119/CG108","SCH1_2019",11.795,731.12121286656,0,2,172.72,71.12,54,54.5,3.52258064477674,3.02666664123535,1.83207166627958,3.15534991018595,1.49702380668549,2.43988097139767,1.83821312723543,1.7150475976013,2.16246542897642,109.199999988079,18.1599998474121,19.9499998688698,97.8735719323158,2.84642858164651,21.9271430288042,50.916428404195,9.48142844438553,67.036428298269,18.2238053967876,19.247888247172,19.8381614833763,19.938859204939,17.7934952236357,20.8877508432146,19.9301129518968,20.1952560402098,17.6553152003047,24.0812904296383,27.556666692098,26.8636026409599,30.303022531239,30.1509526570638,31.8182345420595,32.8750149825147,31.8445712543669,32.3335714516002,10.7222581025093,15.8883333206177,14.7897779125592,18.3349862715708,20.4966665676662,19.4895437936934,21.1836656381328,19.1694286028544,20.1650460304752,10.6271599305538,13.8823950294698,13.2745578864924,16.3672741997006,17.323809612365,17.6458035283698,19.009890666677,17.48787313509,18.1591706145628,0.967315667785258,1,1,1,1,1,1,1,34.62248225,-82.73756775,2019,"SCH1",24
"B37/OH43","GAH2_2016",11,731.12121286656,0,2,258,198,52,51,1.48612904548645,0,7.31639282646724,2.07978285641698,1.71842106392509,1.26467104491435,2.43256313956764,4.61773679005472,3.23545616822656,46.0700004100799,0,60.5099992752075,55.9721047376332,3.43684212785018,10.1173683593148,67.3173680117256,23.1589471101761,100.284737706184,20.2118938661391,22.8758346557617,19.1011230160256,21.3403657539832,17.8587609090303,19.8381845135438,18.504799453929,15.9975397963273,17.296879826121,27.806774262459,30.5040000915527,32.0601081155143,34.2138268998867,34.9384203459087,34.8628289574071,34.6245511355174,33.3337369617663,32.8000339166958,13.8351613013975,16.5560001373291,19.3590630480755,20.3201968396974,22.9621053996839,21.7643420821742,22.0498494210966,22.2967018729762,20.1464993783425,13.3256687060676,15.6030228291554,17.7253179345392,18.7837254612071,20.3663812460935,19.8919083811276,19.9091667022268,19.7008010464687,18.4234032944344,1,1,1,1,1,1,1,1,33.717295,-83.3110275,2016,"GAH2",26
"CG44/CGR01","IAH2_2017",13.85,725.32887931392,0.5,1,195,88,65,64,2.99193547618005,4.00374990701675,5.59415436127969,1.82415974193672,2.96590905297886,1.13861617337574,3.54439579705404,5.52586092903759,3.22496434239523,92.7499997615814,32.029999256134,86.8399996757507,64.743636071682,5.88090901483189,11.0354546579448,133.685001557524,39.366364874623,98.0227279554714,18.9181115088924,22.0308394432068,18.3906703843513,21.9130098121916,21.5970702604814,21.0005855088282,18.7624625632021,16.5013675579605,14.5633697451035,16.7025806211656,25.2537500858307,21.1644402920874,28.7879280313535,31.3429540287365,31.038908986371,27.7923067917653,26.5413899369054,25.0180860311055,3.83612903808394,9.06000000238419,9.83648406203406,14.7235259390494,17.1804546009411,18.0048533863491,15.618900018401,13.9478747019692,12.2571085666223,5.88435640664124,10.5205817772981,9.32555658634035,14.1961143177765,16.2939337097197,16.5715003347332,14.0580127584531,12.7380351430824,11.5799250069021,0.659274194561254,1,0.882113053044242,1,1,1,1,0.976890028652541,42.06582876,-94.72050129,2017,"IAH2",18
"CG60/LH162","GAH2_2016",11.7,731.12121286656,0,2,214,172,45,44,1.48612904548645,0,7.31639282646724,2.07978285641698,1.71842106392509,1.26467104491435,2.43256313956764,4.61773679005472,3.23545616822656,46.0700004100799,0,60.5099992752075,55.9721047376332,3.43684212785018,10.1173683593148,67.3173680117256,23.1589471101761,100.284737706184,20.2118938661391,22.8758346557617,19.1011230160256,21.3403657539832,17.8587609090303,19.8381845135438,18.504799453929,15.9975397963273,17.296879826121,27.806774262459,30.5040000915527,32.0601081155143,34.2138268998867,34.9384203459087,34.8628289574071,34.6245511355174,33.3337369617663,32.8000339166958,13.8351613013975,16.5560001373291,19.3590630480755,20.3201968396974,22.9621053996839,21.7643420821742,22.0498494210966,22.2967018729762,20.1464993783425,13.3256687060676,15.6030228291554,17.7253179345392,18.7837254612071,20.3663812460935,19.8919083811276,19.9091667022268,19.7008010464687,18.4234032944344,1,1,1,1,1,1,1,1,33.717295,-83.3110275,2016,"GAH2",7
"PHG80/PHZ51","OHH1_2017",17.8,731.76480548352,0,2,229,110,65,64,4.40193544664691,12.2957145145961,4.29988011636302,6.25204526150179,18.3629999076327,4.89239555808631,3.19531729304598,3.431958171936,3.79468875169434,136.459998846054,86.0700016021729,53.6394991636276,223.820499566197,40.8649998873472,50.2680010676384,124.096999973059,30.9940001368523,115.432001267374,19.0647902027253,19.0342750549316,21.0022649127082,20.1503275418602,19.6955542882284,18.8958009767532,18.6983791102966,16.0400154962856,13.8551068441073,20.4790323934247,25.431428364345,25.2400270438728,27.2580381755079,28.0954167842865,28.7327046767148,26.3045644702003,24.6939537054533,24.2572073293261,8.01193550132936,13.4499996730259,12.5988240944101,15.9167310176739,16.7535833597183,18.3982409451225,14.9768818892318,13.115358865932,11.8128440258155,8.40722803270821,12.106521996237,11.6372129301586,13.8931373004777,14.6377478966591,15.6322437267281,13.0725287527822,11.6601203930959,11.1333327080566,0.85352534955273,1,1,1,1,0.996926047829299,1,0.964956739838543,39.855785,-83.66477375,2017,"OHH1",15
"LH195/LH82","NYH1_2017",17.7,731.12121286656,0,2,229,110,65,64,4.75870958066756,4.13999998569489,2.95302494204596,5.71550623200518,4.32087287827144,2.70173206300027,2.61632844338824,1.02263058497457,3.61426843911905,147.519997000694,37.259999871254,45.1261899925414,219.922381491888,11.2685710702624,35.6957141047432,128.424762705962,13.3047620654106,110.890000857058,18.9744435125782,17.8100527657403,22.0763726985416,19.3839747471171,18.5614137876601,19.2253497353029,16.7138256789592,13.4350664320207,9.03754833240572,17.0696775221056,20.2333335876465,22.7745171017373,25.664886994249,26.7039681691972,25.3269152449164,23.2600727170173,23.9684052634079,17.611198191458,5.96419353350516,10.1900000042386,10.9371763249011,15.2036229448209,16.362936383202,14.6065672757674,11.3179340366411,11.5668532308226,6.66954478092379,6.64112734378757,8.72725367499605,10.1527049274721,12.7947461464451,13.7193522643836,12.3756778221065,10.4503517934596,10.9124923049431,7.23915136927561,0.685760370631646,1,1,1,1,0.982493677824514,0.953634339212795,0.701363064221172,42.72880835,-76.6515625,2017,"NYH1",7
"TX714/TX779","TXH1-Dry_2018",12.2,727.90324978176,0,2,237.5,96.5,65,75,2.44233329544465,0.878333330154419,4.91741256001052,2.91095925044977,1.11232141086033,5.98734766325737,3.09403364827696,2.44530950245403,2.57365667705529,73.2699988633394,5.26999998092651,55.2178573012352,113.372142612934,4.44928564344134,64.3635703495571,86.7278586477041,13.6771427350385,77.3578569974218,13.4988632996877,14.4915455182393,13.9248534838171,19.6618496048866,19.3908269973028,19.6418435904543,19.3841029346057,21.21373351415,18.0125832346727,19.6893333117167,26.9583333333333,25.6661437272963,26.5699684543749,30.2423808461144,29.1437299615549,31.9180543268285,33.2644761993771,34.5116055384576,6.35766667922338,15.039999961853,15.1375581486321,13.6905545931612,18.240714152654,16.4484343575537,20.6307032285911,20.5015473865327,23.9749401441184,7.6135705722337,13.4071560355566,12.8752807062941,12.7953613694417,16.3441020747261,15.0664778975255,18.2123343788981,18.7591973934278,20.4060627549583,0.821476193552925,1,0.991620594691275,0.994086429913331,1,1,1,0.999013392447937,30.546318,-96.4329965,2018,"TXH1-Dry",7
"F42/OH43","IAH2_2019",23.8,707.951878656,9,1,240,117,65,64,1.62499997764826,4.99466671943665,7.63382698125987,4.02341454883287,10.5352383568173,1.2235000201634,2.76356744289516,7.26151782906954,4.77332183541973,51.9999992847443,74.9200007915497,126.729286615338,144.380714906113,31.605715070452,12.235000201634,103.205714230027,58.2335712058204,145.353572113173,19.4007869511843,15.5991585731506,17.733772213764,20.3714196622645,18.6917074294317,21.1146088668278,19.0489610311361,16.4610812394392,13.9454261347262,15.7803125455976,14.7866665522257,21.3077396412048,26.9056014090092,30.4667857033866,29.366785798754,27.7021302399588,26.078908695115,24.6989301095544,1.82374999648891,4.27600004474322,9.22220813411321,15.0646722365935,19.7144050598145,18.1754287719727,16.7421217731022,15.3263292785675,13.453586662864,5.18898236774639,5.37138114303097,9.15066822380473,13.4185125554301,17.1062666762375,15.7965739643108,14.4428391706503,13.0451790767413,11.9235761362982,0.546495538936662,0.532857125358922,0.866155154080708,0.998157433935226,1,1,1,0.956872448730631,42.06583499,-94.72067796,2019,"IAH2",31
"PHW52/PHM49","DEH1_2019",21.16,697.396959737856,0,0.2,218.6,98.2,59.6,59,4.88548383405132,0.129999995231628,2.22754366008185,2.83887974343054,7.0926190557934,13.0900794286577,2.37605914671847,7.24609516660372,5.29133873076483,151.449998855591,1.16999995708466,29.4199992418289,87.7514276163919,13.3278571537563,117.810714857919,70.1764280796051,38.8228567923818,163.760714939662,18.0942263295574,22.5275441275703,19.0983295645176,21.1054939145839,16.8799242519197,18.3868353404696,17.4379090753706,14.476434816633,15.1882209444193,17.4912903078141,20.5577778286404,23.0837453456724,28.6110288519394,30.7033335821969,31.5357142251635,31.9663629076681,30.1067382585435,28.4413756884737,7.04516128955349,9.18444446722666,14.3005087701308,18.3414932581405,20.743333589463,21.7011906154572,22.6829330156982,22.0334762732188,19.5725390395811,6.99216838650998,8.73551017725078,11.4143050106146,15.6056687045059,17.7112297913015,18.5929650565741,19.2590150034337,18.0735423865727,16.1304203541944,0.769815655759952,0.948412698885751,0.988507503793619,1,1,1,1,1,38.670675,-75.433225,2019,"DEH1",33
"TX714/PHZ51","ONH1_2017",17.7,731.12121286656,0,2,229,110,65,64,4.42290318973603,4.90499987602234,1.54517322055995,3.42043524389027,1.69537500639757,2.59470000425975,1.85553477411666,1.54565171024702,2.38311134809945,137.109998881817,49.0499987602234,23.5260000944138,140.803499376774,5.37800000905991,36.4615000605583,95.2335010707378,29.8530000910163,72.442500063777,18.6566223482932,17.085453414917,23.1081316370623,20.1258676762395,18.1123231848081,19.448199154763,16.3365299663776,11.6220921499278,7.95773399619337,13.9432257683046,18.2070002555847,22.3568953625361,24.8004575461006,25.1718332052231,25.2296929018838,22.7939628290416,22.1395736741961,13.2953202319795,3.57838706624123,9.70699996948242,10.1038785092604,14.1218529553715,14.8234999100367,13.6326119545528,10.3904861973293,9.84747559454018,3.16628943898447,4.95821241247301,8.02589456270986,9.65909793089355,11.970962334223,12.3574061250221,11.983111058727,9.95345599460199,10.065401602519,5.27337575174164,0.439723497986244,0.877642858028412,1,1,1,0.972410901067044,0.840292505181159,0.515578472813697,43.49546,-80.42596875,2017,"ONH1",16
"LH212HT/LH195","IAH1_2017",18.35,754.93413969408,1,3.5,207.5,94.5,65,64,3.40562492981553,4.9653845842068,4.75627611908435,1.83360658706262,3.81409099607757,2.22148488699788,3.67080832802223,1.81325483980117,2.34747311753145,108.979997754097,64.5499995946884,71.2827261577953,63.7872725833546,4.17772737416354,22.8386367667805,118.906818606637,13.7622724988244,72.0368181575428,16.1986516714096,17.4117801372822,18.8419865113308,22.0772261853777,19.5709462599321,20.6423577019663,19.6533487855188,19.1238258402757,16.8780910515948,17.1134373545647,15.3784616176899,22.9595167923024,28.098072667094,26.507423805468,30.2796059126806,29.7994892260695,26.9283494144291,26.376740509697,5.4131250269711,4.92307697809659,11.465490162608,14.1696252786347,11.6175757754933,16.6577523703527,16.6650409071547,13.3875722172112,12.4151066155028,6.53077833948335,5.76856381165309,10.4537021498713,13.7196511279626,11.9478337828281,15.6426259768559,15.399646170179,12.7123989246095,12.1737806011652,0.629988832066634,0.555054952155103,0.946458761983939,1,1,1,1,0.998130952344312,41.19924609,-91.49402296,2017,"IAH1",17
"B73/PHM49","NEH2_2015",13.75,769.0931772672,0,3,229,110,95.5,94,1.35875000804663,3.75599999427795,3.0312642160566,1.28609090161586,0.286666671435038,1.65718752741814,3.75175936234048,0.157499998807907,0.616713690613547,43.4800002574921,37.5599999427795,66.2900002598763,43.4999997615814,0.860000014305115,16.5718752741814,117.643123269081,0.944999992847443,18.9906244128942,19.5378324687481,19.9865628242493,18.8528682006309,23.6515267445892,23.2123234272003,22.7312117993832,19.6276781342462,21.6194818473998,18.2072823920237,15.038749919855,23.1520002365112,18.6692758285186,30.1456176773453,32.3751038511594,32.6086250662804,30.3648981920793,32.3132081599463,28.3144870604238,-2.42656248784624,5.23099999427795,5.26405106663817,13.5723423028142,16.5714581012726,16.1308747947216,15.9646130974384,15.5681904724666,11.1963467507293,4.19248534704874,8.47829673153606,6.89490435408322,14.3761050844018,16.560327995662,16.4700800876987,15.3434088039049,16.0526129070914,12.8317300494645,0.519497764022422,0.976535719633102,0.809891264926545,1,1,1,1,0.92202169835659,41.0514495,-100.7471915,2015,"NEH2",24
"PHP02/PHB47","INH1_2016",16.65,689.28769276416,3.5,11,254.5,125,61,58,3.03451614802883,1.38285718645368,3.10656882285516,3.96627025574623,3.5004544691606,6.75263637087562,3.45117264331826,3.19852811820579,3.02442279661389,94.0700005888939,9.68000030517578,31.2600005865097,138.875910509716,3.5004544691606,67.5263637087562,113.892727423798,21.665454398502,92.6259097240188,17.6332864915171,23.975117955889,20.6644157743121,20.1236557979185,19.9706746014682,19.3914948420091,18.1452765645095,15.9853371552059,14.6282023681807,18.7451610872822,26.3114280700684,27.8489884616612,28.128934173179,28.2027271444147,29.1450453844937,29.1677900132707,27.9556494110074,27.0773909331999,7.95032263571216,11.6942855290004,16.3181792235504,16.1060653765268,16.8522730957378,18.3487275210294,18.5888960498719,17.5028462595754,15.0384101224085,7.67710047192516,11.916890154154,14.2428837792982,14.4184555008251,14.6852160398404,15.7994255976279,15.9329094047117,14.9223815108922,13.5173469210224,0.85264976315784,1,1,1,1,1,1,0.996102814098973,40.4787595,-86.98982,2016,"INH1",13
"CG60/LH162","DEH1_2015",16.7,710.52624912384,0,11.5,204.5,90.5,54,54.5,2.877187483944,6.84800000190735,1.65812227065002,2.89981113868033,0.533124998211861,6.39805544084973,4.54206526084818,4.66633341695581,5.69481861783612,92.069999486208,68.4800000190735,26.8631244525313,94.403749205172,0.778750002384186,57.5824989676476,115.858124211431,26.7362504601479,176.53937715292,18.0978914797306,17.2013893604279,20.1115188355204,21.0089776981854,21.5349248051643,19.2473051614232,17.7019111319721,15.0562807784194,15.1484673523134,16.8265626430511,19.2440000534058,20.7237695406926,27.6889034218542,31.5665628314018,31.8635417355431,32.09465687106,30.4336400264785,29.0939515059994,6.26593750482425,9.85899999141693,10.7453803031313,17.6787637613727,20.387500166893,21.3565970261892,22.772206074744,22.282508844421,20.5664716151453,6.52196032901766,8.41291476735724,9.22995774812798,14.8599372331721,17.9770314991474,18.5817073937474,19.3617069706047,18.3580744354498,16.8673674529789,0.750435272946821,0.870857151065554,0.962682183853112,1,1,1,1,1,38.62935675,-75.4656925,2015,"DEH1",8
"PB80/PHZ51","GAH2_2016",13.55,731.12121286656,0,2,250.5,209,52.5,50.5,1.48612904548645,0,7.31639282646724,2.07978285641698,1.71842106392509,1.26467104491435,2.43256313956764,4.61773679005472,3.23545616822656,46.0700004100799,0,60.5099992752075,55.9721047376332,3.43684212785018,10.1173683593148,67.3173680117256,23.1589471101761,100.284737706184,20.2118938661391,22.8758346557617,19.1011230160256,21.3403657539832,17.8587609090303,19.8381845135438,18.504799453929,15.9975397963273,17.296879826121,27.806774262459,30.5040000915527,32.0601081155143,34.2138268998867,34.9384203459087,34.8628289574071,34.6245511355174,33.3337369617663,32.8000339166958,13.8351613013975,16.5560001373291,19.3590630480755,20.3201968396974,22.9621053996839,21.7643420821742,22.0498494210966,22.2967018729762,20.1464993783425,13.3256687060676,15.6030228291554,17.7253179345392,18.7837254612071,20.3663812460935,19.8919083811276,19.9091667022268,19.7008010464687,18.4234032944344,1,1,1,1,1,1,1,1,33.717295,-83.3110275,2016,"GAH2",13
"B37/OH43","NEH2_2018",17.45,748.49821352448,0,2,279.5,103.5,65,64,1.22354839309569,0.707272735509005,4.76391163477479,2.42266069272827,9.35923087596893,1.18776923774654,2.22139935021973,1.06061537239578,2.65564350872566,37.9300001859665,7.78000009059906,61.5892304823949,72.5253856457197,18.7184617519379,11.034615443303,72.0223070428922,6.79538455376258,82.0723077448515,19.8632896023412,17.8607451698997,17.2435083841872,22.6349901528079,18.628623522245,21.2128618370773,19.6223780615579,18.4525281914861,16.5687013774395,17.691935500791,17.4790908640081,23.0465718636968,30.8117888702973,30.823461826031,31.1549999628312,29.4152359702256,30.1389270020929,26.5711762356107,3.02612899964856,6.97909088568254,13.8680170539226,18.3158259088611,19.9407690488375,19.0567348488376,17.5250552467636,17.6920075343205,12.6963680309468,6.27529999293415,6.96591957194354,11.1088917397853,16.6618821512434,17.3821154374343,17.1119836026383,15.6185736804764,16.0902520506476,12.6873550713879,0.680334109864477,0.762240243422521,1,1,1,0.996687975382261,0.997695055112734,0.910447977617617,41.38042275,-96.55988375,2018,"NEH2",27
"LH195/PHZ51","DEH1_2017",19.8666666666667,722.9690397184,0,14.8333333333333,232.666666666667,113.166666666667,67,66.8333333333333,2.91718745790422,6.20142868586949,3.00780289028715,3.51798387630548,1.21142852117145,1.63275129076034,5.21425936785246,11.3193468755605,4.88273070798553,93.349998652935,43.4100008010864,45.3457148869832,126.779048942384,1.26857137680054,15.4833330313365,157.85333279201,69.2480949220203,151.3147630578,17.0564796179533,17.7322864532471,20.7109648054357,19.5738604252989,19.1555669421241,20.8859280858721,18.2123717552112,18.1575605574108,16.5860739368814,20.2662499845028,24.6614287240165,21.7224504345482,26.8229896455589,30.3507143656413,30.3114816221611,30.695552993145,28.4309092143225,27.2970235560896,9.32593758031726,14.1957142693656,10.687522006195,16.7585521273381,19.9063490004767,19.8815078785811,21.2169032219805,18.721444546014,17.9144449122429,8.6904799528833,12.0840231421066,9.78793426930988,14.1243186804428,17.1548256791078,17.1405073545012,17.9479055635566,15.6354630937149,14.7461382337137,0.907287955683257,1,0.959736116003801,1,1,1,1,1,38.67025825,-75.4333645,2017,"DEH1",15
"F42/H95","MIH1_2016",17.5,722.11091622912,0,2,219.5,131,63,63,3.21387092721078,0.372000002861023,1.27766823751149,2.07214459371672,0.20476189870683,2.3826363414913,6.27786691564838,3.12959525082612,4.11573424348527,99.6299987435341,1.86000001430511,16.7785713445573,74.4033328010922,0.614285696120489,24.3414283479963,217.368091578285,23.8857143783853,123.581428226261,20.0448123255084,22.6962894439697,22.5746065354076,21.1906692752228,19.6251171808394,19.4147049585978,17.4353601100157,14.1652357247952,12.412394394877,17.7432258052211,29.2099998474121,25.5794776543011,28.1508514012466,27.2354765089731,30.3278356370472,28.2729452857857,26.6388532040611,22.5021940360482,5.29967743350613,16.3360000610352,11.9036117370239,14.7044761053872,15.7457937664456,17.5267100049304,16.2551167156484,15.5865084050104,10.8682508092492,6.61582777611151,14.8990897437943,11.6236597478117,13.829435271034,13.7090853107975,16.0158399076304,14.4864957883775,13.4826500001342,10.0912945511251,0.734400921702934,1,1,1,1,0.999987732756559,0.993265589821636,0.936590208093553,42.41206675,-84.2952625,2016,"MIH1",23
"B37/H95","GAH2_2018",16.45,774.88551081984,0,2,232,99,54.5,54,4.84967745888618,0.472857134682792,6.38984283527144,2.50728712962131,2.62500000283832,3.79519841145901,2.49966845428401,2.8287857288406,3.72412446731796,150.340001225471,3.30999994277954,84.9085696467331,76.9578574214663,5.38785717317036,33.8478571346828,66.1414286494255,15.0642858062472,115.447858486857,20.4955881180302,21.8851153509957,20.3329850251172,19.1599877182245,23.5162671634129,19.7079079832349,20.0248900302085,19.4201906385876,16.0079359810473,23.574838699833,25.8042855943952,25.0982466928002,29.4338754995983,32.5767859504336,32.3044644802336,33.9553133770799,34.1288569904509,31.9958754816363,8.78774203408149,10.5771427835737,11.2078081937334,18.18961495413,18.4690478188651,20.5788887871636,21.2528475332136,21.0849286215646,21.0162903284697,9.71754329526851,11.3392147010659,11.2342556626861,15.8911321098361,17.5337695363242,18.4416766336986,19.3188239485151,19.4729093337791,18.4928476713494,0.993778801184096,1,1,1,1,1,1,1,33.71560925,-83.30894675,2018,"GAH2",25
"PHN11_PHW65_0323/LH195","OHH1_2017",20.75,752.35976922624,0,2,229,110,65,64,4.40193544664691,12.2957145145961,4.29988011636302,6.25204526150179,18.3629999076327,4.89239555808631,3.19531729304598,3.431958171936,3.79468875169434,136.459998846054,86.0700016021729,53.6394991636276,223.820499566197,40.8649998873472,50.2680010676384,124.096999973059,30.9940001368523,115.432001267374,19.0647902027253,19.0342750549316,21.0022649127082,20.1503275418602,19.6955542882284,18.8958009767532,18.6983791102966,16.0400154962856,13.8551068441073,20.4790323934247,25.431428364345,25.2400270438728,27.2580381755079,28.0954167842865,28.7327046767148,26.3045644702003,24.6939537054533,24.2572073293261,8.01193550132936,13.4499996730259,12.5988240944101,15.9167310176739,16.7535833597183,18.3982409451225,14.9768818892318,13.115358865932,11.8128440258155,8.40722803270821,12.106521996237,11.6372129301586,13.8931373004777,14.6377478966591,15.6322437267281,13.0725287527822,11.6601203930959,11.1333327080566,0.85352534955273,1,1,1,1,0.996926047829299,1,0.964956739838543,39.855785,-83.66477375,2017,"OHH1",21
"TX777/LH195","WIH2_2015",35.7,770.38036250112,0,0,262.5,146.5,65,64,3.12677418801092,2.65500004092852,4.10360587788369,5.33606725073504,1.86882352828979,3.14284756646862,3.06635871261474,6.46327216547577,3.42627895726651,96.9299998283386,15.9300002455711,53.5811765053693,186.069413493661,5.43588234396542,36.0370585217195,132.474706411362,52.801177333383,103.499412364819,19.6364621193178,20.5731145540873,21.5892617017256,21.0711117653476,18.3630023844102,19.2051703551661,18.5458357222424,13.68038167737,11.3747629179222,15.6409677997712,24.9766667683919,26.1182311514896,28.0952907748788,27.5158822676715,27.9129860396904,26.446906195709,23.9533144307555,17.6364554289999,3.35580646607184,13.6266668637594,13.8892249418098,15.1778817355709,17.2276475008796,16.9294609080024,13.7343451854096,12.6373390166389,6.34391337544442,5.37086055393058,11.9313890592981,12.6525642606911,14.0429022055175,14.4358603312718,14.5758898439564,12.7664601406529,11.4948295633928,7.02316371690367,0.588214291611575,1,1,1,1,0.979783321564246,0.914260834660243,0.715230077160589,43.3264485,-89.33359975,2015,"WIH2",16
"B73/PHN82","WIH1_2015",38.2,790.97532624384,0,0,266.5,163.5,65,64,4.73000005912036,9.05999978383382,2.43061068168386,6.19005986556151,3.24281251430511,1.73931090915814,2.56322206766969,2.5826045268506,2.06486223506671,151.360001891851,54.3599987030029,32.300625488162,198.088750079274,6.48562502861023,21.1143751442432,113.252501126379,35.4293755665421,62.4800001233816,19.3236754387617,22.1910498936971,23.8972514964953,19.0410510068734,21.6280432442824,20.7255365879108,16.0925579709474,13.722787601418,9.59556191513936,19.9571875482798,28.1500002543132,26.0532609907049,28.8593200589564,29.0738543669383,26.5105607723578,24.8273939882814,20.1808902607393,14.5154980836536,8.51718754309695,15.3049998283386,11.8280294384883,17.4878351835719,16.4801037510236,14.4961537795189,12.3150913731169,8.58194562556843,2.68044018258631,8.55835087322049,13.98301753897,11.81015597229,15.2618382755968,14.9558189846116,12.9875354191,11.6812346906955,8.628108427747,5.08755073101082,0.777276777234095,1,1,1,1,0.929186389078322,0.833919484023419,0.505939954463764,43.05511725,-89.528525,2015,"WIH1",37
"LH82/PHB47","ILH1_2016",16.3,733.05199071744,0,2,247.5,122,72.5,70.5,2.97690523692196,4.38840902691538,2.26653606655233,5.61207630954248,2.38484847184383,3.5965513070917,3.31235071929027,4.35749997459836,4.79379031928375,93.7199998497963,46.3549993336201,33.4606812819839,180.417726646093,4.62886360558597,41.7338635867292,104.141365719112,28.3243180147626,148.202045347203,18.8248824135911,16.772414523905,21.3206123477011,20.186536070862,20.742345383673,18.0798104173881,18.8666988996862,17.8581825314146,16.0768072129811,18.0508114395122,19.2020452456041,23.0422996986406,29.4229266243166,27.9030872836257,26.9731781198959,29.6021857332558,29.1593882944677,28.1759287739546,4.96004029539143,8.5312726020813,10.4507586023432,17.100495052534,15.9971779440389,16.8488147764823,19.4105485847029,18.8438310752183,17.0974068698762,6.7812351246955,7.96926780707668,10.1711916616246,15.4161417086623,14.2957979847463,14.1538489170388,16.5199597663553,16.0495125310087,14.8445893652738,0.666766271376172,0.897956158588459,0.946860721270467,1,1,1,1,0.999883116813965,40.0607245,-88.2338815,2016,"ILH1",9
"TX951/LH195","ARH2_2016",16.05,731.12121286656,0,2,205.5,113,70.5,68.5,5.78093742206693,12.265000184377,3.71212020820834,7.02228860006285,1.10500001907349,0.295568184419112,1.93128791351543,1.45469692692612,6.28083569178483,184.989997506142,73.5900011062622,50.6740907539021,233.205909837376,2.21000003814697,2.36454547535289,51.2972726388411,7.65681795640425,194.70590644533,17.7645711898804,17.2271962165833,20.1405853736324,19.8064448117891,18.8826211727027,19.79738723148,18.6944065441324,19.8885487758752,15.607143551723,21.0278125703335,25.6983334223429,24.8822470662624,27.5574788870291,33.1628784988866,33.3801704536785,32.4072806330723,33.7124844464389,31.3768475300406,8.51718754693866,14.1383333206177,13.2669300286413,16.7583488235741,22.7915153503418,23.2152275497263,22.5635331248055,22.9502423373136,22.3752492012516,8.62630812400512,12.3761800663264,11.7581879605187,14.4664485465038,19.8918990278765,20.2426308826887,19.4302420192383,20.2373530270853,18.8112695233672,0.958649555088154,1,1,1,1,1,1,1,35.838614,-90.66530155,2016,"ARH2",14
"CG119/CG108","ONH1_2017",24.1,678.02482196736,0,6.25,221.25,106.25,66.75,66.75,4.42290318973603,4.90499987602234,1.54517322055995,3.42043524389027,1.69537500639757,2.59470000425975,1.85553477411666,1.54565171024702,2.38311134809945,137.109998881817,49.0499987602234,23.5260000944138,140.803499376774,5.37800000905991,36.4615000605583,95.2335010707378,29.8530000910163,72.442500063777,18.6566223482932,17.085453414917,23.1081316370623,20.1258676762395,18.1123231848081,19.448199154763,16.3365299663776,11.6220921499278,7.95773399619337,13.9432257683046,18.2070002555847,22.3568953625361,24.8004575461006,25.1718332052231,25.2296929018838,22.7939628290416,22.1395736741961,13.2953202319795,3.57838706624123,9.70699996948242,10.1038785092604,14.1218529553715,14.8234999100367,13.6326119545528,10.3904861973293,9.84747559454018,3.16628943898447,4.95821241247301,8.02589456270986,9.65909793089355,11.970962334223,12.3574061250221,11.983111058727,9.95345599460199,10.065401602519,5.27337575174164,0.439723497986244,0.877642858028412,1,1,1,0.972410901067044,0.840292505181159,0.515578472813697,43.49546,-80.42596875,2017,"ONH1",25
"LH74/PHN82","NEH3_2015",18.1,740.131509504,0,1.5,229,110,63.5,62,3.23125005699694,0.918000030517578,0.565093977294324,1.28669219481814,3.19749999046326,1.39113635366613,0.258061220527439,1.47466718299048,0.155891338361218,103.400001823902,4.59000015258789,6.15000009536743,39.0474997758865,4.72000002861023,15.3024998903275,11.1799998283386,14.5287498533726,4.64812502264977,21.7912757396698,25.6944263458252,22.867254847038,21.8227166540337,15.2631763219833,20.5907900008288,20.0641284227863,16.2796896759308,13.5386177646183,24.2875001728535,32.6459999084473,30.5877144724061,32.6773132882273,28.9159377217293,29.872386563908,30.8070712705365,25.3903164518473,21.3201827481664,9.27874993439764,13.0079998016357,13.882863304929,15.7826582019676,17.055312037468,14.6271022883329,13.1831330674245,8.87540479026961,3.33401708582752,10.4625782483436,15.2833069114413,14.4546585187703,16.2200567809637,15.0938879027355,14.4964540010227,14.5302013640258,10.9003956474841,7.85174739566555,0.909587052451181,1,1,1,1,0.965712824155829,0.862507779461642,0.809539309558486,41.15824525,-101.9872958,2015,"NEH3",23
"TX779/LH195","TXH2_2019",12.79,799.084593217536,0,0,216,79,67,66,1.71448274965173,0.072857141494751,3.656594302147,9.09543456371003,0.409285715648106,1.20767857134342,5.35585078307965,1.24614285230637,1.57441934339828,49.7199997399002,0.509999990463257,52.0078563094139,328.212138780526,0.592857139451163,9.66142857074738,146.447857277734,6.531428532941,47.5149996536119,15.4280570457722,20.5213113512312,18.768988344457,18.5703255916766,21.4234965869359,18.852815253394,20.148813605732,21.0307275136312,19.8408923398148,18.4500000723477,25.7642857687814,24.4325494379212,27.2758673216928,31.0900000163487,32.3786609854017,32.7243520483546,34.0447144826253,34.9820077594341,6.8262069143098,10.3500000408718,10.6796315414328,14.7876673923985,18.6585717882429,21.8507142748152,21.0244273483534,21.7961428233555,22.6049738996772,7.4578164675981,11.1589152046898,10.8511947929525,13.4663040330347,16.9119367665064,19.1141210544432,18.8476531392514,19.7780710195599,20.0141955883191,0.749667494461454,1,0.945308164445992,1,1,1,1,0.999698925164804,30.546318,-96.4329965,2019,"TXH2",10
"TX951/LH195","MOH1_2016",21.05,731.12121286656,0,2,265,137.5,63.5,60.5,2.46548387696666,8.05800023078918,0.26425937654912,6.28252126803095,1.94553034955805,9.25680558966717,4.35890712054063,3.35466445060003,5.45313052702641,76.4300001859665,40.2900011539459,2.87999999523163,172.837275786833,4.26272736896168,83.2036366733638,125.209091579372,21.1336360627955,168.224091789262,20.2309362965245,16.9350936889648,22.4982955657569,20.2095998884574,18.6817798614502,19.2140896434736,18.009092196306,17.1771441321352,15.8753494680802,21.8319354826404,27.5660003662109,27.8864476525043,31.2121523499736,30.2579544240778,31.2505744972614,30.5742306529435,29.8007791217787,28.2533923636667,10.0738709972751,16.7440000534058,16.2647446268316,19.8621598402259,19.9837122252493,20.4911741319329,20.7615379101816,19.9143179443491,17.5631836798883,9.49779854702591,14.2434334868972,14.2129642512569,17.4733694599123,17.1223259823391,17.869915103463,17.6510486247485,16.9099855149229,15.0956111701838,0.937315665082448,1,1,1,1,1,1,0.999442640656517,38.8955475,-92.2072025,2016,"MOH1",15
"F42/OH43","TXH1-Late_2018",12.5,746.5674356736,0,2,258,92.5,59.5,59,3.5793750025332,7.22999986012777,0.880950212466032,3.39399650565147,5.74642871958869,3.61914694878968,3.45560049644284,0.428285707746233,2.2787097211807,114.540000081062,43.3799991607666,11.7107142976352,109.309285019125,11.4928574391774,35.4171440643924,87.1585709388767,2.14142853873117,70.6400013566017,15.1890550404787,16.9814987182617,20.4111461997292,19.9987621572639,15.8160833404178,20.1152116011059,19.5823012089101,16.3941785948617,18.6152318413906,25.4215626120567,25.4816667238871,24.9240564974382,29.8609676759365,30.5592857315427,31.1110338370005,33.471735544548,33.678570665632,35.6292394646851,13.7340625077486,14.7233331998189,12.1417448389526,16.9768337518894,21.1738096872966,19.9290791380973,21.6003019523645,24.8844285964966,24.5352535247803,12.2487610557836,12.9546326020938,11.4732109690061,15.6369768953886,17.8686949252443,17.4931939916305,19.3485664524142,20.6305847067263,20.9047458821383,0.995234378746578,0.961607143992469,1,1,1,0.999944235746723,0.999152383350191,0.99903341174675,30.546318,-96.4329965,2018,"TXH1-Late",32
"B37/MO17","WIH2_2018",28.0666666666667,742.70587997184,2.16666666666667,2,251.833333333333,132.666666666667,69.6666666666667,68.1666666666667,3.14419357238277,1.76857142789023,3.7850711937244,5.16484622721252,1.71595238503956,3.40222404942368,3.04494882245682,9.61559933750402,3.37177261638065,97.470000743866,12.3799999952316,46.2814290182931,179.869998318808,4.56071427890233,37.7064288343702,131.482145317963,73.4771447862898,101.717141609107,19.2573341092756,21.1210829871041,21.4752587688556,21.2745392970238,18.3171726181394,18.5302155637122,18.6607088369069,13.625803150659,11.3718547526592,15.5287096115851,24.665714263916,26.0917028350164,28.2348686412978,27.8659524917603,27.6583875546724,26.7064113625472,24.9215236168329,17.9686743887339,3.195161296956,12.9500000817435,13.8890289352891,15.1338539459878,17.4050001189822,17.0648214997667,13.7709706188762,13.5657747038241,6.88716511658397,5.28984108241052,11.5719513224068,12.6458491000419,14.0894685781005,14.7169908688233,14.5010708096508,12.893566291538,12.2339728232487,7.2792037808306,0.580092163387394,1,1,1,1,0.981419112725804,0.932006969360863,0.738663650155215,43.38075,-89.38645,2018,"WIH2",15
"PHW52/PHM49","ONH2_2017",29.4,855.33458793984,0,2,221,93,50.5,47.5,3.5667742529223,5.81600005626678,0.640467161488946,2.60285034576314,0.27619046824319,0.553043346265297,1.77415042468807,1.8322193505358,2.40528059047854,110.570001840591,58.1600005626678,8.99904758589608,96.0257148231779,0.55238093648638,6.91857143810817,78.7085716128349,24.0661906514849,72.9814284727687,18.8542372026751,16.7486707210541,24.2129103871374,19.3709418074881,21.1971578446646,20.8470523735834,17.6115175917995,14.25368499546,9.92782470727663,15.7532256957023,18.6889998435974,23.4026282865202,26.349749969441,26.5938094911121,26.8606501324273,24.5722531696102,22.9174861617247,20.0059681545616,5.76483872628981,10.960000038147,12.0335911848343,16.1800782706558,16.6330158142816,15.9192033646599,13.1457407086605,11.2717777505092,10.1065058561854,6.14192830243868,8.3866030604193,10.6839465453898,13.5252167119854,13.7753985037319,13.6499871813553,11.5882146496872,10.4155272324174,9.10741430426533,0.598502302774086,0.966571422985622,1,1,1,0.999084662263501,0.956230826192702,0.830002500100802,42.45293025,-81.8827315,2017,"ONH2",34
"B37/OH43","MIH1_2018",27.25,639.08746864128,5.5,2,234,117,66,61,5.01225806436231,1.85857137611934,2.30331191463433,3.25951691756812,0,1.60415119941418,2.92619831356102,4.21553021195656,2.83007403868438,155.379999995232,13.0099996328354,29.7907139573778,101.442142486572,0,18.1621430601392,122.341429148402,36.1057143041066,85.3414282117571,19.7861952781677,22.4124417986189,25.0884598450622,20.2612458458858,21.4032746950785,19.637790091245,17.5968755658502,14.6465572693566,11.3353334319491,19.0825806125518,24.4042857033866,26.505944844571,29.8591727623839,29.2076190766834,28.9402475938851,27.0018144543115,23.872538371452,17.7408049407478,7.63354836452392,11.5700000354222,11.5577044046365,16.9041061443352,16.7723805904388,17.0588350970071,14.0643132941307,11.7732902665618,6.16018373429463,7.98558094772299,11.0854581776882,11.9601199609315,15.5131733342938,15.0676347638495,15.1176834662804,13.1591194742283,11.0037102398898,6.94989994028217,0.750656678482959,0.993928568703788,1,1,1,0.982067154646315,0.951173413871536,0.716707840592432,42.689234,-84.49755575,2018,"MIH1",28
